!- Darwin Line endings 

Version,
    9.5;                      !- Version Identifier

SimulationControl,
    No,                       !- Do Zone Sizing Calculation
    No,                       !- Do System Sizing Calculation
    No,                       !- Do Plant Sizing Calculation
    No,                       !- Run Simulation for Sizing Periods
    Yes,                      !- Run Simulation for Weather File Run Periods
    No,                       !- Do HVAC Sizing Simulation for Sizing Periods
    1;                        !- Maximum Number of HVAC Sizing Simulation Passes

Building,
    None,                     !- Name
    0,                        !- North Axis
    Suburbs,                  !- Terrain
    0.04,                     !- Loads Convergence Tolerance Value
    0.4,                      !- Temperature Convergence Tolerance Value
    FullExterior,             !- Solar Distribution
    25,                       !- Maximum Number of Warmup Days
    6;                        !- Minimum Number of Warmup Days

SHADOWCALCULATION,
    PolygonClipping,          !- Shading Calculation Method
    Periodic,                 !- Shading Calculation Update Frequency Method
    20,                       !- Shading Calculation Update Frequency
    25000,                    !- Maximum Figures in Shadow Overlap Calculations
    SutherlandHodgman,        !- Polygon Clipping Algorithm
    512,                      !- Pixel Counting Resolution
    SimpleSkyDiffuseModeling,    !- Sky Diffuse Modeling Algorithm
    No,                       !- Output External Shading Calculation Results
    No,                       !- Disable SelfShading Within Shading Zone Groups
    No;                       !- Disable SelfShading From Shading Zone Groups to Other Zones

ZONEAIRCONTAMINANTBALANCE,
    Yes,                      !- Carbon Dioxide Concentration
    Outdoor CO2 Schedule,     !- Outdoor Carbon Dioxide Schedule Name
    Yes,                      !- Generic Contaminant Concentration
    Generic Contaminant Schedule;    !- Outdoor Generic Contaminant Schedule Name

Timestep,
    4;                        !- Number of Timesteps per Hour

Site:Location,
    WeatherData/SWE_ST_Stockholm.024850_TMYx.2009-2023.epw,    !- Name
    37.62,                    !- Latitude
    -122.4,                   !- Longitude
    -8,                       !- Time Zone
    2;                        !- Elevation

SizingPeriod:DesignDay,
    DENVER_STAPLETON Ann Htg 99.6% Condns DB,    !- Name
    12,                       !- Month
    21,                       !- Day of Month
    WinterDesignDay,          !- Day Type
    -20,                      !- Maximum DryBulb Temperature
    0,                        !- Daily DryBulb Temperature Range
    ,                         !- DryBulb Temperature Range Modifier Type
    ,                         !- DryBulb Temperature Range Modifier Day Schedule Name
    Wetbulb,                  !- Humidity Condition Type
    -20,                      !- Wetbulb or DewPoint at Maximum DryBulb
    ,                         !- Humidity Condition Day Schedule Name
    ,                         !- Humidity Ratio at Maximum DryBulb
    ,                         !- Enthalpy at Maximum DryBulb
    ,                         !- Daily WetBulb Temperature Range
    100594,                   !- Barometric Pressure
    2.3,                      !- Wind Speed
    180,                      !- Wind Direction
    No,                       !- Rain Indicator
    No,                       !- Snow Indicator
    No,                       !- Daylight Saving Time Indicator
    ASHRAEClearSky,           !- Solar Model Indicator
    ,                         !- Beam Solar Day Schedule Name
    ,                         !- Diffuse Solar Day Schedule Name
    ,                         !- ASHRAE Clear Sky Optical Depth for Beam Irradiance taub
    ,                         !- ASHRAE Clear Sky Optical Depth for Diffuse Irradiance taud
    0;                        !- Sky Clearness

SizingPeriod:DesignDay,
    DENVER_STAPLETON Ann Clg .4% Condns DB=>MWB,    !- Name
    7,                        !- Month
    21,                       !- Day of Month
    SummerDesignDay,          !- Day Type
    34.1,                     !- Maximum DryBulb Temperature
    15.2,                     !- Daily DryBulb Temperature Range
    ,                         !- DryBulb Temperature Range Modifier Type
    ,                         !- DryBulb Temperature Range Modifier Day Schedule Name
    Wetbulb,                  !- Humidity Condition Type
    15.8,                     !- Wetbulb or DewPoint at Maximum DryBulb
    ,                         !- Humidity Condition Day Schedule Name
    ,                         !- Humidity Ratio at Maximum DryBulb
    ,                         !- Enthalpy at Maximum DryBulb
    ,                         !- Daily WetBulb Temperature Range
    100594,                   !- Barometric Pressure
    4,                        !- Wind Speed
    120,                      !- Wind Direction
    No,                       !- Rain Indicator
    No,                       !- Snow Indicator
    No,                       !- Daylight Saving Time Indicator
    ASHRAEClearSky,           !- Solar Model Indicator
    ,                         !- Beam Solar Day Schedule Name
    ,                         !- Diffuse Solar Day Schedule Name
    ,                         !- ASHRAE Clear Sky Optical Depth for Beam Irradiance taub
    ,                         !- ASHRAE Clear Sky Optical Depth for Diffuse Irradiance taud
    1;                        !- Sky Clearness

RunPeriod,
    Run Period 1,             !- Name
    1,                        !- Begin Month
    1,                        !- Begin Day of Month
    ,                         !- Begin Year
    12,                       !- End Month
    31,                       !- End Day of Month
    ,                         !- End Year
    Tuesday,                  !- Day of Week for Start Day
    Yes,                      !- Use Weather File Holidays and Special Days
    Yes,                      !- Use Weather File Daylight Saving Period
    No,                       !- Apply Weekend Holiday Rule
    Yes,                      !- Use Weather File Rain Indicators
    Yes;                      !- Use Weather File Snow Indicators

SITE:GROUNDTEMPERATURE:BUILDINGSURFACE,
    15,                       !- January Ground Temperature
    15,                       !- February Ground Temperature
    15,                       !- March Ground Temperature
    15,                       !- April Ground Temperature
    15,                       !- May Ground Temperature
    15,                       !- June Ground Temperature
    15,                       !- July Ground Temperature
    15,                       !- August Ground Temperature
    15,                       !- September Ground Temperature
    15,                       !- October Ground Temperature
    15,                       !- November Ground Temperature
    15;                       !- December Ground Temperature

SCHEDULETYPELIMITS,
    Any Number,               !- Name
    ,                         !- Lower Limit Value
    ,                         !- Upper Limit Value
    ,                         !- Numeric Type
    Dimensionless;            !- Unit Type

SCHEDULE:COMPACT,
    AlwaysON,                 !- Name
    Any Number,               !- Schedule Type Limits Name
    Through: 12/31,           !- Field 1
    For: AllDays,             !- Field 2
    Until: 24:00,             !- Field 3
    1;                        !- Field 4

SCHEDULE:COMPACT,
    OccupActivity,            !- Name
    Any Number,               !- Schedule Type Limits Name
    Through: 12/31,           !- Field 1
    For: AllDays,             !- Field 2
    Until: 24:00,             !- Field 3
    70;                       !- Field 4

SCHEDULE:COMPACT,
    WorkEfficiency,           !- Name
    Any Number,               !- Schedule Type Limits Name
    Through: 12/31,           !- Field 1
    For: AllDays,             !- Field 2
    Until: 24:00,             !- Field 3
    0.5;                      !- Field 4

SCHEDULE:COMPACT,
    ClothingInsulation,       !- Name
    Any Number,               !- Schedule Type Limits Name
    Through: 05/31,           !- Field 1
    For: AllDays,             !- Field 2
    Until: 24:00, 2,          !- Field 3
    Through: 09/30,           !- Field 4
    For: AllDays,             !- Field 5
    Until: 24:00, 2,          !- Field 6
    Through: 12/31,           !- Field 7
    For: AllDays,             !- Field 8
    Until: 24:00, 2;;         !- Field 9

SCHEDULE:COMPACT,
    Airvelocity,              !- Name
    Any Number,               !- Schedule Type Limits Name
    Through: 12/31,           !- Field 1
    For: AllDays,             !- Field 2
    Until: 24:00,             !- Field 3
    0.2;                      !- Field 4

SCHEDULE:COMPACT,
    Outdoor CO2 Schedule,     !- Name
    Any Number,               !- Schedule Type Limits Name
    Through: 12/31,           !- Field 1
    For: AllDays,             !- Field 2
    Until: 24:00,             !- Field 3
    400;                      !- Field 4

SCHEDULE:COMPACT,
    Generic Contaminant Schedule,    !- Name
    Any Number,               !- Schedule Type Limits Name
    Through: 12/31,           !- Field 1
    For: AllDays,             !- Field 2
    Until: 24:00,             !- Field 3
    0;                        !- Field 4

SCHEDULE:COMPACT,
    OfficeOccuSchedule 1,     !- Name
    Any Number,               !- Schedule Type Limits Name
    Through: 12/31,           !- Field 1
    For: AllDays,             !- Field 2
    Until: 08:00,             !- Field 3
    0,                        !- Field 4
    Until: 18:00,             !- Field 5
    7.73,                     !- Field 6
    Until: 24:00,             !- Field 7
    0;                        !- Field 8

SCHEDULE:COMPACT,
    OfficeOccuSchedule 6,     !- Name
    Any Number,               !- Schedule Type Limits Name
    Through: 12/31,           !- Field 1
    For: AllDays,             !- Field 2
    Until: 08:00,             !- Field 3
    0,                        !- Field 4
    Until: 18:00,             !- Field 5
    55.52,                    !- Field 6
    Until: 24:00,             !- Field 7
    0;                        !- Field 8

SCHEDULE:COMPACT,
    OfficeOccuSchedule 2,     !- Name
    Any Number,               !- Schedule Type Limits Name
    Through: 12/31,           !- Field 1
    For: AllDays,             !- Field 2
    Until: 08:00,             !- Field 3
    0,                        !- Field 4
    Until: 18:00,             !- Field 5
    7.73,                     !- Field 6
    Until: 24:00,             !- Field 7
    0;                        !- Field 8

SCHEDULE:COMPACT,
    OfficeOccuSchedule 7,     !- Name
    Any Number,               !- Schedule Type Limits Name
    Through: 12/31,           !- Field 1
    For: AllDays,             !- Field 2
    Until: 08:00,             !- Field 3
    0,                        !- Field 4
    Until: 18:00,             !- Field 5
    55.52,                    !- Field 6
    Until: 24:00,             !- Field 7
    0;                        !- Field 8

SCHEDULE:COMPACT,
    OfficeOccuSchedule 3,     !- Name
    Any Number,               !- Schedule Type Limits Name
    Through: 12/31,           !- Field 1
    For: AllDays,             !- Field 2
    Until: 08:00,             !- Field 3
    0,                        !- Field 4
    Until: 18:00,             !- Field 5
    0,                        !- Field 6
    Until: 24:00,             !- Field 7
    0;                        !- Field 8

SCHEDULE:COMPACT,
    OfficeOccuSchedule 8,     !- Name
    Any Number,               !- Schedule Type Limits Name
    Through: 12/31,           !- Field 1
    For: AllDays,             !- Field 2
    Until: 08:00,             !- Field 3
    0,                        !- Field 4
    Until: 18:00,             !- Field 5
    27.76,                    !- Field 6
    Until: 24:00,             !- Field 7
    0;                        !- Field 8

SCHEDULE:COMPACT,
    ResidentialOccuSchedule 4,    !- Name
    Any Number,               !- Schedule Type Limits Name
    Through: 12/31,           !- Field 1
    For: Weekdays,            !- Field 2
    Until: 07:00,             !- Field 3
    3,                        !- Field 4
    Until: 09:00,             !- Field 5
    2,                        !- Field 6
    Until: 17:00,             !- Field 7
    0,                        !- Field 8
    Until: 23:00,             !- Field 9
    3,                        !- Field 10
    Until: 24:00,             !- Field 11
    3,                        !- Field 12
    For: Weekends,            !- Field 13
    Until: 24:00,             !- Field 14
    3,                        !- Field 15
    For: AllOtherDays,        !- Field 16
    Until: 24:00,             !- Field 17
    3;                        !- Field 18

SCHEDULE:COMPACT,
    ResidentialOccuSchedule 9,    !- Name
    Any Number,               !- Schedule Type Limits Name
    Through: 12/31,           !- Field 1
    For: Weekdays,            !- Field 2
    Until: 07:00,             !- Field 3
    3,                        !- Field 4
    Until: 09:00,             !- Field 5
    2,                        !- Field 6
    Until: 17:00,             !- Field 7
    0,                        !- Field 8
    Until: 23:00,             !- Field 9
    3,                        !- Field 10
    Until: 24:00,             !- Field 11
    3,                        !- Field 12
    For: Weekends,            !- Field 13
    Until: 24:00,             !- Field 14
    3,                        !- Field 15
    For: AllOtherDays,        !- Field 16
    Until: 24:00,             !- Field 17
    3;                        !- Field 18

SCHEDULE:COMPACT,
    ResidentialOccuSchedule 10,    !- Name
    Any Number,               !- Schedule Type Limits Name
    Through: 12/31,           !- Field 1
    For: Weekdays,            !- Field 2
    Until: 07:00,             !- Field 3
    3,                        !- Field 4
    Until: 09:00,             !- Field 5
    2,                        !- Field 6
    Until: 17:00,             !- Field 7
    0,                        !- Field 8
    Until: 23:00,             !- Field 9
    3,                        !- Field 10
    Until: 24:00,             !- Field 11
    3,                        !- Field 12
    For: Weekends,            !- Field 13
    Until: 24:00,             !- Field 14
    3,                        !- Field 15
    For: AllOtherDays,        !- Field 16
    Until: 24:00,             !- Field 17
    3;                        !- Field 18

SCHEDULE:COMPACT,
    HotWaterTemp,             !- Name
    Any Number,               !- Schedule Type Limits Name
    Through: 12/31,           !- Field 1
    For: AllDays,             !- Field 2
    Until: 24:00,             !- Field 3
    55;                       !- Field 4

SCHEDULE:COMPACT,
    TargetWaterTemp,          !- Name
    Any Number,               !- Schedule Type Limits Name
    Through: 12/31,           !- Field 1
    For: AllDays,             !- Field 2
    Until: 24:00,             !- Field 3
    37;                       !- Field 4

SCHEDULE:FILE,
    LoadSchedule,             !- Name
    Any Number,               !- Schedule Type Limits Name
    /Users/alizad/PycharmProjects/NewWorking-MUBES/examples/Ex4-ParametricStudy/Build_1/InputFiles/Building1_winter.txt,    !- File Name
    1,                        !- Column Number
    0,                        !- Rows to Skip at Top
    8760,                     !- Number of Hours of Data
    Comma,                    !- Column Separator
    No;                       !- Interpolate to Timestep

SCHEDULE:FILE,
    Watertaps,                !- Name
    Any Number,               !- Schedule Type Limits Name
    /Users/alizad/PycharmProjects/NewWorking-MUBES/examples/Ex4-ParametricStudy/Build_1/InputFiles/domestic_hot_water_40_apartments.txt,    !- File Name
    1,                        !- Column Number
    0,                        !- Rows to Skip at Top
    8760,                     !- Number of Hours of Data
    Comma,                    !- Column Separator
    No;                       !- Interpolate to Timestep

SCHEDULE:FILE,
    ColdWaterTemp,            !- Name
    Any Number,               !- Schedule Type Limits Name
    /Users/alizad/PycharmProjects/NewWorking-MUBES/examples/Ex4-ParametricStudy/Build_1/InputFiles/cold_water_temperature_stockholm.txt,    !- File Name
    1,                        !- Column Number
    0,                        !- Rows to Skip at Top
    8760,                     !- Number of Hours of Data
    Comma,                    !- Column Separator
    No;                       !- Interpolate to Timestep

MATERIAL,
    DefaultMaterial,          !- Name
    Rough,                    !- Roughness
    0.1,                      !- Thickness
    0.1,                      !- Conductivity
    1000,                     !- Density
    1000,                     !- Specific Heat
    0.9,                      !- Thermal Absorptance
    0.7,                      !- Solar Absorptance
    0.7;                      !- Visible Absorptance

WINDOWMATERIAL:SIMPLEGLAZINGSYSTEM,
    DefaultGlazing,           !- Name
    2.7,                      !- UFactor
    0.763,                    !- Solar Heat Gain Coefficient
    0.8;                      !- Visible Transmittance

CONSTRUCTION,
    Project Wall,             !- Name
    DefaultMaterial;          !- Outside Layer

CONSTRUCTION,
    Project Basement Wall,    !- Name
    DefaultMaterial;          !- Outside Layer

CONSTRUCTION,
    Project Partition,        !- Name
    DefaultMaterial;          !- Outside Layer

CONSTRUCTION,
    Project Floor,            !- Name
    DefaultMaterial;          !- Outside Layer

CONSTRUCTION,
    Project Basement Floor,    !- Name
    DefaultMaterial;          !- Outside Layer

CONSTRUCTION,
    Project Flat Roof,        !- Name
    DefaultMaterial;          !- Outside Layer

CONSTRUCTION,
    Project Ceiling,          !- Name
    DefaultMaterial;          !- Outside Layer

CONSTRUCTION,
    Project Door,             !- Name
    DefaultMaterial;          !- Outside Layer

CONSTRUCTION,
    Project External Window,    !- Name
    DefaultGlazing;           !- Outside Layer

GlobalGeometryRules,
    UpperLeftCorner,          !- Starting Vertex Position
    CounterClockWise,         !- Vertex Entry Direction
    World;                    !- Coordinate System

ZONE,
    Block Build_0_Alt0 Storey -1,    !- Name
    0,                        !- Direction of Relative North
    0,                        !- X Origin
    0,                        !- Y Origin
    0,                        !- Z Origin
    1,                        !- Type
    1,                        !- Multiplier
    autocalculate,            !- Ceiling Height
    autocalculate,            !- Volume
    autocalculate,            !- Floor Area
    ,                         !- Zone Inside Convection Algorithm
    ,                         !- Zone Outside Convection Algorithm
    Yes;                      !- Part of Total Floor Area

ZONE,
    Block Build_0_Alt0 Storey 0,    !- Name
    0,                        !- Direction of Relative North
    0,                        !- X Origin
    0,                        !- Y Origin
    0,                        !- Z Origin
    1,                        !- Type
    1,                        !- Multiplier
    autocalculate,            !- Ceiling Height
    autocalculate,            !- Volume
    autocalculate,            !- Floor Area
    ,                         !- Zone Inside Convection Algorithm
    ,                         !- Zone Outside Convection Algorithm
    Yes;                      !- Part of Total Floor Area

ZONE,
    Block Build_0_Alt0 Storey 1,    !- Name
    0,                        !- Direction of Relative North
    0,                        !- X Origin
    0,                        !- Y Origin
    0,                        !- Z Origin
    1,                        !- Type
    1,                        !- Multiplier
    autocalculate,            !- Ceiling Height
    autocalculate,            !- Volume
    autocalculate,            !- Floor Area
    ,                         !- Zone Inside Convection Algorithm
    ,                         !- Zone Outside Convection Algorithm
    Yes;                      !- Part of Total Floor Area

ZONE,
    Block Build_0_Alt0 Storey 2,    !- Name
    0,                        !- Direction of Relative North
    0,                        !- X Origin
    0,                        !- Y Origin
    0,                        !- Z Origin
    1,                        !- Type
    1,                        !- Multiplier
    autocalculate,            !- Ceiling Height
    autocalculate,            !- Volume
    autocalculate,            !- Floor Area
    ,                         !- Zone Inside Convection Algorithm
    ,                         !- Zone Outside Convection Algorithm
    Yes;                      !- Part of Total Floor Area

ZONE,
    Block Build_0_Alt0 Storey 3,    !- Name
    0,                        !- Direction of Relative North
    0,                        !- X Origin
    0,                        !- Y Origin
    0,                        !- Z Origin
    1,                        !- Type
    1,                        !- Multiplier
    autocalculate,            !- Ceiling Height
    autocalculate,            !- Volume
    autocalculate,            !- Floor Area
    ,                         !- Zone Inside Convection Algorithm
    ,                         !- Zone Outside Convection Algorithm
    Yes;                      !- Part of Total Floor Area

ZONE,
    Block Build_1_Alt0 Storey -1,    !- Name
    0,                        !- Direction of Relative North
    0,                        !- X Origin
    0,                        !- Y Origin
    0,                        !- Z Origin
    1,                        !- Type
    1,                        !- Multiplier
    autocalculate,            !- Ceiling Height
    autocalculate,            !- Volume
    autocalculate,            !- Floor Area
    ,                         !- Zone Inside Convection Algorithm
    ,                         !- Zone Outside Convection Algorithm
    Yes;                      !- Part of Total Floor Area

ZONE,
    Block Build_1_Alt0 Storey 0,    !- Name
    0,                        !- Direction of Relative North
    0,                        !- X Origin
    0,                        !- Y Origin
    0,                        !- Z Origin
    1,                        !- Type
    1,                        !- Multiplier
    autocalculate,            !- Ceiling Height
    autocalculate,            !- Volume
    autocalculate,            !- Floor Area
    ,                         !- Zone Inside Convection Algorithm
    ,                         !- Zone Outside Convection Algorithm
    Yes;                      !- Part of Total Floor Area

ZONE,
    Block Build_1_Alt0 Storey 1,    !- Name
    0,                        !- Direction of Relative North
    0,                        !- X Origin
    0,                        !- Y Origin
    0,                        !- Z Origin
    1,                        !- Type
    1,                        !- Multiplier
    autocalculate,            !- Ceiling Height
    autocalculate,            !- Volume
    autocalculate,            !- Floor Area
    ,                         !- Zone Inside Convection Algorithm
    ,                         !- Zone Outside Convection Algorithm
    Yes;                      !- Part of Total Floor Area

ZONE,
    Block Build_1_Alt0 Storey 2,    !- Name
    0,                        !- Direction of Relative North
    0,                        !- X Origin
    0,                        !- Y Origin
    0,                        !- Z Origin
    1,                        !- Type
    1,                        !- Multiplier
    autocalculate,            !- Ceiling Height
    autocalculate,            !- Volume
    autocalculate,            !- Floor Area
    ,                         !- Zone Inside Convection Algorithm
    ,                         !- Zone Outside Convection Algorithm
    Yes;                      !- Part of Total Floor Area

ZONE,
    Block Build_1_Alt0 Storey 3,    !- Name
    0,                        !- Direction of Relative North
    0,                        !- X Origin
    0,                        !- Y Origin
    0,                        !- Z Origin
    1,                        !- Type
    1,                        !- Multiplier
    autocalculate,            !- Ceiling Height
    autocalculate,            !- Volume
    autocalculate,            !- Floor Area
    ,                         !- Zone Inside Convection Algorithm
    ,                         !- Zone Outside Convection Algorithm
    Yes;                      !- Part of Total Floor Area

ZONE,
    Block Build_1_Alt0 Storey 4,    !- Name
    0,                        !- Direction of Relative North
    0,                        !- X Origin
    0,                        !- Y Origin
    0,                        !- Z Origin
    1,                        !- Type
    1,                        !- Multiplier
    autocalculate,            !- Ceiling Height
    autocalculate,            !- Volume
    autocalculate,            !- Floor Area
    ,                         !- Zone Inside Convection Algorithm
    ,                         !- Zone Outside Convection Algorithm
    Yes;                      !- Part of Total Floor Area

BUILDINGSURFACE:DETAILED,
    Block Build_0_Alt0 Storey -1 Wall 0001,    !- Name
    wall,                     !- Surface Type
    Project Basement Wall,    !- Construction Name
    Block Build_0_Alt0 Storey -1,    !- Zone Name
    ground,                   !- Outside Boundary Condition
    ,                         !- Outside Boundary Condition Object
    NoSun,                    !- Sun Exposure
    NoWind,                   !- Wind Exposure
    autocalculate,            !- View Factor to Ground
    autocalculate,            !- Number of Vertices
    1.3002,                   !- Vertex 1 Xcoordinate
    0.899,                    !- Vertex 1 Ycoordinate
    0,                        !- Vertex 1 Zcoordinate
    1.3002,                   !- Vertex 2 Xcoordinate
    0.899,                    !- Vertex 2 Ycoordinate
    -2.5,                     !- Vertex 2 Zcoordinate
    -5.1544,                  !- Vertex 3 Xcoordinate
    8.4035,                   !- Vertex 3 Ycoordinate
    -2.5,                     !- Vertex 3 Zcoordinate
    -5.1544,                  !- Vertex 4 Xcoordinate
    8.4035,                   !- Vertex 4 Ycoordinate
    0;                        !- Vertex 4 Zcoordinate

BUILDINGSURFACE:DETAILED,
    Block Build_0_Alt0 Storey -1 Wall 0002,    !- Name
    wall,                     !- Surface Type
    Project Basement Wall,    !- Construction Name
    Block Build_0_Alt0 Storey -1,    !- Zone Name
    ground,                   !- Outside Boundary Condition
    ,                         !- Outside Boundary Condition Object
    NoSun,                    !- Sun Exposure
    NoWind,                   !- Wind Exposure
    autocalculate,            !- View Factor to Ground
    autocalculate,            !- Number of Vertices
    -5.1544,                  !- Vertex 1 Xcoordinate
    8.4035,                   !- Vertex 1 Ycoordinate
    0,                        !- Vertex 1 Zcoordinate
    -5.1544,                  !- Vertex 2 Xcoordinate
    8.4035,                   !- Vertex 2 Ycoordinate
    -2.5,                     !- Vertex 2 Zcoordinate
    -11.7494,                 !- Vertex 3 Xcoordinate
    2.7335,                   !- Vertex 3 Ycoordinate
    -2.5,                     !- Vertex 3 Zcoordinate
    -11.7494,                 !- Vertex 4 Xcoordinate
    2.7335,                   !- Vertex 4 Ycoordinate
    0;                        !- Vertex 4 Zcoordinate

BUILDINGSURFACE:DETAILED,
    Block Build_0_Alt0 Storey -1 Wall 0003,    !- Name
    wall,                     !- Surface Type
    Project Basement Wall,    !- Construction Name
    Block Build_0_Alt0 Storey -1,    !- Zone Name
    ground,                   !- Outside Boundary Condition
    ,                         !- Outside Boundary Condition Object
    NoSun,                    !- Sun Exposure
    NoWind,                   !- Wind Exposure
    autocalculate,            !- View Factor to Ground
    autocalculate,            !- Number of Vertices
    -11.7494,                 !- Vertex 1 Xcoordinate
    2.7335,                   !- Vertex 1 Ycoordinate
    0,                        !- Vertex 1 Zcoordinate
    -11.7494,                 !- Vertex 2 Xcoordinate
    2.7335,                   !- Vertex 2 Ycoordinate
    -2.5,                     !- Vertex 2 Zcoordinate
    -5.2744,                  !- Vertex 3 Xcoordinate
    -4.749,                   !- Vertex 3 Ycoordinate
    -2.5,                     !- Vertex 3 Zcoordinate
    -5.2744,                  !- Vertex 4 Xcoordinate
    -4.749,                   !- Vertex 4 Ycoordinate
    0;                        !- Vertex 4 Zcoordinate

BUILDINGSURFACE:DETAILED,
    Block Build_0_Alt0 Storey -1 Floor 0001,    !- Name
    floor,                    !- Surface Type
    Project Basement Floor,    !- Construction Name
    Block Build_0_Alt0 Storey -1,    !- Zone Name
    ground,                   !- Outside Boundary Condition
    ,                         !- Outside Boundary Condition Object
    NoSun,                    !- Sun Exposure
    NoWind,                   !- Wind Exposure
    autocalculate,            !- View Factor to Ground
    autocalculate,            !- Number of Vertices
    -5.1544,                  !- Vertex 1 Xcoordinate
    8.4035,                   !- Vertex 1 Ycoordinate
    -2.5,                     !- Vertex 1 Zcoordinate
    1.3002,                   !- Vertex 2 Xcoordinate
    0.899,                    !- Vertex 2 Ycoordinate
    -2.5,                     !- Vertex 2 Zcoordinate
    -5.2744,                  !- Vertex 3 Xcoordinate
    -4.749,                   !- Vertex 3 Ycoordinate
    -2.5,                     !- Vertex 3 Zcoordinate
    -11.7494,                 !- Vertex 4 Xcoordinate
    2.7335,                   !- Vertex 4 Ycoordinate
    -2.5;                     !- Vertex 4 Zcoordinate

BUILDINGSURFACE:DETAILED,
    Block Build_0_Alt0 Storey 0 Wall 0001,    !- Name
    wall,                     !- Surface Type
    Project Wall,             !- Construction Name
    Block Build_0_Alt0 Storey 0,    !- Zone Name
    outdoors,                 !- Outside Boundary Condition
    ,                         !- Outside Boundary Condition Object
    SunExposed,               !- Sun Exposure
    WindExposed,              !- Wind Exposure
    autocalculate,            !- View Factor to Ground
    autocalculate,            !- Number of Vertices
    1.3002,                   !- Vertex 1 Xcoordinate
    0.899,                    !- Vertex 1 Ycoordinate
    3,                        !- Vertex 1 Zcoordinate
    1.3002,                   !- Vertex 2 Xcoordinate
    0.899,                    !- Vertex 2 Ycoordinate
    0,                        !- Vertex 2 Zcoordinate
    -5.1544,                  !- Vertex 3 Xcoordinate
    8.4035,                   !- Vertex 3 Ycoordinate
    0,                        !- Vertex 3 Zcoordinate
    -5.1544,                  !- Vertex 4 Xcoordinate
    8.4035,                   !- Vertex 4 Ycoordinate
    3;                        !- Vertex 4 Zcoordinate

BUILDINGSURFACE:DETAILED,
    Block Build_0_Alt0 Storey 0 Wall 0002,    !- Name
    wall,                     !- Surface Type
    Project Wall,             !- Construction Name
    Block Build_0_Alt0 Storey 0,    !- Zone Name
    outdoors,                 !- Outside Boundary Condition
    ,                         !- Outside Boundary Condition Object
    SunExposed,               !- Sun Exposure
    WindExposed,              !- Wind Exposure
    autocalculate,            !- View Factor to Ground
    autocalculate,            !- Number of Vertices
    -5.1544,                  !- Vertex 1 Xcoordinate
    8.4035,                   !- Vertex 1 Ycoordinate
    3,                        !- Vertex 1 Zcoordinate
    -5.1544,                  !- Vertex 2 Xcoordinate
    8.4035,                   !- Vertex 2 Ycoordinate
    0,                        !- Vertex 2 Zcoordinate
    -11.7494,                 !- Vertex 3 Xcoordinate
    2.7335,                   !- Vertex 3 Ycoordinate
    0,                        !- Vertex 3 Zcoordinate
    -11.7494,                 !- Vertex 4 Xcoordinate
    2.7335,                   !- Vertex 4 Ycoordinate
    3;                        !- Vertex 4 Zcoordinate

BUILDINGSURFACE:DETAILED,
    Block Build_0_Alt0 Storey 0 Wall 0003,    !- Name
    wall,                     !- Surface Type
    Project Wall,             !- Construction Name
    Block Build_0_Alt0 Storey 0,    !- Zone Name
    outdoors,                 !- Outside Boundary Condition
    ,                         !- Outside Boundary Condition Object
    SunExposed,               !- Sun Exposure
    WindExposed,              !- Wind Exposure
    autocalculate,            !- View Factor to Ground
    autocalculate,            !- Number of Vertices
    -11.7494,                 !- Vertex 1 Xcoordinate
    2.7335,                   !- Vertex 1 Ycoordinate
    3,                        !- Vertex 1 Zcoordinate
    -11.7494,                 !- Vertex 2 Xcoordinate
    2.7335,                   !- Vertex 2 Ycoordinate
    0,                        !- Vertex 2 Zcoordinate
    -5.2744,                  !- Vertex 3 Xcoordinate
    -4.749,                   !- Vertex 3 Ycoordinate
    0,                        !- Vertex 3 Zcoordinate
    -5.2744,                  !- Vertex 4 Xcoordinate
    -4.749,                   !- Vertex 4 Ycoordinate
    3;                        !- Vertex 4 Zcoordinate

BUILDINGSURFACE:DETAILED,
    Block Build_0_Alt0 Storey 1 Wall 0001,    !- Name
    wall,                     !- Surface Type
    Project Wall,             !- Construction Name
    Block Build_0_Alt0 Storey 1,    !- Zone Name
    outdoors,                 !- Outside Boundary Condition
    ,                         !- Outside Boundary Condition Object
    SunExposed,               !- Sun Exposure
    WindExposed,              !- Wind Exposure
    autocalculate,            !- View Factor to Ground
    autocalculate,            !- Number of Vertices
    1.3002,                   !- Vertex 1 Xcoordinate
    0.899,                    !- Vertex 1 Ycoordinate
    6,                        !- Vertex 1 Zcoordinate
    1.3002,                   !- Vertex 2 Xcoordinate
    0.899,                    !- Vertex 2 Ycoordinate
    3,                        !- Vertex 2 Zcoordinate
    -5.1544,                  !- Vertex 3 Xcoordinate
    8.4035,                   !- Vertex 3 Ycoordinate
    3,                        !- Vertex 3 Zcoordinate
    -5.1544,                  !- Vertex 4 Xcoordinate
    8.4035,                   !- Vertex 4 Ycoordinate
    6;                        !- Vertex 4 Zcoordinate

BUILDINGSURFACE:DETAILED,
    Block Build_0_Alt0 Storey 1 Wall 0002,    !- Name
    wall,                     !- Surface Type
    Project Wall,             !- Construction Name
    Block Build_0_Alt0 Storey 1,    !- Zone Name
    outdoors,                 !- Outside Boundary Condition
    ,                         !- Outside Boundary Condition Object
    SunExposed,               !- Sun Exposure
    WindExposed,              !- Wind Exposure
    autocalculate,            !- View Factor to Ground
    autocalculate,            !- Number of Vertices
    -5.1544,                  !- Vertex 1 Xcoordinate
    8.4035,                   !- Vertex 1 Ycoordinate
    6,                        !- Vertex 1 Zcoordinate
    -5.1544,                  !- Vertex 2 Xcoordinate
    8.4035,                   !- Vertex 2 Ycoordinate
    3,                        !- Vertex 2 Zcoordinate
    -11.7494,                 !- Vertex 3 Xcoordinate
    2.7335,                   !- Vertex 3 Ycoordinate
    3,                        !- Vertex 3 Zcoordinate
    -11.7494,                 !- Vertex 4 Xcoordinate
    2.7335,                   !- Vertex 4 Ycoordinate
    6;                        !- Vertex 4 Zcoordinate

BUILDINGSURFACE:DETAILED,
    Block Build_0_Alt0 Storey 1 Wall 0003,    !- Name
    wall,                     !- Surface Type
    Project Wall,             !- Construction Name
    Block Build_0_Alt0 Storey 1,    !- Zone Name
    outdoors,                 !- Outside Boundary Condition
    ,                         !- Outside Boundary Condition Object
    SunExposed,               !- Sun Exposure
    WindExposed,              !- Wind Exposure
    autocalculate,            !- View Factor to Ground
    autocalculate,            !- Number of Vertices
    -11.7494,                 !- Vertex 1 Xcoordinate
    2.7335,                   !- Vertex 1 Ycoordinate
    6,                        !- Vertex 1 Zcoordinate
    -11.7494,                 !- Vertex 2 Xcoordinate
    2.7335,                   !- Vertex 2 Ycoordinate
    3,                        !- Vertex 2 Zcoordinate
    -5.2744,                  !- Vertex 3 Xcoordinate
    -4.749,                   !- Vertex 3 Ycoordinate
    3,                        !- Vertex 3 Zcoordinate
    -5.2744,                  !- Vertex 4 Xcoordinate
    -4.749,                   !- Vertex 4 Ycoordinate
    6;                        !- Vertex 4 Zcoordinate

BUILDINGSURFACE:DETAILED,
    Block Build_0_Alt0 Storey 2 Wall 0001,    !- Name
    wall,                     !- Surface Type
    Project Wall,             !- Construction Name
    Block Build_0_Alt0 Storey 2,    !- Zone Name
    outdoors,                 !- Outside Boundary Condition
    ,                         !- Outside Boundary Condition Object
    SunExposed,               !- Sun Exposure
    WindExposed,              !- Wind Exposure
    autocalculate,            !- View Factor to Ground
    autocalculate,            !- Number of Vertices
    1.3002,                   !- Vertex 1 Xcoordinate
    0.899,                    !- Vertex 1 Ycoordinate
    9,                        !- Vertex 1 Zcoordinate
    1.3002,                   !- Vertex 2 Xcoordinate
    0.899,                    !- Vertex 2 Ycoordinate
    6,                        !- Vertex 2 Zcoordinate
    -5.1544,                  !- Vertex 3 Xcoordinate
    8.4035,                   !- Vertex 3 Ycoordinate
    6,                        !- Vertex 3 Zcoordinate
    -5.1544,                  !- Vertex 4 Xcoordinate
    8.4035,                   !- Vertex 4 Ycoordinate
    9;                        !- Vertex 4 Zcoordinate

BUILDINGSURFACE:DETAILED,
    Block Build_0_Alt0 Storey 2 Wall 0002,    !- Name
    wall,                     !- Surface Type
    Project Wall,             !- Construction Name
    Block Build_0_Alt0 Storey 2,    !- Zone Name
    outdoors,                 !- Outside Boundary Condition
    ,                         !- Outside Boundary Condition Object
    SunExposed,               !- Sun Exposure
    WindExposed,              !- Wind Exposure
    autocalculate,            !- View Factor to Ground
    autocalculate,            !- Number of Vertices
    -5.1544,                  !- Vertex 1 Xcoordinate
    8.4035,                   !- Vertex 1 Ycoordinate
    9,                        !- Vertex 1 Zcoordinate
    -5.1544,                  !- Vertex 2 Xcoordinate
    8.4035,                   !- Vertex 2 Ycoordinate
    6,                        !- Vertex 2 Zcoordinate
    -11.7494,                 !- Vertex 3 Xcoordinate
    2.7335,                   !- Vertex 3 Ycoordinate
    6,                        !- Vertex 3 Zcoordinate
    -11.7494,                 !- Vertex 4 Xcoordinate
    2.7335,                   !- Vertex 4 Ycoordinate
    9;                        !- Vertex 4 Zcoordinate

BUILDINGSURFACE:DETAILED,
    Block Build_0_Alt0 Storey 2 Wall 0003,    !- Name
    wall,                     !- Surface Type
    Project Wall,             !- Construction Name
    Block Build_0_Alt0 Storey 2,    !- Zone Name
    outdoors,                 !- Outside Boundary Condition
    ,                         !- Outside Boundary Condition Object
    SunExposed,               !- Sun Exposure
    WindExposed,              !- Wind Exposure
    autocalculate,            !- View Factor to Ground
    autocalculate,            !- Number of Vertices
    -11.7494,                 !- Vertex 1 Xcoordinate
    2.7335,                   !- Vertex 1 Ycoordinate
    9,                        !- Vertex 1 Zcoordinate
    -11.7494,                 !- Vertex 2 Xcoordinate
    2.7335,                   !- Vertex 2 Ycoordinate
    6,                        !- Vertex 2 Zcoordinate
    -5.2744,                  !- Vertex 3 Xcoordinate
    -4.749,                   !- Vertex 3 Ycoordinate
    6,                        !- Vertex 3 Zcoordinate
    -5.2744,                  !- Vertex 4 Xcoordinate
    -4.749,                   !- Vertex 4 Ycoordinate
    9;                        !- Vertex 4 Zcoordinate

BUILDINGSURFACE:DETAILED,
    Block Build_0_Alt0 Storey 3 Wall 0001,    !- Name
    wall,                     !- Surface Type
    Project Wall,             !- Construction Name
    Block Build_0_Alt0 Storey 3,    !- Zone Name
    outdoors,                 !- Outside Boundary Condition
    ,                         !- Outside Boundary Condition Object
    SunExposed,               !- Sun Exposure
    WindExposed,              !- Wind Exposure
    autocalculate,            !- View Factor to Ground
    autocalculate,            !- Number of Vertices
    1.3002,                   !- Vertex 1 Xcoordinate
    0.899,                    !- Vertex 1 Ycoordinate
    12,                       !- Vertex 1 Zcoordinate
    1.3002,                   !- Vertex 2 Xcoordinate
    0.899,                    !- Vertex 2 Ycoordinate
    9,                        !- Vertex 2 Zcoordinate
    -5.1544,                  !- Vertex 3 Xcoordinate
    8.4035,                   !- Vertex 3 Ycoordinate
    9,                        !- Vertex 3 Zcoordinate
    -5.1544,                  !- Vertex 4 Xcoordinate
    8.4035,                   !- Vertex 4 Ycoordinate
    12;                       !- Vertex 4 Zcoordinate

BUILDINGSURFACE:DETAILED,
    Block Build_0_Alt0 Storey 3 Wall 0002,    !- Name
    wall,                     !- Surface Type
    Project Wall,             !- Construction Name
    Block Build_0_Alt0 Storey 3,    !- Zone Name
    outdoors,                 !- Outside Boundary Condition
    ,                         !- Outside Boundary Condition Object
    SunExposed,               !- Sun Exposure
    WindExposed,              !- Wind Exposure
    autocalculate,            !- View Factor to Ground
    autocalculate,            !- Number of Vertices
    -5.1544,                  !- Vertex 1 Xcoordinate
    8.4035,                   !- Vertex 1 Ycoordinate
    12,                       !- Vertex 1 Zcoordinate
    -5.1544,                  !- Vertex 2 Xcoordinate
    8.4035,                   !- Vertex 2 Ycoordinate
    9,                        !- Vertex 2 Zcoordinate
    -11.7494,                 !- Vertex 3 Xcoordinate
    2.7335,                   !- Vertex 3 Ycoordinate
    9,                        !- Vertex 3 Zcoordinate
    -11.7494,                 !- Vertex 4 Xcoordinate
    2.7335,                   !- Vertex 4 Ycoordinate
    12;                       !- Vertex 4 Zcoordinate

BUILDINGSURFACE:DETAILED,
    Block Build_0_Alt0 Storey 3 Wall 0003,    !- Name
    wall,                     !- Surface Type
    Project Wall,             !- Construction Name
    Block Build_0_Alt0 Storey 3,    !- Zone Name
    outdoors,                 !- Outside Boundary Condition
    ,                         !- Outside Boundary Condition Object
    SunExposed,               !- Sun Exposure
    WindExposed,              !- Wind Exposure
    autocalculate,            !- View Factor to Ground
    autocalculate,            !- Number of Vertices
    -11.7494,                 !- Vertex 1 Xcoordinate
    2.7335,                   !- Vertex 1 Ycoordinate
    12,                       !- Vertex 1 Zcoordinate
    -11.7494,                 !- Vertex 2 Xcoordinate
    2.7335,                   !- Vertex 2 Ycoordinate
    9,                        !- Vertex 2 Zcoordinate
    -5.2744,                  !- Vertex 3 Xcoordinate
    -4.749,                   !- Vertex 3 Ycoordinate
    9,                        !- Vertex 3 Zcoordinate
    -5.2744,                  !- Vertex 4 Xcoordinate
    -4.749,                   !- Vertex 4 Ycoordinate
    12;                       !- Vertex 4 Zcoordinate

BUILDINGSURFACE:DETAILED,
    Block Build_0_Alt0 Storey 3 Roof 0001,    !- Name
    roof,                     !- Surface Type
    Project Flat Roof,        !- Construction Name
    Block Build_0_Alt0 Storey 3,    !- Zone Name
    outdoors,                 !- Outside Boundary Condition
    ,                         !- Outside Boundary Condition Object
    SunExposed,               !- Sun Exposure
    WindExposed,              !- Wind Exposure
    autocalculate,            !- View Factor to Ground
    autocalculate,            !- Number of Vertices
    1.3002,                   !- Vertex 1 Xcoordinate
    0.899,                    !- Vertex 1 Ycoordinate
    12,                       !- Vertex 1 Zcoordinate
    -5.1544,                  !- Vertex 2 Xcoordinate
    8.4035,                   !- Vertex 2 Ycoordinate
    12,                       !- Vertex 2 Zcoordinate
    -11.7494,                 !- Vertex 3 Xcoordinate
    2.7335,                   !- Vertex 3 Ycoordinate
    12,                       !- Vertex 3 Zcoordinate
    -5.2744,                  !- Vertex 4 Xcoordinate
    -4.749,                   !- Vertex 4 Ycoordinate
    12;                       !- Vertex 4 Zcoordinate

BUILDINGSURFACE:DETAILED,
    Block Build_1_Alt0 Storey -1 Wall 0001,    !- Name
    wall,                     !- Surface Type
    Project Basement Wall,    !- Construction Name
    Block Build_1_Alt0 Storey -1,    !- Zone Name
    ground,                   !- Outside Boundary Condition
    ,                         !- Outside Boundary Condition Object
    NoSun,                    !- Sun Exposure
    NoWind,                   !- Wind Exposure
    autocalculate,            !- View Factor to Ground
    autocalculate,            !- Number of Vertices
    -8.3084,                  !- Vertex 1 Xcoordinate
    -7.3555,                  !- Vertex 1 Ycoordinate
    0,                        !- Vertex 1 Zcoordinate
    -8.3084,                  !- Vertex 2 Xcoordinate
    -7.3555,                  !- Vertex 2 Ycoordinate
    -2.5,                     !- Vertex 2 Zcoordinate
    -2.1904,                  !- Vertex 3 Xcoordinate
    -14.4245,                 !- Vertex 3 Ycoordinate
    -2.5,                     !- Vertex 3 Zcoordinate
    -2.1904,                  !- Vertex 4 Xcoordinate
    -14.4245,                 !- Vertex 4 Ycoordinate
    0;                        !- Vertex 4 Zcoordinate

BUILDINGSURFACE:DETAILED,
    Block Build_1_Alt0 Storey -1 Wall 0002,    !- Name
    wall,                     !- Surface Type
    Project Basement Wall,    !- Construction Name
    Block Build_1_Alt0 Storey -1,    !- Zone Name
    ground,                   !- Outside Boundary Condition
    ,                         !- Outside Boundary Condition Object
    NoSun,                    !- Sun Exposure
    NoWind,                   !- Wind Exposure
    autocalculate,            !- View Factor to Ground
    autocalculate,            !- Number of Vertices
    -2.1904,                  !- Vertex 1 Xcoordinate
    -14.4245,                 !- Vertex 1 Ycoordinate
    0,                        !- Vertex 1 Zcoordinate
    -2.1904,                  !- Vertex 2 Xcoordinate
    -14.4245,                 !- Vertex 2 Ycoordinate
    -2.5,                     !- Vertex 2 Zcoordinate
    5.7206,                   !- Vertex 3 Xcoordinate
    -7.6585,                  !- Vertex 3 Ycoordinate
    -2.5,                     !- Vertex 3 Zcoordinate
    5.7206,                   !- Vertex 4 Xcoordinate
    -7.6585,                  !- Vertex 4 Ycoordinate
    0;                        !- Vertex 4 Zcoordinate

BUILDINGSURFACE:DETAILED,
    Block Build_1_Alt0 Storey -1 Wall 0003,    !- Name
    wall,                     !- Surface Type
    Project Basement Wall,    !- Construction Name
    Block Build_1_Alt0 Storey -1,    !- Zone Name
    ground,                   !- Outside Boundary Condition
    ,                         !- Outside Boundary Condition Object
    NoSun,                    !- Sun Exposure
    NoWind,                   !- Wind Exposure
    autocalculate,            !- View Factor to Ground
    autocalculate,            !- Number of Vertices
    5.7206,                   !- Vertex 1 Xcoordinate
    -7.6585,                  !- Vertex 1 Ycoordinate
    0,                        !- Vertex 1 Zcoordinate
    5.7206,                   !- Vertex 2 Xcoordinate
    -7.6585,                  !- Vertex 2 Ycoordinate
    -2.5,                     !- Vertex 2 Zcoordinate
    8.2786,                   !- Vertex 3 Xcoordinate
    -10.7355,                 !- Vertex 3 Ycoordinate
    -2.5,                     !- Vertex 3 Zcoordinate
    8.2786,                   !- Vertex 4 Xcoordinate
    -10.7355,                 !- Vertex 4 Ycoordinate
    0;                        !- Vertex 4 Zcoordinate

BUILDINGSURFACE:DETAILED,
    Block Build_1_Alt0 Storey -1 Wall 0004,    !- Name
    wall,                     !- Surface Type
    Project Basement Wall,    !- Construction Name
    Block Build_1_Alt0 Storey -1,    !- Zone Name
    ground,                   !- Outside Boundary Condition
    ,                         !- Outside Boundary Condition Object
    NoSun,                    !- Sun Exposure
    NoWind,                   !- Wind Exposure
    autocalculate,            !- View Factor to Ground
    autocalculate,            !- Number of Vertices
    8.2786,                   !- Vertex 1 Xcoordinate
    -10.7355,                 !- Vertex 1 Ycoordinate
    0,                        !- Vertex 1 Zcoordinate
    8.2786,                   !- Vertex 2 Xcoordinate
    -10.7355,                 !- Vertex 2 Ycoordinate
    -2.5,                     !- Vertex 2 Zcoordinate
    13.3636,                  !- Vertex 3 Xcoordinate
    -6.3885,                  !- Vertex 3 Ycoordinate
    -2.5,                     !- Vertex 3 Zcoordinate
    13.3636,                  !- Vertex 4 Xcoordinate
    -6.3885,                  !- Vertex 4 Ycoordinate
    0;                        !- Vertex 4 Zcoordinate

BUILDINGSURFACE:DETAILED,
    Block Build_1_Alt0 Storey -1 Wall 0005,    !- Name
    wall,                     !- Surface Type
    Project Basement Wall,    !- Construction Name
    Block Build_1_Alt0 Storey -1,    !- Zone Name
    ground,                   !- Outside Boundary Condition
    ,                         !- Outside Boundary Condition Object
    NoSun,                    !- Sun Exposure
    NoWind,                   !- Wind Exposure
    autocalculate,            !- View Factor to Ground
    autocalculate,            !- Number of Vertices
    13.3636,                  !- Vertex 1 Xcoordinate
    -6.3885,                  !- Vertex 1 Ycoordinate
    0,                        !- Vertex 1 Zcoordinate
    13.3636,                  !- Vertex 2 Xcoordinate
    -6.3885,                  !- Vertex 2 Ycoordinate
    -2.5,                     !- Vertex 2 Zcoordinate
    10.8056,                  !- Vertex 3 Xcoordinate
    -3.3115,                  !- Vertex 3 Ycoordinate
    -2.5,                     !- Vertex 3 Zcoordinate
    10.8056,                  !- Vertex 4 Xcoordinate
    -3.3115,                  !- Vertex 4 Ycoordinate
    0;                        !- Vertex 4 Zcoordinate

BUILDINGSURFACE:DETAILED,
    Block Build_1_Alt0 Storey -1 Wall 0006,    !- Name
    wall,                     !- Surface Type
    Project Basement Wall,    !- Construction Name
    Block Build_1_Alt0 Storey -1,    !- Zone Name
    ground,                   !- Outside Boundary Condition
    ,                         !- Outside Boundary Condition Object
    NoSun,                    !- Sun Exposure
    NoWind,                   !- Wind Exposure
    autocalculate,            !- View Factor to Ground
    autocalculate,            !- Number of Vertices
    10.8056,                  !- Vertex 1 Xcoordinate
    -3.3115,                  !- Vertex 1 Ycoordinate
    0,                        !- Vertex 1 Zcoordinate
    10.8056,                  !- Vertex 2 Xcoordinate
    -3.3115,                  !- Vertex 2 Ycoordinate
    -2.5,                     !- Vertex 2 Zcoordinate
    21.0126,                  !- Vertex 3 Xcoordinate
    5.4765,                   !- Vertex 3 Ycoordinate
    -2.5,                     !- Vertex 3 Zcoordinate
    21.0126,                  !- Vertex 4 Xcoordinate
    5.4765,                   !- Vertex 4 Ycoordinate
    0;                        !- Vertex 4 Zcoordinate

BUILDINGSURFACE:DETAILED,
    Block Build_1_Alt0 Storey -1 Wall 0007,    !- Name
    wall,                     !- Surface Type
    Project Basement Wall,    !- Construction Name
    Block Build_1_Alt0 Storey -1,    !- Zone Name
    ground,                   !- Outside Boundary Condition
    ,                         !- Outside Boundary Condition Object
    NoSun,                    !- Sun Exposure
    NoWind,                   !- Wind Exposure
    autocalculate,            !- View Factor to Ground
    autocalculate,            !- Number of Vertices
    21.0126,                  !- Vertex 1 Xcoordinate
    5.4765,                   !- Vertex 1 Ycoordinate
    0,                        !- Vertex 1 Zcoordinate
    21.0126,                  !- Vertex 2 Xcoordinate
    5.4765,                   !- Vertex 2 Ycoordinate
    -2.5,                     !- Vertex 2 Zcoordinate
    23.6056,                  !- Vertex 3 Xcoordinate
    2.4315,                   !- Vertex 3 Ycoordinate
    -2.5,                     !- Vertex 3 Zcoordinate
    23.6056,                  !- Vertex 4 Xcoordinate
    2.4315,                   !- Vertex 4 Ycoordinate
    0;                        !- Vertex 4 Zcoordinate

BUILDINGSURFACE:DETAILED,
    Block Build_1_Alt0 Storey -1 Wall 0008,    !- Name
    wall,                     !- Surface Type
    Project Basement Wall,    !- Construction Name
    Block Build_1_Alt0 Storey -1,    !- Zone Name
    ground,                   !- Outside Boundary Condition
    ,                         !- Outside Boundary Condition Object
    NoSun,                    !- Sun Exposure
    NoWind,                   !- Wind Exposure
    autocalculate,            !- View Factor to Ground
    autocalculate,            !- Number of Vertices
    23.6056,                  !- Vertex 1 Xcoordinate
    2.4315,                   !- Vertex 1 Ycoordinate
    0,                        !- Vertex 1 Zcoordinate
    23.6056,                  !- Vertex 2 Xcoordinate
    2.4315,                   !- Vertex 2 Ycoordinate
    -2.5,                     !- Vertex 2 Zcoordinate
    28.6906,                  !- Vertex 3 Xcoordinate
    6.8015,                   !- Vertex 3 Ycoordinate
    -2.5,                     !- Vertex 3 Zcoordinate
    28.6906,                  !- Vertex 4 Xcoordinate
    6.8015,                   !- Vertex 4 Ycoordinate
    0;                        !- Vertex 4 Zcoordinate

BUILDINGSURFACE:DETAILED,
    Block Build_1_Alt0 Storey -1 Wall 0009,    !- Name
    wall,                     !- Surface Type
    Project Basement Wall,    !- Construction Name
    Block Build_1_Alt0 Storey -1,    !- Zone Name
    ground,                   !- Outside Boundary Condition
    ,                         !- Outside Boundary Condition Object
    NoSun,                    !- Sun Exposure
    NoWind,                   !- Wind Exposure
    autocalculate,            !- View Factor to Ground
    autocalculate,            !- Number of Vertices
    28.6906,                  !- Vertex 1 Xcoordinate
    6.8015,                   !- Vertex 1 Ycoordinate
    0,                        !- Vertex 1 Zcoordinate
    28.6906,                  !- Vertex 2 Xcoordinate
    6.8015,                   !- Vertex 2 Ycoordinate
    -2.5,                     !- Vertex 2 Zcoordinate
    26.0736,                  !- Vertex 3 Xcoordinate
    9.8265,                   !- Vertex 3 Ycoordinate
    -2.5,                     !- Vertex 3 Zcoordinate
    26.0736,                  !- Vertex 4 Xcoordinate
    9.8265,                   !- Vertex 4 Ycoordinate
    0;                        !- Vertex 4 Zcoordinate

BUILDINGSURFACE:DETAILED,
    Block Build_1_Alt0 Storey -1 Wall 0010,    !- Name
    wall,                     !- Surface Type
    Project Basement Wall,    !- Construction Name
    Block Build_1_Alt0 Storey -1,    !- Zone Name
    ground,                   !- Outside Boundary Condition
    ,                         !- Outside Boundary Condition Object
    NoSun,                    !- Sun Exposure
    NoWind,                   !- Wind Exposure
    autocalculate,            !- View Factor to Ground
    autocalculate,            !- Number of Vertices
    26.0736,                  !- Vertex 1 Xcoordinate
    9.8265,                   !- Vertex 1 Ycoordinate
    0,                        !- Vertex 1 Zcoordinate
    26.0736,                  !- Vertex 2 Xcoordinate
    9.8265,                   !- Vertex 2 Ycoordinate
    -2.5,                     !- Vertex 2 Zcoordinate
    35.0206,                  !- Vertex 3 Xcoordinate
    17.5205,                  !- Vertex 3 Ycoordinate
    -2.5,                     !- Vertex 3 Zcoordinate
    35.0206,                  !- Vertex 4 Xcoordinate
    17.5205,                  !- Vertex 4 Ycoordinate
    0;                        !- Vertex 4 Zcoordinate

BUILDINGSURFACE:DETAILED,
    Block Build_1_Alt0 Storey -1 Wall 0011,    !- Name
    wall,                     !- Surface Type
    Project Basement Wall,    !- Construction Name
    Block Build_1_Alt0 Storey -1,    !- Zone Name
    ground,                   !- Outside Boundary Condition
    ,                         !- Outside Boundary Condition Object
    NoSun,                    !- Sun Exposure
    NoWind,                   !- Wind Exposure
    autocalculate,            !- View Factor to Ground
    autocalculate,            !- Number of Vertices
    35.0206,                  !- Vertex 1 Xcoordinate
    17.5205,                  !- Vertex 1 Ycoordinate
    0,                        !- Vertex 1 Zcoordinate
    35.0206,                  !- Vertex 2 Xcoordinate
    17.5205,                  !- Vertex 2 Ycoordinate
    -2.5,                     !- Vertex 2 Zcoordinate
    28.8976,                  !- Vertex 3 Xcoordinate
    24.6325,                  !- Vertex 3 Ycoordinate
    -2.5,                     !- Vertex 3 Zcoordinate
    28.8976,                  !- Vertex 4 Xcoordinate
    24.6325,                  !- Vertex 4 Ycoordinate
    0;                        !- Vertex 4 Zcoordinate

BUILDINGSURFACE:DETAILED,
    Block Build_1_Alt0 Storey -1 Wall 0012,    !- Name
    wall,                     !- Surface Type
    Project Basement Wall,    !- Construction Name
    Block Build_1_Alt0 Storey -1,    !- Zone Name
    ground,                   !- Outside Boundary Condition
    ,                         !- Outside Boundary Condition Object
    NoSun,                    !- Sun Exposure
    NoWind,                   !- Wind Exposure
    autocalculate,            !- View Factor to Ground
    autocalculate,            !- Number of Vertices
    28.8976,                  !- Vertex 1 Xcoordinate
    24.6325,                  !- Vertex 1 Ycoordinate
    0,                        !- Vertex 1 Zcoordinate
    28.8976,                  !- Vertex 2 Xcoordinate
    24.6325,                  !- Vertex 2 Ycoordinate
    -2.5,                     !- Vertex 2 Zcoordinate
    25.8646,                  !- Vertex 3 Xcoordinate
    22.0255,                  !- Vertex 3 Ycoordinate
    -2.5,                     !- Vertex 3 Zcoordinate
    25.8646,                  !- Vertex 4 Xcoordinate
    22.0255,                  !- Vertex 4 Ycoordinate
    0;                        !- Vertex 4 Zcoordinate

BUILDINGSURFACE:DETAILED,
    Block Build_1_Alt0 Storey -1 Wall 0013,    !- Name
    wall,                     !- Surface Type
    Project Basement Wall,    !- Construction Name
    Block Build_1_Alt0 Storey -1,    !- Zone Name
    ground,                   !- Outside Boundary Condition
    ,                         !- Outside Boundary Condition Object
    NoSun,                    !- Sun Exposure
    NoWind,                   !- Wind Exposure
    autocalculate,            !- View Factor to Ground
    autocalculate,            !- Number of Vertices
    25.8646,                  !- Vertex 1 Xcoordinate
    22.0255,                  !- Vertex 1 Ycoordinate
    0,                        !- Vertex 1 Zcoordinate
    25.8646,                  !- Vertex 2 Xcoordinate
    22.0255,                  !- Vertex 2 Ycoordinate
    -2.5,                     !- Vertex 2 Zcoordinate
    19.1906,                  !- Vertex 3 Xcoordinate
    29.7785,                  !- Vertex 3 Ycoordinate
    -2.5,                     !- Vertex 3 Zcoordinate
    19.1906,                  !- Vertex 4 Xcoordinate
    29.7785,                  !- Vertex 4 Ycoordinate
    0;                        !- Vertex 4 Zcoordinate

BUILDINGSURFACE:DETAILED,
    Block Build_1_Alt0 Storey -1 Wall 0014,    !- Name
    wall,                     !- Surface Type
    Project Basement Wall,    !- Construction Name
    Block Build_1_Alt0 Storey -1,    !- Zone Name
    ground,                   !- Outside Boundary Condition
    ,                         !- Outside Boundary Condition Object
    NoSun,                    !- Sun Exposure
    NoWind,                   !- Wind Exposure
    autocalculate,            !- View Factor to Ground
    autocalculate,            !- Number of Vertices
    19.1906,                  !- Vertex 1 Xcoordinate
    29.7785,                  !- Vertex 1 Ycoordinate
    0,                        !- Vertex 1 Zcoordinate
    19.1906,                  !- Vertex 2 Xcoordinate
    29.7785,                  !- Vertex 2 Ycoordinate
    -2.5,                     !- Vertex 2 Zcoordinate
    11.5226,                  !- Vertex 3 Xcoordinate
    23.2185,                  !- Vertex 3 Ycoordinate
    -2.5,                     !- Vertex 3 Zcoordinate
    11.5226,                  !- Vertex 4 Xcoordinate
    23.2185,                  !- Vertex 4 Ycoordinate
    0;                        !- Vertex 4 Zcoordinate

BUILDINGSURFACE:DETAILED,
    Block Build_1_Alt0 Storey -1 Wall 0015,    !- Name
    wall,                     !- Surface Type
    Project Basement Wall,    !- Construction Name
    Block Build_1_Alt0 Storey -1,    !- Zone Name
    ground,                   !- Outside Boundary Condition
    ,                         !- Outside Boundary Condition Object
    NoSun,                    !- Sun Exposure
    NoWind,                   !- Wind Exposure
    autocalculate,            !- View Factor to Ground
    autocalculate,            !- Number of Vertices
    11.5226,                  !- Vertex 1 Xcoordinate
    23.2185,                  !- Vertex 1 Ycoordinate
    0,                        !- Vertex 1 Zcoordinate
    11.5226,                  !- Vertex 2 Xcoordinate
    23.2185,                  !- Vertex 2 Ycoordinate
    -2.5,                     !- Vertex 2 Zcoordinate
    18.2236,                  !- Vertex 3 Xcoordinate
    15.4375,                  !- Vertex 3 Ycoordinate
    -2.5,                     !- Vertex 3 Zcoordinate
    18.2236,                  !- Vertex 4 Xcoordinate
    15.4375,                  !- Vertex 4 Ycoordinate
    0;                        !- Vertex 4 Zcoordinate

BUILDINGSURFACE:DETAILED,
    Block Build_1_Alt0 Storey -1 Floor 0001,    !- Name
    floor,                    !- Surface Type
    Project Basement Floor,    !- Construction Name
    Block Build_1_Alt0 Storey -1,    !- Zone Name
    ground,                   !- Outside Boundary Condition
    ,                         !- Outside Boundary Condition Object
    NoSun,                    !- Sun Exposure
    NoWind,                   !- Wind Exposure
    autocalculate,            !- View Factor to Ground
    autocalculate,            !- Number of Vertices
    28.8976,                  !- Vertex 1 Xcoordinate
    24.6325,                  !- Vertex 1 Ycoordinate
    -2.5,                     !- Vertex 1 Zcoordinate
    35.0206,                  !- Vertex 2 Xcoordinate
    17.5205,                  !- Vertex 2 Ycoordinate
    -2.5,                     !- Vertex 2 Zcoordinate
    26.0736,                  !- Vertex 3 Xcoordinate
    9.8265,                   !- Vertex 3 Ycoordinate
    -2.5,                     !- Vertex 3 Zcoordinate
    28.6906,                  !- Vertex 4 Xcoordinate
    6.8015,                   !- Vertex 4 Ycoordinate
    -2.5,                     !- Vertex 4 Zcoordinate
    23.6056,                  !- Vertex 5 Xcoordinate
    2.4315,                   !- Vertex 5 Ycoordinate
    -2.5,                     !- Vertex 5 Zcoordinate
    21.0126,                  !- Vertex 6 Xcoordinate
    5.4765,                   !- Vertex 6 Ycoordinate
    -2.5,                     !- Vertex 6 Zcoordinate
    10.8056,                  !- Vertex 7 Xcoordinate
    -3.3115,                  !- Vertex 7 Ycoordinate
    -2.5,                     !- Vertex 7 Zcoordinate
    13.3636,                  !- Vertex 8 Xcoordinate
    -6.3885,                  !- Vertex 8 Ycoordinate
    -2.5,                     !- Vertex 8 Zcoordinate
    8.2786,                   !- Vertex 9 Xcoordinate
    -10.7355,                 !- Vertex 9 Ycoordinate
    -2.5,                     !- Vertex 9 Zcoordinate
    5.7206,                   !- Vertex 10 Xcoordinate
    -7.6585,                  !- Vertex 10 Ycoordinate
    -2.5,                     !- Vertex 10 Zcoordinate
    -2.1904,                  !- Vertex 11 Xcoordinate
    -14.4245,                 !- Vertex 11 Ycoordinate
    -2.5,                     !- Vertex 11 Zcoordinate
    -8.3084,                  !- Vertex 12 Xcoordinate
    -7.3555,                  !- Vertex 12 Ycoordinate
    -2.5,                     !- Vertex 12 Zcoordinate
    18.2236,                  !- Vertex 13 Xcoordinate
    15.4375,                  !- Vertex 13 Ycoordinate
    -2.5,                     !- Vertex 13 Zcoordinate
    11.5226,                  !- Vertex 14 Xcoordinate
    23.2185,                  !- Vertex 14 Ycoordinate
    -2.5,                     !- Vertex 14 Zcoordinate
    19.1906,                  !- Vertex 15 Xcoordinate
    29.7785,                  !- Vertex 15 Ycoordinate
    -2.5,                     !- Vertex 15 Zcoordinate
    25.8646,                  !- Vertex 16 Xcoordinate
    22.0255,                  !- Vertex 16 Ycoordinate
    -2.5;                     !- Vertex 16 Zcoordinate

BUILDINGSURFACE:DETAILED,
    Block Build_1_Alt0 Storey 0 Wall 0001,    !- Name
    wall,                     !- Surface Type
    Project Wall,             !- Construction Name
    Block Build_1_Alt0 Storey 0,    !- Zone Name
    outdoors,                 !- Outside Boundary Condition
    ,                         !- Outside Boundary Condition Object
    SunExposed,               !- Sun Exposure
    WindExposed,              !- Wind Exposure
    autocalculate,            !- View Factor to Ground
    autocalculate,            !- Number of Vertices
    -8.3084,                  !- Vertex 1 Xcoordinate
    -7.3555,                  !- Vertex 1 Ycoordinate
    3,                        !- Vertex 1 Zcoordinate
    -8.3084,                  !- Vertex 2 Xcoordinate
    -7.3555,                  !- Vertex 2 Ycoordinate
    0,                        !- Vertex 2 Zcoordinate
    -2.1904,                  !- Vertex 3 Xcoordinate
    -14.4245,                 !- Vertex 3 Ycoordinate
    0,                        !- Vertex 3 Zcoordinate
    -2.1904,                  !- Vertex 4 Xcoordinate
    -14.4245,                 !- Vertex 4 Ycoordinate
    3;                        !- Vertex 4 Zcoordinate

BUILDINGSURFACE:DETAILED,
    Block Build_1_Alt0 Storey 0 Wall 0002,    !- Name
    wall,                     !- Surface Type
    Project Wall,             !- Construction Name
    Block Build_1_Alt0 Storey 0,    !- Zone Name
    outdoors,                 !- Outside Boundary Condition
    ,                         !- Outside Boundary Condition Object
    SunExposed,               !- Sun Exposure
    WindExposed,              !- Wind Exposure
    autocalculate,            !- View Factor to Ground
    autocalculate,            !- Number of Vertices
    -2.1904,                  !- Vertex 1 Xcoordinate
    -14.4245,                 !- Vertex 1 Ycoordinate
    3,                        !- Vertex 1 Zcoordinate
    -2.1904,                  !- Vertex 2 Xcoordinate
    -14.4245,                 !- Vertex 2 Ycoordinate
    0,                        !- Vertex 2 Zcoordinate
    5.7206,                   !- Vertex 3 Xcoordinate
    -7.6585,                  !- Vertex 3 Ycoordinate
    0,                        !- Vertex 3 Zcoordinate
    5.7206,                   !- Vertex 4 Xcoordinate
    -7.6585,                  !- Vertex 4 Ycoordinate
    3;                        !- Vertex 4 Zcoordinate

BUILDINGSURFACE:DETAILED,
    Block Build_1_Alt0 Storey 0 Wall 0003,    !- Name
    wall,                     !- Surface Type
    Project Wall,             !- Construction Name
    Block Build_1_Alt0 Storey 0,    !- Zone Name
    outdoors,                 !- Outside Boundary Condition
    ,                         !- Outside Boundary Condition Object
    SunExposed,               !- Sun Exposure
    WindExposed,              !- Wind Exposure
    autocalculate,            !- View Factor to Ground
    autocalculate,            !- Number of Vertices
    5.7206,                   !- Vertex 1 Xcoordinate
    -7.6585,                  !- Vertex 1 Ycoordinate
    3,                        !- Vertex 1 Zcoordinate
    5.7206,                   !- Vertex 2 Xcoordinate
    -7.6585,                  !- Vertex 2 Ycoordinate
    0,                        !- Vertex 2 Zcoordinate
    8.2786,                   !- Vertex 3 Xcoordinate
    -10.7355,                 !- Vertex 3 Ycoordinate
    0,                        !- Vertex 3 Zcoordinate
    8.2786,                   !- Vertex 4 Xcoordinate
    -10.7355,                 !- Vertex 4 Ycoordinate
    3;                        !- Vertex 4 Zcoordinate

BUILDINGSURFACE:DETAILED,
    Block Build_1_Alt0 Storey 0 Wall 0004,    !- Name
    wall,                     !- Surface Type
    Project Wall,             !- Construction Name
    Block Build_1_Alt0 Storey 0,    !- Zone Name
    outdoors,                 !- Outside Boundary Condition
    ,                         !- Outside Boundary Condition Object
    SunExposed,               !- Sun Exposure
    WindExposed,              !- Wind Exposure
    autocalculate,            !- View Factor to Ground
    autocalculate,            !- Number of Vertices
    8.2786,                   !- Vertex 1 Xcoordinate
    -10.7355,                 !- Vertex 1 Ycoordinate
    3,                        !- Vertex 1 Zcoordinate
    8.2786,                   !- Vertex 2 Xcoordinate
    -10.7355,                 !- Vertex 2 Ycoordinate
    0,                        !- Vertex 2 Zcoordinate
    13.3636,                  !- Vertex 3 Xcoordinate
    -6.3885,                  !- Vertex 3 Ycoordinate
    0,                        !- Vertex 3 Zcoordinate
    13.3636,                  !- Vertex 4 Xcoordinate
    -6.3885,                  !- Vertex 4 Ycoordinate
    3;                        !- Vertex 4 Zcoordinate

BUILDINGSURFACE:DETAILED,
    Block Build_1_Alt0 Storey 0 Wall 0005,    !- Name
    wall,                     !- Surface Type
    Project Wall,             !- Construction Name
    Block Build_1_Alt0 Storey 0,    !- Zone Name
    outdoors,                 !- Outside Boundary Condition
    ,                         !- Outside Boundary Condition Object
    SunExposed,               !- Sun Exposure
    WindExposed,              !- Wind Exposure
    autocalculate,            !- View Factor to Ground
    autocalculate,            !- Number of Vertices
    13.3636,                  !- Vertex 1 Xcoordinate
    -6.3885,                  !- Vertex 1 Ycoordinate
    3,                        !- Vertex 1 Zcoordinate
    13.3636,                  !- Vertex 2 Xcoordinate
    -6.3885,                  !- Vertex 2 Ycoordinate
    0,                        !- Vertex 2 Zcoordinate
    10.8056,                  !- Vertex 3 Xcoordinate
    -3.3115,                  !- Vertex 3 Ycoordinate
    0,                        !- Vertex 3 Zcoordinate
    10.8056,                  !- Vertex 4 Xcoordinate
    -3.3115,                  !- Vertex 4 Ycoordinate
    3;                        !- Vertex 4 Zcoordinate

BUILDINGSURFACE:DETAILED,
    Block Build_1_Alt0 Storey 0 Wall 0006,    !- Name
    wall,                     !- Surface Type
    Project Wall,             !- Construction Name
    Block Build_1_Alt0 Storey 0,    !- Zone Name
    outdoors,                 !- Outside Boundary Condition
    ,                         !- Outside Boundary Condition Object
    SunExposed,               !- Sun Exposure
    WindExposed,              !- Wind Exposure
    autocalculate,            !- View Factor to Ground
    autocalculate,            !- Number of Vertices
    10.8056,                  !- Vertex 1 Xcoordinate
    -3.3115,                  !- Vertex 1 Ycoordinate
    3,                        !- Vertex 1 Zcoordinate
    10.8056,                  !- Vertex 2 Xcoordinate
    -3.3115,                  !- Vertex 2 Ycoordinate
    0,                        !- Vertex 2 Zcoordinate
    21.0126,                  !- Vertex 3 Xcoordinate
    5.4765,                   !- Vertex 3 Ycoordinate
    0,                        !- Vertex 3 Zcoordinate
    21.0126,                  !- Vertex 4 Xcoordinate
    5.4765,                   !- Vertex 4 Ycoordinate
    3;                        !- Vertex 4 Zcoordinate

BUILDINGSURFACE:DETAILED,
    Block Build_1_Alt0 Storey 0 Wall 0007,    !- Name
    wall,                     !- Surface Type
    Project Wall,             !- Construction Name
    Block Build_1_Alt0 Storey 0,    !- Zone Name
    outdoors,                 !- Outside Boundary Condition
    ,                         !- Outside Boundary Condition Object
    SunExposed,               !- Sun Exposure
    WindExposed,              !- Wind Exposure
    autocalculate,            !- View Factor to Ground
    autocalculate,            !- Number of Vertices
    21.0126,                  !- Vertex 1 Xcoordinate
    5.4765,                   !- Vertex 1 Ycoordinate
    3,                        !- Vertex 1 Zcoordinate
    21.0126,                  !- Vertex 2 Xcoordinate
    5.4765,                   !- Vertex 2 Ycoordinate
    0,                        !- Vertex 2 Zcoordinate
    23.6056,                  !- Vertex 3 Xcoordinate
    2.4315,                   !- Vertex 3 Ycoordinate
    0,                        !- Vertex 3 Zcoordinate
    23.6056,                  !- Vertex 4 Xcoordinate
    2.4315,                   !- Vertex 4 Ycoordinate
    3;                        !- Vertex 4 Zcoordinate

BUILDINGSURFACE:DETAILED,
    Block Build_1_Alt0 Storey 0 Wall 0008,    !- Name
    wall,                     !- Surface Type
    Project Wall,             !- Construction Name
    Block Build_1_Alt0 Storey 0,    !- Zone Name
    outdoors,                 !- Outside Boundary Condition
    ,                         !- Outside Boundary Condition Object
    SunExposed,               !- Sun Exposure
    WindExposed,              !- Wind Exposure
    autocalculate,            !- View Factor to Ground
    autocalculate,            !- Number of Vertices
    23.6056,                  !- Vertex 1 Xcoordinate
    2.4315,                   !- Vertex 1 Ycoordinate
    3,                        !- Vertex 1 Zcoordinate
    23.6056,                  !- Vertex 2 Xcoordinate
    2.4315,                   !- Vertex 2 Ycoordinate
    0,                        !- Vertex 2 Zcoordinate
    28.6906,                  !- Vertex 3 Xcoordinate
    6.8015,                   !- Vertex 3 Ycoordinate
    0,                        !- Vertex 3 Zcoordinate
    28.6906,                  !- Vertex 4 Xcoordinate
    6.8015,                   !- Vertex 4 Ycoordinate
    3;                        !- Vertex 4 Zcoordinate

BUILDINGSURFACE:DETAILED,
    Block Build_1_Alt0 Storey 0 Wall 0009,    !- Name
    wall,                     !- Surface Type
    Project Wall,             !- Construction Name
    Block Build_1_Alt0 Storey 0,    !- Zone Name
    outdoors,                 !- Outside Boundary Condition
    ,                         !- Outside Boundary Condition Object
    SunExposed,               !- Sun Exposure
    WindExposed,              !- Wind Exposure
    autocalculate,            !- View Factor to Ground
    autocalculate,            !- Number of Vertices
    28.6906,                  !- Vertex 1 Xcoordinate
    6.8015,                   !- Vertex 1 Ycoordinate
    3,                        !- Vertex 1 Zcoordinate
    28.6906,                  !- Vertex 2 Xcoordinate
    6.8015,                   !- Vertex 2 Ycoordinate
    0,                        !- Vertex 2 Zcoordinate
    26.0736,                  !- Vertex 3 Xcoordinate
    9.8265,                   !- Vertex 3 Ycoordinate
    0,                        !- Vertex 3 Zcoordinate
    26.0736,                  !- Vertex 4 Xcoordinate
    9.8265,                   !- Vertex 4 Ycoordinate
    3;                        !- Vertex 4 Zcoordinate

BUILDINGSURFACE:DETAILED,
    Block Build_1_Alt0 Storey 0 Wall 0010,    !- Name
    wall,                     !- Surface Type
    Project Wall,             !- Construction Name
    Block Build_1_Alt0 Storey 0,    !- Zone Name
    outdoors,                 !- Outside Boundary Condition
    ,                         !- Outside Boundary Condition Object
    SunExposed,               !- Sun Exposure
    WindExposed,              !- Wind Exposure
    autocalculate,            !- View Factor to Ground
    autocalculate,            !- Number of Vertices
    26.0736,                  !- Vertex 1 Xcoordinate
    9.8265,                   !- Vertex 1 Ycoordinate
    3,                        !- Vertex 1 Zcoordinate
    26.0736,                  !- Vertex 2 Xcoordinate
    9.8265,                   !- Vertex 2 Ycoordinate
    0,                        !- Vertex 2 Zcoordinate
    35.0206,                  !- Vertex 3 Xcoordinate
    17.5205,                  !- Vertex 3 Ycoordinate
    0,                        !- Vertex 3 Zcoordinate
    35.0206,                  !- Vertex 4 Xcoordinate
    17.5205,                  !- Vertex 4 Ycoordinate
    3;                        !- Vertex 4 Zcoordinate

BUILDINGSURFACE:DETAILED,
    Block Build_1_Alt0 Storey 0 Wall 0011,    !- Name
    wall,                     !- Surface Type
    Project Wall,             !- Construction Name
    Block Build_1_Alt0 Storey 0,    !- Zone Name
    outdoors,                 !- Outside Boundary Condition
    ,                         !- Outside Boundary Condition Object
    SunExposed,               !- Sun Exposure
    WindExposed,              !- Wind Exposure
    autocalculate,            !- View Factor to Ground
    autocalculate,            !- Number of Vertices
    35.0206,                  !- Vertex 1 Xcoordinate
    17.5205,                  !- Vertex 1 Ycoordinate
    3,                        !- Vertex 1 Zcoordinate
    35.0206,                  !- Vertex 2 Xcoordinate
    17.5205,                  !- Vertex 2 Ycoordinate
    0,                        !- Vertex 2 Zcoordinate
    28.8976,                  !- Vertex 3 Xcoordinate
    24.6325,                  !- Vertex 3 Ycoordinate
    0,                        !- Vertex 3 Zcoordinate
    28.8976,                  !- Vertex 4 Xcoordinate
    24.6325,                  !- Vertex 4 Ycoordinate
    3;                        !- Vertex 4 Zcoordinate

BUILDINGSURFACE:DETAILED,
    Block Build_1_Alt0 Storey 0 Wall 0012,    !- Name
    wall,                     !- Surface Type
    Project Wall,             !- Construction Name
    Block Build_1_Alt0 Storey 0,    !- Zone Name
    outdoors,                 !- Outside Boundary Condition
    ,                         !- Outside Boundary Condition Object
    SunExposed,               !- Sun Exposure
    WindExposed,              !- Wind Exposure
    autocalculate,            !- View Factor to Ground
    autocalculate,            !- Number of Vertices
    28.8976,                  !- Vertex 1 Xcoordinate
    24.6325,                  !- Vertex 1 Ycoordinate
    3,                        !- Vertex 1 Zcoordinate
    28.8976,                  !- Vertex 2 Xcoordinate
    24.6325,                  !- Vertex 2 Ycoordinate
    0,                        !- Vertex 2 Zcoordinate
    25.8646,                  !- Vertex 3 Xcoordinate
    22.0255,                  !- Vertex 3 Ycoordinate
    0,                        !- Vertex 3 Zcoordinate
    25.8646,                  !- Vertex 4 Xcoordinate
    22.0255,                  !- Vertex 4 Ycoordinate
    3;                        !- Vertex 4 Zcoordinate

BUILDINGSURFACE:DETAILED,
    Block Build_1_Alt0 Storey 0 Wall 0013,    !- Name
    wall,                     !- Surface Type
    Project Wall,             !- Construction Name
    Block Build_1_Alt0 Storey 0,    !- Zone Name
    outdoors,                 !- Outside Boundary Condition
    ,                         !- Outside Boundary Condition Object
    SunExposed,               !- Sun Exposure
    WindExposed,              !- Wind Exposure
    autocalculate,            !- View Factor to Ground
    autocalculate,            !- Number of Vertices
    25.8646,                  !- Vertex 1 Xcoordinate
    22.0255,                  !- Vertex 1 Ycoordinate
    3,                        !- Vertex 1 Zcoordinate
    25.8646,                  !- Vertex 2 Xcoordinate
    22.0255,                  !- Vertex 2 Ycoordinate
    0,                        !- Vertex 2 Zcoordinate
    19.1906,                  !- Vertex 3 Xcoordinate
    29.7785,                  !- Vertex 3 Ycoordinate
    0,                        !- Vertex 3 Zcoordinate
    19.1906,                  !- Vertex 4 Xcoordinate
    29.7785,                  !- Vertex 4 Ycoordinate
    3;                        !- Vertex 4 Zcoordinate

BUILDINGSURFACE:DETAILED,
    Block Build_1_Alt0 Storey 0 Wall 0014,    !- Name
    wall,                     !- Surface Type
    Project Wall,             !- Construction Name
    Block Build_1_Alt0 Storey 0,    !- Zone Name
    outdoors,                 !- Outside Boundary Condition
    ,                         !- Outside Boundary Condition Object
    SunExposed,               !- Sun Exposure
    WindExposed,              !- Wind Exposure
    autocalculate,            !- View Factor to Ground
    autocalculate,            !- Number of Vertices
    19.1906,                  !- Vertex 1 Xcoordinate
    29.7785,                  !- Vertex 1 Ycoordinate
    3,                        !- Vertex 1 Zcoordinate
    19.1906,                  !- Vertex 2 Xcoordinate
    29.7785,                  !- Vertex 2 Ycoordinate
    0,                        !- Vertex 2 Zcoordinate
    11.5226,                  !- Vertex 3 Xcoordinate
    23.2185,                  !- Vertex 3 Ycoordinate
    0,                        !- Vertex 3 Zcoordinate
    11.5226,                  !- Vertex 4 Xcoordinate
    23.2185,                  !- Vertex 4 Ycoordinate
    3;                        !- Vertex 4 Zcoordinate

BUILDINGSURFACE:DETAILED,
    Block Build_1_Alt0 Storey 0 Wall 0015,    !- Name
    wall,                     !- Surface Type
    Project Wall,             !- Construction Name
    Block Build_1_Alt0 Storey 0,    !- Zone Name
    outdoors,                 !- Outside Boundary Condition
    ,                         !- Outside Boundary Condition Object
    SunExposed,               !- Sun Exposure
    WindExposed,              !- Wind Exposure
    autocalculate,            !- View Factor to Ground
    autocalculate,            !- Number of Vertices
    11.5226,                  !- Vertex 1 Xcoordinate
    23.2185,                  !- Vertex 1 Ycoordinate
    3,                        !- Vertex 1 Zcoordinate
    11.5226,                  !- Vertex 2 Xcoordinate
    23.2185,                  !- Vertex 2 Ycoordinate
    0,                        !- Vertex 2 Zcoordinate
    18.2236,                  !- Vertex 3 Xcoordinate
    15.4375,                  !- Vertex 3 Ycoordinate
    0,                        !- Vertex 3 Zcoordinate
    18.2236,                  !- Vertex 4 Xcoordinate
    15.4375,                  !- Vertex 4 Ycoordinate
    3;                        !- Vertex 4 Zcoordinate

BUILDINGSURFACE:DETAILED,
    Block Build_1_Alt0 Storey 1 Wall 0001,    !- Name
    wall,                     !- Surface Type
    Project Wall,             !- Construction Name
    Block Build_1_Alt0 Storey 1,    !- Zone Name
    outdoors,                 !- Outside Boundary Condition
    ,                         !- Outside Boundary Condition Object
    SunExposed,               !- Sun Exposure
    WindExposed,              !- Wind Exposure
    autocalculate,            !- View Factor to Ground
    autocalculate,            !- Number of Vertices
    -8.3084,                  !- Vertex 1 Xcoordinate
    -7.3555,                  !- Vertex 1 Ycoordinate
    6,                        !- Vertex 1 Zcoordinate
    -8.3084,                  !- Vertex 2 Xcoordinate
    -7.3555,                  !- Vertex 2 Ycoordinate
    3,                        !- Vertex 2 Zcoordinate
    -2.1904,                  !- Vertex 3 Xcoordinate
    -14.4245,                 !- Vertex 3 Ycoordinate
    3,                        !- Vertex 3 Zcoordinate
    -2.1904,                  !- Vertex 4 Xcoordinate
    -14.4245,                 !- Vertex 4 Ycoordinate
    6;                        !- Vertex 4 Zcoordinate

BUILDINGSURFACE:DETAILED,
    Block Build_1_Alt0 Storey 1 Wall 0002,    !- Name
    wall,                     !- Surface Type
    Project Wall,             !- Construction Name
    Block Build_1_Alt0 Storey 1,    !- Zone Name
    outdoors,                 !- Outside Boundary Condition
    ,                         !- Outside Boundary Condition Object
    SunExposed,               !- Sun Exposure
    WindExposed,              !- Wind Exposure
    autocalculate,            !- View Factor to Ground
    autocalculate,            !- Number of Vertices
    -2.1904,                  !- Vertex 1 Xcoordinate
    -14.4245,                 !- Vertex 1 Ycoordinate
    6,                        !- Vertex 1 Zcoordinate
    -2.1904,                  !- Vertex 2 Xcoordinate
    -14.4245,                 !- Vertex 2 Ycoordinate
    3,                        !- Vertex 2 Zcoordinate
    5.7206,                   !- Vertex 3 Xcoordinate
    -7.6585,                  !- Vertex 3 Ycoordinate
    3,                        !- Vertex 3 Zcoordinate
    5.7206,                   !- Vertex 4 Xcoordinate
    -7.6585,                  !- Vertex 4 Ycoordinate
    6;                        !- Vertex 4 Zcoordinate

BUILDINGSURFACE:DETAILED,
    Block Build_1_Alt0 Storey 1 Wall 0003,    !- Name
    wall,                     !- Surface Type
    Project Wall,             !- Construction Name
    Block Build_1_Alt0 Storey 1,    !- Zone Name
    outdoors,                 !- Outside Boundary Condition
    ,                         !- Outside Boundary Condition Object
    SunExposed,               !- Sun Exposure
    WindExposed,              !- Wind Exposure
    autocalculate,            !- View Factor to Ground
    autocalculate,            !- Number of Vertices
    5.7206,                   !- Vertex 1 Xcoordinate
    -7.6585,                  !- Vertex 1 Ycoordinate
    6,                        !- Vertex 1 Zcoordinate
    5.7206,                   !- Vertex 2 Xcoordinate
    -7.6585,                  !- Vertex 2 Ycoordinate
    3,                        !- Vertex 2 Zcoordinate
    8.2786,                   !- Vertex 3 Xcoordinate
    -10.7355,                 !- Vertex 3 Ycoordinate
    3,                        !- Vertex 3 Zcoordinate
    8.2786,                   !- Vertex 4 Xcoordinate
    -10.7355,                 !- Vertex 4 Ycoordinate
    6;                        !- Vertex 4 Zcoordinate

BUILDINGSURFACE:DETAILED,
    Block Build_1_Alt0 Storey 1 Wall 0004,    !- Name
    wall,                     !- Surface Type
    Project Wall,             !- Construction Name
    Block Build_1_Alt0 Storey 1,    !- Zone Name
    outdoors,                 !- Outside Boundary Condition
    ,                         !- Outside Boundary Condition Object
    SunExposed,               !- Sun Exposure
    WindExposed,              !- Wind Exposure
    autocalculate,            !- View Factor to Ground
    autocalculate,            !- Number of Vertices
    8.2786,                   !- Vertex 1 Xcoordinate
    -10.7355,                 !- Vertex 1 Ycoordinate
    6,                        !- Vertex 1 Zcoordinate
    8.2786,                   !- Vertex 2 Xcoordinate
    -10.7355,                 !- Vertex 2 Ycoordinate
    3,                        !- Vertex 2 Zcoordinate
    13.3636,                  !- Vertex 3 Xcoordinate
    -6.3885,                  !- Vertex 3 Ycoordinate
    3,                        !- Vertex 3 Zcoordinate
    13.3636,                  !- Vertex 4 Xcoordinate
    -6.3885,                  !- Vertex 4 Ycoordinate
    6;                        !- Vertex 4 Zcoordinate

BUILDINGSURFACE:DETAILED,
    Block Build_1_Alt0 Storey 1 Wall 0005,    !- Name
    wall,                     !- Surface Type
    Project Wall,             !- Construction Name
    Block Build_1_Alt0 Storey 1,    !- Zone Name
    outdoors,                 !- Outside Boundary Condition
    ,                         !- Outside Boundary Condition Object
    SunExposed,               !- Sun Exposure
    WindExposed,              !- Wind Exposure
    autocalculate,            !- View Factor to Ground
    autocalculate,            !- Number of Vertices
    13.3636,                  !- Vertex 1 Xcoordinate
    -6.3885,                  !- Vertex 1 Ycoordinate
    6,                        !- Vertex 1 Zcoordinate
    13.3636,                  !- Vertex 2 Xcoordinate
    -6.3885,                  !- Vertex 2 Ycoordinate
    3,                        !- Vertex 2 Zcoordinate
    10.8056,                  !- Vertex 3 Xcoordinate
    -3.3115,                  !- Vertex 3 Ycoordinate
    3,                        !- Vertex 3 Zcoordinate
    10.8056,                  !- Vertex 4 Xcoordinate
    -3.3115,                  !- Vertex 4 Ycoordinate
    6;                        !- Vertex 4 Zcoordinate

BUILDINGSURFACE:DETAILED,
    Block Build_1_Alt0 Storey 1 Wall 0006,    !- Name
    wall,                     !- Surface Type
    Project Wall,             !- Construction Name
    Block Build_1_Alt0 Storey 1,    !- Zone Name
    outdoors,                 !- Outside Boundary Condition
    ,                         !- Outside Boundary Condition Object
    SunExposed,               !- Sun Exposure
    WindExposed,              !- Wind Exposure
    autocalculate,            !- View Factor to Ground
    autocalculate,            !- Number of Vertices
    10.8056,                  !- Vertex 1 Xcoordinate
    -3.3115,                  !- Vertex 1 Ycoordinate
    6,                        !- Vertex 1 Zcoordinate
    10.8056,                  !- Vertex 2 Xcoordinate
    -3.3115,                  !- Vertex 2 Ycoordinate
    3,                        !- Vertex 2 Zcoordinate
    21.0126,                  !- Vertex 3 Xcoordinate
    5.4765,                   !- Vertex 3 Ycoordinate
    3,                        !- Vertex 3 Zcoordinate
    21.0126,                  !- Vertex 4 Xcoordinate
    5.4765,                   !- Vertex 4 Ycoordinate
    6;                        !- Vertex 4 Zcoordinate

BUILDINGSURFACE:DETAILED,
    Block Build_1_Alt0 Storey 1 Wall 0007,    !- Name
    wall,                     !- Surface Type
    Project Wall,             !- Construction Name
    Block Build_1_Alt0 Storey 1,    !- Zone Name
    outdoors,                 !- Outside Boundary Condition
    ,                         !- Outside Boundary Condition Object
    SunExposed,               !- Sun Exposure
    WindExposed,              !- Wind Exposure
    autocalculate,            !- View Factor to Ground
    autocalculate,            !- Number of Vertices
    21.0126,                  !- Vertex 1 Xcoordinate
    5.4765,                   !- Vertex 1 Ycoordinate
    6,                        !- Vertex 1 Zcoordinate
    21.0126,                  !- Vertex 2 Xcoordinate
    5.4765,                   !- Vertex 2 Ycoordinate
    3,                        !- Vertex 2 Zcoordinate
    23.6056,                  !- Vertex 3 Xcoordinate
    2.4315,                   !- Vertex 3 Ycoordinate
    3,                        !- Vertex 3 Zcoordinate
    23.6056,                  !- Vertex 4 Xcoordinate
    2.4315,                   !- Vertex 4 Ycoordinate
    6;                        !- Vertex 4 Zcoordinate

BUILDINGSURFACE:DETAILED,
    Block Build_1_Alt0 Storey 1 Wall 0008,    !- Name
    wall,                     !- Surface Type
    Project Wall,             !- Construction Name
    Block Build_1_Alt0 Storey 1,    !- Zone Name
    outdoors,                 !- Outside Boundary Condition
    ,                         !- Outside Boundary Condition Object
    SunExposed,               !- Sun Exposure
    WindExposed,              !- Wind Exposure
    autocalculate,            !- View Factor to Ground
    autocalculate,            !- Number of Vertices
    23.6056,                  !- Vertex 1 Xcoordinate
    2.4315,                   !- Vertex 1 Ycoordinate
    6,                        !- Vertex 1 Zcoordinate
    23.6056,                  !- Vertex 2 Xcoordinate
    2.4315,                   !- Vertex 2 Ycoordinate
    3,                        !- Vertex 2 Zcoordinate
    28.6906,                  !- Vertex 3 Xcoordinate
    6.8015,                   !- Vertex 3 Ycoordinate
    3,                        !- Vertex 3 Zcoordinate
    28.6906,                  !- Vertex 4 Xcoordinate
    6.8015,                   !- Vertex 4 Ycoordinate
    6;                        !- Vertex 4 Zcoordinate

BUILDINGSURFACE:DETAILED,
    Block Build_1_Alt0 Storey 1 Wall 0009,    !- Name
    wall,                     !- Surface Type
    Project Wall,             !- Construction Name
    Block Build_1_Alt0 Storey 1,    !- Zone Name
    outdoors,                 !- Outside Boundary Condition
    ,                         !- Outside Boundary Condition Object
    SunExposed,               !- Sun Exposure
    WindExposed,              !- Wind Exposure
    autocalculate,            !- View Factor to Ground
    autocalculate,            !- Number of Vertices
    28.6906,                  !- Vertex 1 Xcoordinate
    6.8015,                   !- Vertex 1 Ycoordinate
    6,                        !- Vertex 1 Zcoordinate
    28.6906,                  !- Vertex 2 Xcoordinate
    6.8015,                   !- Vertex 2 Ycoordinate
    3,                        !- Vertex 2 Zcoordinate
    26.0736,                  !- Vertex 3 Xcoordinate
    9.8265,                   !- Vertex 3 Ycoordinate
    3,                        !- Vertex 3 Zcoordinate
    26.0736,                  !- Vertex 4 Xcoordinate
    9.8265,                   !- Vertex 4 Ycoordinate
    6;                        !- Vertex 4 Zcoordinate

BUILDINGSURFACE:DETAILED,
    Block Build_1_Alt0 Storey 1 Wall 0010,    !- Name
    wall,                     !- Surface Type
    Project Wall,             !- Construction Name
    Block Build_1_Alt0 Storey 1,    !- Zone Name
    outdoors,                 !- Outside Boundary Condition
    ,                         !- Outside Boundary Condition Object
    SunExposed,               !- Sun Exposure
    WindExposed,              !- Wind Exposure
    autocalculate,            !- View Factor to Ground
    autocalculate,            !- Number of Vertices
    26.0736,                  !- Vertex 1 Xcoordinate
    9.8265,                   !- Vertex 1 Ycoordinate
    6,                        !- Vertex 1 Zcoordinate
    26.0736,                  !- Vertex 2 Xcoordinate
    9.8265,                   !- Vertex 2 Ycoordinate
    3,                        !- Vertex 2 Zcoordinate
    35.0206,                  !- Vertex 3 Xcoordinate
    17.5205,                  !- Vertex 3 Ycoordinate
    3,                        !- Vertex 3 Zcoordinate
    35.0206,                  !- Vertex 4 Xcoordinate
    17.5205,                  !- Vertex 4 Ycoordinate
    6;                        !- Vertex 4 Zcoordinate

BUILDINGSURFACE:DETAILED,
    Block Build_1_Alt0 Storey 1 Wall 0011,    !- Name
    wall,                     !- Surface Type
    Project Wall,             !- Construction Name
    Block Build_1_Alt0 Storey 1,    !- Zone Name
    outdoors,                 !- Outside Boundary Condition
    ,                         !- Outside Boundary Condition Object
    SunExposed,               !- Sun Exposure
    WindExposed,              !- Wind Exposure
    autocalculate,            !- View Factor to Ground
    autocalculate,            !- Number of Vertices
    35.0206,                  !- Vertex 1 Xcoordinate
    17.5205,                  !- Vertex 1 Ycoordinate
    6,                        !- Vertex 1 Zcoordinate
    35.0206,                  !- Vertex 2 Xcoordinate
    17.5205,                  !- Vertex 2 Ycoordinate
    3,                        !- Vertex 2 Zcoordinate
    28.8976,                  !- Vertex 3 Xcoordinate
    24.6325,                  !- Vertex 3 Ycoordinate
    3,                        !- Vertex 3 Zcoordinate
    28.8976,                  !- Vertex 4 Xcoordinate
    24.6325,                  !- Vertex 4 Ycoordinate
    6;                        !- Vertex 4 Zcoordinate

BUILDINGSURFACE:DETAILED,
    Block Build_1_Alt0 Storey 1 Wall 0012,    !- Name
    wall,                     !- Surface Type
    Project Wall,             !- Construction Name
    Block Build_1_Alt0 Storey 1,    !- Zone Name
    outdoors,                 !- Outside Boundary Condition
    ,                         !- Outside Boundary Condition Object
    SunExposed,               !- Sun Exposure
    WindExposed,              !- Wind Exposure
    autocalculate,            !- View Factor to Ground
    autocalculate,            !- Number of Vertices
    28.8976,                  !- Vertex 1 Xcoordinate
    24.6325,                  !- Vertex 1 Ycoordinate
    6,                        !- Vertex 1 Zcoordinate
    28.8976,                  !- Vertex 2 Xcoordinate
    24.6325,                  !- Vertex 2 Ycoordinate
    3,                        !- Vertex 2 Zcoordinate
    25.8646,                  !- Vertex 3 Xcoordinate
    22.0255,                  !- Vertex 3 Ycoordinate
    3,                        !- Vertex 3 Zcoordinate
    25.8646,                  !- Vertex 4 Xcoordinate
    22.0255,                  !- Vertex 4 Ycoordinate
    6;                        !- Vertex 4 Zcoordinate

BUILDINGSURFACE:DETAILED,
    Block Build_1_Alt0 Storey 1 Wall 0013,    !- Name
    wall,                     !- Surface Type
    Project Wall,             !- Construction Name
    Block Build_1_Alt0 Storey 1,    !- Zone Name
    outdoors,                 !- Outside Boundary Condition
    ,                         !- Outside Boundary Condition Object
    SunExposed,               !- Sun Exposure
    WindExposed,              !- Wind Exposure
    autocalculate,            !- View Factor to Ground
    autocalculate,            !- Number of Vertices
    25.8646,                  !- Vertex 1 Xcoordinate
    22.0255,                  !- Vertex 1 Ycoordinate
    6,                        !- Vertex 1 Zcoordinate
    25.8646,                  !- Vertex 2 Xcoordinate
    22.0255,                  !- Vertex 2 Ycoordinate
    3,                        !- Vertex 2 Zcoordinate
    19.1906,                  !- Vertex 3 Xcoordinate
    29.7785,                  !- Vertex 3 Ycoordinate
    3,                        !- Vertex 3 Zcoordinate
    19.1906,                  !- Vertex 4 Xcoordinate
    29.7785,                  !- Vertex 4 Ycoordinate
    6;                        !- Vertex 4 Zcoordinate

BUILDINGSURFACE:DETAILED,
    Block Build_1_Alt0 Storey 1 Wall 0014,    !- Name
    wall,                     !- Surface Type
    Project Wall,             !- Construction Name
    Block Build_1_Alt0 Storey 1,    !- Zone Name
    outdoors,                 !- Outside Boundary Condition
    ,                         !- Outside Boundary Condition Object
    SunExposed,               !- Sun Exposure
    WindExposed,              !- Wind Exposure
    autocalculate,            !- View Factor to Ground
    autocalculate,            !- Number of Vertices
    19.1906,                  !- Vertex 1 Xcoordinate
    29.7785,                  !- Vertex 1 Ycoordinate
    6,                        !- Vertex 1 Zcoordinate
    19.1906,                  !- Vertex 2 Xcoordinate
    29.7785,                  !- Vertex 2 Ycoordinate
    3,                        !- Vertex 2 Zcoordinate
    11.5226,                  !- Vertex 3 Xcoordinate
    23.2185,                  !- Vertex 3 Ycoordinate
    3,                        !- Vertex 3 Zcoordinate
    11.5226,                  !- Vertex 4 Xcoordinate
    23.2185,                  !- Vertex 4 Ycoordinate
    6;                        !- Vertex 4 Zcoordinate

BUILDINGSURFACE:DETAILED,
    Block Build_1_Alt0 Storey 1 Wall 0015,    !- Name
    wall,                     !- Surface Type
    Project Wall,             !- Construction Name
    Block Build_1_Alt0 Storey 1,    !- Zone Name
    outdoors,                 !- Outside Boundary Condition
    ,                         !- Outside Boundary Condition Object
    SunExposed,               !- Sun Exposure
    WindExposed,              !- Wind Exposure
    autocalculate,            !- View Factor to Ground
    autocalculate,            !- Number of Vertices
    11.5226,                  !- Vertex 1 Xcoordinate
    23.2185,                  !- Vertex 1 Ycoordinate
    6,                        !- Vertex 1 Zcoordinate
    11.5226,                  !- Vertex 2 Xcoordinate
    23.2185,                  !- Vertex 2 Ycoordinate
    3,                        !- Vertex 2 Zcoordinate
    18.2236,                  !- Vertex 3 Xcoordinate
    15.4375,                  !- Vertex 3 Ycoordinate
    3,                        !- Vertex 3 Zcoordinate
    18.2236,                  !- Vertex 4 Xcoordinate
    15.4375,                  !- Vertex 4 Ycoordinate
    6;                        !- Vertex 4 Zcoordinate

BUILDINGSURFACE:DETAILED,
    Block Build_1_Alt0 Storey 2 Wall 0001,    !- Name
    wall,                     !- Surface Type
    Project Wall,             !- Construction Name
    Block Build_1_Alt0 Storey 2,    !- Zone Name
    outdoors,                 !- Outside Boundary Condition
    ,                         !- Outside Boundary Condition Object
    SunExposed,               !- Sun Exposure
    WindExposed,              !- Wind Exposure
    autocalculate,            !- View Factor to Ground
    autocalculate,            !- Number of Vertices
    -8.3084,                  !- Vertex 1 Xcoordinate
    -7.3555,                  !- Vertex 1 Ycoordinate
    9,                        !- Vertex 1 Zcoordinate
    -8.3084,                  !- Vertex 2 Xcoordinate
    -7.3555,                  !- Vertex 2 Ycoordinate
    6,                        !- Vertex 2 Zcoordinate
    -2.1904,                  !- Vertex 3 Xcoordinate
    -14.4245,                 !- Vertex 3 Ycoordinate
    6,                        !- Vertex 3 Zcoordinate
    -2.1904,                  !- Vertex 4 Xcoordinate
    -14.4245,                 !- Vertex 4 Ycoordinate
    9;                        !- Vertex 4 Zcoordinate

BUILDINGSURFACE:DETAILED,
    Block Build_1_Alt0 Storey 2 Wall 0002,    !- Name
    wall,                     !- Surface Type
    Project Wall,             !- Construction Name
    Block Build_1_Alt0 Storey 2,    !- Zone Name
    outdoors,                 !- Outside Boundary Condition
    ,                         !- Outside Boundary Condition Object
    SunExposed,               !- Sun Exposure
    WindExposed,              !- Wind Exposure
    autocalculate,            !- View Factor to Ground
    autocalculate,            !- Number of Vertices
    -2.1904,                  !- Vertex 1 Xcoordinate
    -14.4245,                 !- Vertex 1 Ycoordinate
    9,                        !- Vertex 1 Zcoordinate
    -2.1904,                  !- Vertex 2 Xcoordinate
    -14.4245,                 !- Vertex 2 Ycoordinate
    6,                        !- Vertex 2 Zcoordinate
    5.7206,                   !- Vertex 3 Xcoordinate
    -7.6585,                  !- Vertex 3 Ycoordinate
    6,                        !- Vertex 3 Zcoordinate
    5.7206,                   !- Vertex 4 Xcoordinate
    -7.6585,                  !- Vertex 4 Ycoordinate
    9;                        !- Vertex 4 Zcoordinate

BUILDINGSURFACE:DETAILED,
    Block Build_1_Alt0 Storey 2 Wall 0003,    !- Name
    wall,                     !- Surface Type
    Project Wall,             !- Construction Name
    Block Build_1_Alt0 Storey 2,    !- Zone Name
    outdoors,                 !- Outside Boundary Condition
    ,                         !- Outside Boundary Condition Object
    SunExposed,               !- Sun Exposure
    WindExposed,              !- Wind Exposure
    autocalculate,            !- View Factor to Ground
    autocalculate,            !- Number of Vertices
    5.7206,                   !- Vertex 1 Xcoordinate
    -7.6585,                  !- Vertex 1 Ycoordinate
    9,                        !- Vertex 1 Zcoordinate
    5.7206,                   !- Vertex 2 Xcoordinate
    -7.6585,                  !- Vertex 2 Ycoordinate
    6,                        !- Vertex 2 Zcoordinate
    8.2786,                   !- Vertex 3 Xcoordinate
    -10.7355,                 !- Vertex 3 Ycoordinate
    6,                        !- Vertex 3 Zcoordinate
    8.2786,                   !- Vertex 4 Xcoordinate
    -10.7355,                 !- Vertex 4 Ycoordinate
    9;                        !- Vertex 4 Zcoordinate

BUILDINGSURFACE:DETAILED,
    Block Build_1_Alt0 Storey 2 Wall 0004,    !- Name
    wall,                     !- Surface Type
    Project Wall,             !- Construction Name
    Block Build_1_Alt0 Storey 2,    !- Zone Name
    outdoors,                 !- Outside Boundary Condition
    ,                         !- Outside Boundary Condition Object
    SunExposed,               !- Sun Exposure
    WindExposed,              !- Wind Exposure
    autocalculate,            !- View Factor to Ground
    autocalculate,            !- Number of Vertices
    8.2786,                   !- Vertex 1 Xcoordinate
    -10.7355,                 !- Vertex 1 Ycoordinate
    9,                        !- Vertex 1 Zcoordinate
    8.2786,                   !- Vertex 2 Xcoordinate
    -10.7355,                 !- Vertex 2 Ycoordinate
    6,                        !- Vertex 2 Zcoordinate
    13.3636,                  !- Vertex 3 Xcoordinate
    -6.3885,                  !- Vertex 3 Ycoordinate
    6,                        !- Vertex 3 Zcoordinate
    13.3636,                  !- Vertex 4 Xcoordinate
    -6.3885,                  !- Vertex 4 Ycoordinate
    9;                        !- Vertex 4 Zcoordinate

BUILDINGSURFACE:DETAILED,
    Block Build_1_Alt0 Storey 2 Wall 0005,    !- Name
    wall,                     !- Surface Type
    Project Wall,             !- Construction Name
    Block Build_1_Alt0 Storey 2,    !- Zone Name
    outdoors,                 !- Outside Boundary Condition
    ,                         !- Outside Boundary Condition Object
    SunExposed,               !- Sun Exposure
    WindExposed,              !- Wind Exposure
    autocalculate,            !- View Factor to Ground
    autocalculate,            !- Number of Vertices
    13.3636,                  !- Vertex 1 Xcoordinate
    -6.3885,                  !- Vertex 1 Ycoordinate
    9,                        !- Vertex 1 Zcoordinate
    13.3636,                  !- Vertex 2 Xcoordinate
    -6.3885,                  !- Vertex 2 Ycoordinate
    6,                        !- Vertex 2 Zcoordinate
    10.8056,                  !- Vertex 3 Xcoordinate
    -3.3115,                  !- Vertex 3 Ycoordinate
    6,                        !- Vertex 3 Zcoordinate
    10.8056,                  !- Vertex 4 Xcoordinate
    -3.3115,                  !- Vertex 4 Ycoordinate
    9;                        !- Vertex 4 Zcoordinate

BUILDINGSURFACE:DETAILED,
    Block Build_1_Alt0 Storey 2 Wall 0006,    !- Name
    wall,                     !- Surface Type
    Project Wall,             !- Construction Name
    Block Build_1_Alt0 Storey 2,    !- Zone Name
    outdoors,                 !- Outside Boundary Condition
    ,                         !- Outside Boundary Condition Object
    SunExposed,               !- Sun Exposure
    WindExposed,              !- Wind Exposure
    autocalculate,            !- View Factor to Ground
    autocalculate,            !- Number of Vertices
    10.8056,                  !- Vertex 1 Xcoordinate
    -3.3115,                  !- Vertex 1 Ycoordinate
    9,                        !- Vertex 1 Zcoordinate
    10.8056,                  !- Vertex 2 Xcoordinate
    -3.3115,                  !- Vertex 2 Ycoordinate
    6,                        !- Vertex 2 Zcoordinate
    21.0126,                  !- Vertex 3 Xcoordinate
    5.4765,                   !- Vertex 3 Ycoordinate
    6,                        !- Vertex 3 Zcoordinate
    21.0126,                  !- Vertex 4 Xcoordinate
    5.4765,                   !- Vertex 4 Ycoordinate
    9;                        !- Vertex 4 Zcoordinate

BUILDINGSURFACE:DETAILED,
    Block Build_1_Alt0 Storey 2 Wall 0007,    !- Name
    wall,                     !- Surface Type
    Project Wall,             !- Construction Name
    Block Build_1_Alt0 Storey 2,    !- Zone Name
    outdoors,                 !- Outside Boundary Condition
    ,                         !- Outside Boundary Condition Object
    SunExposed,               !- Sun Exposure
    WindExposed,              !- Wind Exposure
    autocalculate,            !- View Factor to Ground
    autocalculate,            !- Number of Vertices
    21.0126,                  !- Vertex 1 Xcoordinate
    5.4765,                   !- Vertex 1 Ycoordinate
    9,                        !- Vertex 1 Zcoordinate
    21.0126,                  !- Vertex 2 Xcoordinate
    5.4765,                   !- Vertex 2 Ycoordinate
    6,                        !- Vertex 2 Zcoordinate
    23.6056,                  !- Vertex 3 Xcoordinate
    2.4315,                   !- Vertex 3 Ycoordinate
    6,                        !- Vertex 3 Zcoordinate
    23.6056,                  !- Vertex 4 Xcoordinate
    2.4315,                   !- Vertex 4 Ycoordinate
    9;                        !- Vertex 4 Zcoordinate

BUILDINGSURFACE:DETAILED,
    Block Build_1_Alt0 Storey 2 Wall 0008,    !- Name
    wall,                     !- Surface Type
    Project Wall,             !- Construction Name
    Block Build_1_Alt0 Storey 2,    !- Zone Name
    outdoors,                 !- Outside Boundary Condition
    ,                         !- Outside Boundary Condition Object
    SunExposed,               !- Sun Exposure
    WindExposed,              !- Wind Exposure
    autocalculate,            !- View Factor to Ground
    autocalculate,            !- Number of Vertices
    23.6056,                  !- Vertex 1 Xcoordinate
    2.4315,                   !- Vertex 1 Ycoordinate
    9,                        !- Vertex 1 Zcoordinate
    23.6056,                  !- Vertex 2 Xcoordinate
    2.4315,                   !- Vertex 2 Ycoordinate
    6,                        !- Vertex 2 Zcoordinate
    28.6906,                  !- Vertex 3 Xcoordinate
    6.8015,                   !- Vertex 3 Ycoordinate
    6,                        !- Vertex 3 Zcoordinate
    28.6906,                  !- Vertex 4 Xcoordinate
    6.8015,                   !- Vertex 4 Ycoordinate
    9;                        !- Vertex 4 Zcoordinate

BUILDINGSURFACE:DETAILED,
    Block Build_1_Alt0 Storey 2 Wall 0009,    !- Name
    wall,                     !- Surface Type
    Project Wall,             !- Construction Name
    Block Build_1_Alt0 Storey 2,    !- Zone Name
    outdoors,                 !- Outside Boundary Condition
    ,                         !- Outside Boundary Condition Object
    SunExposed,               !- Sun Exposure
    WindExposed,              !- Wind Exposure
    autocalculate,            !- View Factor to Ground
    autocalculate,            !- Number of Vertices
    28.6906,                  !- Vertex 1 Xcoordinate
    6.8015,                   !- Vertex 1 Ycoordinate
    9,                        !- Vertex 1 Zcoordinate
    28.6906,                  !- Vertex 2 Xcoordinate
    6.8015,                   !- Vertex 2 Ycoordinate
    6,                        !- Vertex 2 Zcoordinate
    26.0736,                  !- Vertex 3 Xcoordinate
    9.8265,                   !- Vertex 3 Ycoordinate
    6,                        !- Vertex 3 Zcoordinate
    26.0736,                  !- Vertex 4 Xcoordinate
    9.8265,                   !- Vertex 4 Ycoordinate
    9;                        !- Vertex 4 Zcoordinate

BUILDINGSURFACE:DETAILED,
    Block Build_1_Alt0 Storey 2 Wall 0010,    !- Name
    wall,                     !- Surface Type
    Project Wall,             !- Construction Name
    Block Build_1_Alt0 Storey 2,    !- Zone Name
    outdoors,                 !- Outside Boundary Condition
    ,                         !- Outside Boundary Condition Object
    SunExposed,               !- Sun Exposure
    WindExposed,              !- Wind Exposure
    autocalculate,            !- View Factor to Ground
    autocalculate,            !- Number of Vertices
    26.0736,                  !- Vertex 1 Xcoordinate
    9.8265,                   !- Vertex 1 Ycoordinate
    9,                        !- Vertex 1 Zcoordinate
    26.0736,                  !- Vertex 2 Xcoordinate
    9.8265,                   !- Vertex 2 Ycoordinate
    6,                        !- Vertex 2 Zcoordinate
    35.0206,                  !- Vertex 3 Xcoordinate
    17.5205,                  !- Vertex 3 Ycoordinate
    6,                        !- Vertex 3 Zcoordinate
    35.0206,                  !- Vertex 4 Xcoordinate
    17.5205,                  !- Vertex 4 Ycoordinate
    9;                        !- Vertex 4 Zcoordinate

BUILDINGSURFACE:DETAILED,
    Block Build_1_Alt0 Storey 2 Wall 0011,    !- Name
    wall,                     !- Surface Type
    Project Wall,             !- Construction Name
    Block Build_1_Alt0 Storey 2,    !- Zone Name
    outdoors,                 !- Outside Boundary Condition
    ,                         !- Outside Boundary Condition Object
    SunExposed,               !- Sun Exposure
    WindExposed,              !- Wind Exposure
    autocalculate,            !- View Factor to Ground
    autocalculate,            !- Number of Vertices
    35.0206,                  !- Vertex 1 Xcoordinate
    17.5205,                  !- Vertex 1 Ycoordinate
    9,                        !- Vertex 1 Zcoordinate
    35.0206,                  !- Vertex 2 Xcoordinate
    17.5205,                  !- Vertex 2 Ycoordinate
    6,                        !- Vertex 2 Zcoordinate
    28.8976,                  !- Vertex 3 Xcoordinate
    24.6325,                  !- Vertex 3 Ycoordinate
    6,                        !- Vertex 3 Zcoordinate
    28.8976,                  !- Vertex 4 Xcoordinate
    24.6325,                  !- Vertex 4 Ycoordinate
    9;                        !- Vertex 4 Zcoordinate

BUILDINGSURFACE:DETAILED,
    Block Build_1_Alt0 Storey 2 Wall 0012,    !- Name
    wall,                     !- Surface Type
    Project Wall,             !- Construction Name
    Block Build_1_Alt0 Storey 2,    !- Zone Name
    outdoors,                 !- Outside Boundary Condition
    ,                         !- Outside Boundary Condition Object
    SunExposed,               !- Sun Exposure
    WindExposed,              !- Wind Exposure
    autocalculate,            !- View Factor to Ground
    autocalculate,            !- Number of Vertices
    28.8976,                  !- Vertex 1 Xcoordinate
    24.6325,                  !- Vertex 1 Ycoordinate
    9,                        !- Vertex 1 Zcoordinate
    28.8976,                  !- Vertex 2 Xcoordinate
    24.6325,                  !- Vertex 2 Ycoordinate
    6,                        !- Vertex 2 Zcoordinate
    25.8646,                  !- Vertex 3 Xcoordinate
    22.0255,                  !- Vertex 3 Ycoordinate
    6,                        !- Vertex 3 Zcoordinate
    25.8646,                  !- Vertex 4 Xcoordinate
    22.0255,                  !- Vertex 4 Ycoordinate
    9;                        !- Vertex 4 Zcoordinate

BUILDINGSURFACE:DETAILED,
    Block Build_1_Alt0 Storey 2 Wall 0013,    !- Name
    wall,                     !- Surface Type
    Project Wall,             !- Construction Name
    Block Build_1_Alt0 Storey 2,    !- Zone Name
    outdoors,                 !- Outside Boundary Condition
    ,                         !- Outside Boundary Condition Object
    SunExposed,               !- Sun Exposure
    WindExposed,              !- Wind Exposure
    autocalculate,            !- View Factor to Ground
    autocalculate,            !- Number of Vertices
    25.8646,                  !- Vertex 1 Xcoordinate
    22.0255,                  !- Vertex 1 Ycoordinate
    9,                        !- Vertex 1 Zcoordinate
    25.8646,                  !- Vertex 2 Xcoordinate
    22.0255,                  !- Vertex 2 Ycoordinate
    6,                        !- Vertex 2 Zcoordinate
    19.1906,                  !- Vertex 3 Xcoordinate
    29.7785,                  !- Vertex 3 Ycoordinate
    6,                        !- Vertex 3 Zcoordinate
    19.1906,                  !- Vertex 4 Xcoordinate
    29.7785,                  !- Vertex 4 Ycoordinate
    9;                        !- Vertex 4 Zcoordinate

BUILDINGSURFACE:DETAILED,
    Block Build_1_Alt0 Storey 2 Wall 0014,    !- Name
    wall,                     !- Surface Type
    Project Wall,             !- Construction Name
    Block Build_1_Alt0 Storey 2,    !- Zone Name
    outdoors,                 !- Outside Boundary Condition
    ,                         !- Outside Boundary Condition Object
    SunExposed,               !- Sun Exposure
    WindExposed,              !- Wind Exposure
    autocalculate,            !- View Factor to Ground
    autocalculate,            !- Number of Vertices
    19.1906,                  !- Vertex 1 Xcoordinate
    29.7785,                  !- Vertex 1 Ycoordinate
    9,                        !- Vertex 1 Zcoordinate
    19.1906,                  !- Vertex 2 Xcoordinate
    29.7785,                  !- Vertex 2 Ycoordinate
    6,                        !- Vertex 2 Zcoordinate
    11.5226,                  !- Vertex 3 Xcoordinate
    23.2185,                  !- Vertex 3 Ycoordinate
    6,                        !- Vertex 3 Zcoordinate
    11.5226,                  !- Vertex 4 Xcoordinate
    23.2185,                  !- Vertex 4 Ycoordinate
    9;                        !- Vertex 4 Zcoordinate

BUILDINGSURFACE:DETAILED,
    Block Build_1_Alt0 Storey 2 Wall 0015,    !- Name
    wall,                     !- Surface Type
    Project Wall,             !- Construction Name
    Block Build_1_Alt0 Storey 2,    !- Zone Name
    outdoors,                 !- Outside Boundary Condition
    ,                         !- Outside Boundary Condition Object
    SunExposed,               !- Sun Exposure
    WindExposed,              !- Wind Exposure
    autocalculate,            !- View Factor to Ground
    autocalculate,            !- Number of Vertices
    11.5226,                  !- Vertex 1 Xcoordinate
    23.2185,                  !- Vertex 1 Ycoordinate
    9,                        !- Vertex 1 Zcoordinate
    11.5226,                  !- Vertex 2 Xcoordinate
    23.2185,                  !- Vertex 2 Ycoordinate
    6,                        !- Vertex 2 Zcoordinate
    18.2236,                  !- Vertex 3 Xcoordinate
    15.4375,                  !- Vertex 3 Ycoordinate
    6,                        !- Vertex 3 Zcoordinate
    18.2236,                  !- Vertex 4 Xcoordinate
    15.4375,                  !- Vertex 4 Ycoordinate
    9;                        !- Vertex 4 Zcoordinate

BUILDINGSURFACE:DETAILED,
    Block Build_1_Alt0 Storey 3 Wall 0001,    !- Name
    wall,                     !- Surface Type
    Project Wall,             !- Construction Name
    Block Build_1_Alt0 Storey 3,    !- Zone Name
    outdoors,                 !- Outside Boundary Condition
    ,                         !- Outside Boundary Condition Object
    SunExposed,               !- Sun Exposure
    WindExposed,              !- Wind Exposure
    autocalculate,            !- View Factor to Ground
    autocalculate,            !- Number of Vertices
    -8.3084,                  !- Vertex 1 Xcoordinate
    -7.3555,                  !- Vertex 1 Ycoordinate
    12,                       !- Vertex 1 Zcoordinate
    -8.3084,                  !- Vertex 2 Xcoordinate
    -7.3555,                  !- Vertex 2 Ycoordinate
    9,                        !- Vertex 2 Zcoordinate
    -2.1904,                  !- Vertex 3 Xcoordinate
    -14.4245,                 !- Vertex 3 Ycoordinate
    9,                        !- Vertex 3 Zcoordinate
    -2.1904,                  !- Vertex 4 Xcoordinate
    -14.4245,                 !- Vertex 4 Ycoordinate
    12;                       !- Vertex 4 Zcoordinate

BUILDINGSURFACE:DETAILED,
    Block Build_1_Alt0 Storey 3 Wall 0002,    !- Name
    wall,                     !- Surface Type
    Project Wall,             !- Construction Name
    Block Build_1_Alt0 Storey 3,    !- Zone Name
    outdoors,                 !- Outside Boundary Condition
    ,                         !- Outside Boundary Condition Object
    SunExposed,               !- Sun Exposure
    WindExposed,              !- Wind Exposure
    autocalculate,            !- View Factor to Ground
    autocalculate,            !- Number of Vertices
    -2.1904,                  !- Vertex 1 Xcoordinate
    -14.4245,                 !- Vertex 1 Ycoordinate
    12,                       !- Vertex 1 Zcoordinate
    -2.1904,                  !- Vertex 2 Xcoordinate
    -14.4245,                 !- Vertex 2 Ycoordinate
    9,                        !- Vertex 2 Zcoordinate
    5.7206,                   !- Vertex 3 Xcoordinate
    -7.6585,                  !- Vertex 3 Ycoordinate
    9,                        !- Vertex 3 Zcoordinate
    5.7206,                   !- Vertex 4 Xcoordinate
    -7.6585,                  !- Vertex 4 Ycoordinate
    12;                       !- Vertex 4 Zcoordinate

BUILDINGSURFACE:DETAILED,
    Block Build_1_Alt0 Storey 3 Wall 0003,    !- Name
    wall,                     !- Surface Type
    Project Wall,             !- Construction Name
    Block Build_1_Alt0 Storey 3,    !- Zone Name
    outdoors,                 !- Outside Boundary Condition
    ,                         !- Outside Boundary Condition Object
    SunExposed,               !- Sun Exposure
    WindExposed,              !- Wind Exposure
    autocalculate,            !- View Factor to Ground
    autocalculate,            !- Number of Vertices
    5.7206,                   !- Vertex 1 Xcoordinate
    -7.6585,                  !- Vertex 1 Ycoordinate
    12,                       !- Vertex 1 Zcoordinate
    5.7206,                   !- Vertex 2 Xcoordinate
    -7.6585,                  !- Vertex 2 Ycoordinate
    9,                        !- Vertex 2 Zcoordinate
    8.2786,                   !- Vertex 3 Xcoordinate
    -10.7355,                 !- Vertex 3 Ycoordinate
    9,                        !- Vertex 3 Zcoordinate
    8.2786,                   !- Vertex 4 Xcoordinate
    -10.7355,                 !- Vertex 4 Ycoordinate
    12;                       !- Vertex 4 Zcoordinate

BUILDINGSURFACE:DETAILED,
    Block Build_1_Alt0 Storey 3 Wall 0004,    !- Name
    wall,                     !- Surface Type
    Project Wall,             !- Construction Name
    Block Build_1_Alt0 Storey 3,    !- Zone Name
    outdoors,                 !- Outside Boundary Condition
    ,                         !- Outside Boundary Condition Object
    SunExposed,               !- Sun Exposure
    WindExposed,              !- Wind Exposure
    autocalculate,            !- View Factor to Ground
    autocalculate,            !- Number of Vertices
    8.2786,                   !- Vertex 1 Xcoordinate
    -10.7355,                 !- Vertex 1 Ycoordinate
    12,                       !- Vertex 1 Zcoordinate
    8.2786,                   !- Vertex 2 Xcoordinate
    -10.7355,                 !- Vertex 2 Ycoordinate
    9,                        !- Vertex 2 Zcoordinate
    13.3636,                  !- Vertex 3 Xcoordinate
    -6.3885,                  !- Vertex 3 Ycoordinate
    9,                        !- Vertex 3 Zcoordinate
    13.3636,                  !- Vertex 4 Xcoordinate
    -6.3885,                  !- Vertex 4 Ycoordinate
    12;                       !- Vertex 4 Zcoordinate

BUILDINGSURFACE:DETAILED,
    Block Build_1_Alt0 Storey 3 Wall 0005,    !- Name
    wall,                     !- Surface Type
    Project Wall,             !- Construction Name
    Block Build_1_Alt0 Storey 3,    !- Zone Name
    outdoors,                 !- Outside Boundary Condition
    ,                         !- Outside Boundary Condition Object
    SunExposed,               !- Sun Exposure
    WindExposed,              !- Wind Exposure
    autocalculate,            !- View Factor to Ground
    autocalculate,            !- Number of Vertices
    13.3636,                  !- Vertex 1 Xcoordinate
    -6.3885,                  !- Vertex 1 Ycoordinate
    12,                       !- Vertex 1 Zcoordinate
    13.3636,                  !- Vertex 2 Xcoordinate
    -6.3885,                  !- Vertex 2 Ycoordinate
    9,                        !- Vertex 2 Zcoordinate
    10.8056,                  !- Vertex 3 Xcoordinate
    -3.3115,                  !- Vertex 3 Ycoordinate
    9,                        !- Vertex 3 Zcoordinate
    10.8056,                  !- Vertex 4 Xcoordinate
    -3.3115,                  !- Vertex 4 Ycoordinate
    12;                       !- Vertex 4 Zcoordinate

BUILDINGSURFACE:DETAILED,
    Block Build_1_Alt0 Storey 3 Wall 0006,    !- Name
    wall,                     !- Surface Type
    Project Wall,             !- Construction Name
    Block Build_1_Alt0 Storey 3,    !- Zone Name
    outdoors,                 !- Outside Boundary Condition
    ,                         !- Outside Boundary Condition Object
    SunExposed,               !- Sun Exposure
    WindExposed,              !- Wind Exposure
    autocalculate,            !- View Factor to Ground
    autocalculate,            !- Number of Vertices
    10.8056,                  !- Vertex 1 Xcoordinate
    -3.3115,                  !- Vertex 1 Ycoordinate
    12,                       !- Vertex 1 Zcoordinate
    10.8056,                  !- Vertex 2 Xcoordinate
    -3.3115,                  !- Vertex 2 Ycoordinate
    9,                        !- Vertex 2 Zcoordinate
    21.0126,                  !- Vertex 3 Xcoordinate
    5.4765,                   !- Vertex 3 Ycoordinate
    9,                        !- Vertex 3 Zcoordinate
    21.0126,                  !- Vertex 4 Xcoordinate
    5.4765,                   !- Vertex 4 Ycoordinate
    12;                       !- Vertex 4 Zcoordinate

BUILDINGSURFACE:DETAILED,
    Block Build_1_Alt0 Storey 3 Wall 0007,    !- Name
    wall,                     !- Surface Type
    Project Wall,             !- Construction Name
    Block Build_1_Alt0 Storey 3,    !- Zone Name
    outdoors,                 !- Outside Boundary Condition
    ,                         !- Outside Boundary Condition Object
    SunExposed,               !- Sun Exposure
    WindExposed,              !- Wind Exposure
    autocalculate,            !- View Factor to Ground
    autocalculate,            !- Number of Vertices
    21.0126,                  !- Vertex 1 Xcoordinate
    5.4765,                   !- Vertex 1 Ycoordinate
    12,                       !- Vertex 1 Zcoordinate
    21.0126,                  !- Vertex 2 Xcoordinate
    5.4765,                   !- Vertex 2 Ycoordinate
    9,                        !- Vertex 2 Zcoordinate
    23.6056,                  !- Vertex 3 Xcoordinate
    2.4315,                   !- Vertex 3 Ycoordinate
    9,                        !- Vertex 3 Zcoordinate
    23.6056,                  !- Vertex 4 Xcoordinate
    2.4315,                   !- Vertex 4 Ycoordinate
    12;                       !- Vertex 4 Zcoordinate

BUILDINGSURFACE:DETAILED,
    Block Build_1_Alt0 Storey 3 Wall 0008,    !- Name
    wall,                     !- Surface Type
    Project Wall,             !- Construction Name
    Block Build_1_Alt0 Storey 3,    !- Zone Name
    outdoors,                 !- Outside Boundary Condition
    ,                         !- Outside Boundary Condition Object
    SunExposed,               !- Sun Exposure
    WindExposed,              !- Wind Exposure
    autocalculate,            !- View Factor to Ground
    autocalculate,            !- Number of Vertices
    23.6056,                  !- Vertex 1 Xcoordinate
    2.4315,                   !- Vertex 1 Ycoordinate
    12,                       !- Vertex 1 Zcoordinate
    23.6056,                  !- Vertex 2 Xcoordinate
    2.4315,                   !- Vertex 2 Ycoordinate
    9,                        !- Vertex 2 Zcoordinate
    28.6906,                  !- Vertex 3 Xcoordinate
    6.8015,                   !- Vertex 3 Ycoordinate
    9,                        !- Vertex 3 Zcoordinate
    28.6906,                  !- Vertex 4 Xcoordinate
    6.8015,                   !- Vertex 4 Ycoordinate
    12;                       !- Vertex 4 Zcoordinate

BUILDINGSURFACE:DETAILED,
    Block Build_1_Alt0 Storey 3 Wall 0009,    !- Name
    wall,                     !- Surface Type
    Project Wall,             !- Construction Name
    Block Build_1_Alt0 Storey 3,    !- Zone Name
    outdoors,                 !- Outside Boundary Condition
    ,                         !- Outside Boundary Condition Object
    SunExposed,               !- Sun Exposure
    WindExposed,              !- Wind Exposure
    autocalculate,            !- View Factor to Ground
    autocalculate,            !- Number of Vertices
    28.6906,                  !- Vertex 1 Xcoordinate
    6.8015,                   !- Vertex 1 Ycoordinate
    12,                       !- Vertex 1 Zcoordinate
    28.6906,                  !- Vertex 2 Xcoordinate
    6.8015,                   !- Vertex 2 Ycoordinate
    9,                        !- Vertex 2 Zcoordinate
    26.0736,                  !- Vertex 3 Xcoordinate
    9.8265,                   !- Vertex 3 Ycoordinate
    9,                        !- Vertex 3 Zcoordinate
    26.0736,                  !- Vertex 4 Xcoordinate
    9.8265,                   !- Vertex 4 Ycoordinate
    12;                       !- Vertex 4 Zcoordinate

BUILDINGSURFACE:DETAILED,
    Block Build_1_Alt0 Storey 3 Wall 0010,    !- Name
    wall,                     !- Surface Type
    Project Wall,             !- Construction Name
    Block Build_1_Alt0 Storey 3,    !- Zone Name
    outdoors,                 !- Outside Boundary Condition
    ,                         !- Outside Boundary Condition Object
    SunExposed,               !- Sun Exposure
    WindExposed,              !- Wind Exposure
    autocalculate,            !- View Factor to Ground
    autocalculate,            !- Number of Vertices
    26.0736,                  !- Vertex 1 Xcoordinate
    9.8265,                   !- Vertex 1 Ycoordinate
    12,                       !- Vertex 1 Zcoordinate
    26.0736,                  !- Vertex 2 Xcoordinate
    9.8265,                   !- Vertex 2 Ycoordinate
    9,                        !- Vertex 2 Zcoordinate
    35.0206,                  !- Vertex 3 Xcoordinate
    17.5205,                  !- Vertex 3 Ycoordinate
    9,                        !- Vertex 3 Zcoordinate
    35.0206,                  !- Vertex 4 Xcoordinate
    17.5205,                  !- Vertex 4 Ycoordinate
    12;                       !- Vertex 4 Zcoordinate

BUILDINGSURFACE:DETAILED,
    Block Build_1_Alt0 Storey 3 Wall 0011,    !- Name
    wall,                     !- Surface Type
    Project Wall,             !- Construction Name
    Block Build_1_Alt0 Storey 3,    !- Zone Name
    outdoors,                 !- Outside Boundary Condition
    ,                         !- Outside Boundary Condition Object
    SunExposed,               !- Sun Exposure
    WindExposed,              !- Wind Exposure
    autocalculate,            !- View Factor to Ground
    autocalculate,            !- Number of Vertices
    35.0206,                  !- Vertex 1 Xcoordinate
    17.5205,                  !- Vertex 1 Ycoordinate
    12,                       !- Vertex 1 Zcoordinate
    35.0206,                  !- Vertex 2 Xcoordinate
    17.5205,                  !- Vertex 2 Ycoordinate
    9,                        !- Vertex 2 Zcoordinate
    28.8976,                  !- Vertex 3 Xcoordinate
    24.6325,                  !- Vertex 3 Ycoordinate
    9,                        !- Vertex 3 Zcoordinate
    28.8976,                  !- Vertex 4 Xcoordinate
    24.6325,                  !- Vertex 4 Ycoordinate
    12;                       !- Vertex 4 Zcoordinate

BUILDINGSURFACE:DETAILED,
    Block Build_1_Alt0 Storey 3 Wall 0012,    !- Name
    wall,                     !- Surface Type
    Project Wall,             !- Construction Name
    Block Build_1_Alt0 Storey 3,    !- Zone Name
    outdoors,                 !- Outside Boundary Condition
    ,                         !- Outside Boundary Condition Object
    SunExposed,               !- Sun Exposure
    WindExposed,              !- Wind Exposure
    autocalculate,            !- View Factor to Ground
    autocalculate,            !- Number of Vertices
    28.8976,                  !- Vertex 1 Xcoordinate
    24.6325,                  !- Vertex 1 Ycoordinate
    12,                       !- Vertex 1 Zcoordinate
    28.8976,                  !- Vertex 2 Xcoordinate
    24.6325,                  !- Vertex 2 Ycoordinate
    9,                        !- Vertex 2 Zcoordinate
    25.8646,                  !- Vertex 3 Xcoordinate
    22.0255,                  !- Vertex 3 Ycoordinate
    9,                        !- Vertex 3 Zcoordinate
    25.8646,                  !- Vertex 4 Xcoordinate
    22.0255,                  !- Vertex 4 Ycoordinate
    12;                       !- Vertex 4 Zcoordinate

BUILDINGSURFACE:DETAILED,
    Block Build_1_Alt0 Storey 3 Wall 0013,    !- Name
    wall,                     !- Surface Type
    Project Wall,             !- Construction Name
    Block Build_1_Alt0 Storey 3,    !- Zone Name
    outdoors,                 !- Outside Boundary Condition
    ,                         !- Outside Boundary Condition Object
    SunExposed,               !- Sun Exposure
    WindExposed,              !- Wind Exposure
    autocalculate,            !- View Factor to Ground
    autocalculate,            !- Number of Vertices
    25.8646,                  !- Vertex 1 Xcoordinate
    22.0255,                  !- Vertex 1 Ycoordinate
    12,                       !- Vertex 1 Zcoordinate
    25.8646,                  !- Vertex 2 Xcoordinate
    22.0255,                  !- Vertex 2 Ycoordinate
    9,                        !- Vertex 2 Zcoordinate
    19.1906,                  !- Vertex 3 Xcoordinate
    29.7785,                  !- Vertex 3 Ycoordinate
    9,                        !- Vertex 3 Zcoordinate
    19.1906,                  !- Vertex 4 Xcoordinate
    29.7785,                  !- Vertex 4 Ycoordinate
    12;                       !- Vertex 4 Zcoordinate

BUILDINGSURFACE:DETAILED,
    Block Build_1_Alt0 Storey 3 Wall 0014,    !- Name
    wall,                     !- Surface Type
    Project Wall,             !- Construction Name
    Block Build_1_Alt0 Storey 3,    !- Zone Name
    outdoors,                 !- Outside Boundary Condition
    ,                         !- Outside Boundary Condition Object
    SunExposed,               !- Sun Exposure
    WindExposed,              !- Wind Exposure
    autocalculate,            !- View Factor to Ground
    autocalculate,            !- Number of Vertices
    19.1906,                  !- Vertex 1 Xcoordinate
    29.7785,                  !- Vertex 1 Ycoordinate
    12,                       !- Vertex 1 Zcoordinate
    19.1906,                  !- Vertex 2 Xcoordinate
    29.7785,                  !- Vertex 2 Ycoordinate
    9,                        !- Vertex 2 Zcoordinate
    11.5226,                  !- Vertex 3 Xcoordinate
    23.2185,                  !- Vertex 3 Ycoordinate
    9,                        !- Vertex 3 Zcoordinate
    11.5226,                  !- Vertex 4 Xcoordinate
    23.2185,                  !- Vertex 4 Ycoordinate
    12;                       !- Vertex 4 Zcoordinate

BUILDINGSURFACE:DETAILED,
    Block Build_1_Alt0 Storey 3 Wall 0015,    !- Name
    wall,                     !- Surface Type
    Project Wall,             !- Construction Name
    Block Build_1_Alt0 Storey 3,    !- Zone Name
    outdoors,                 !- Outside Boundary Condition
    ,                         !- Outside Boundary Condition Object
    SunExposed,               !- Sun Exposure
    WindExposed,              !- Wind Exposure
    autocalculate,            !- View Factor to Ground
    autocalculate,            !- Number of Vertices
    11.5226,                  !- Vertex 1 Xcoordinate
    23.2185,                  !- Vertex 1 Ycoordinate
    12,                       !- Vertex 1 Zcoordinate
    11.5226,                  !- Vertex 2 Xcoordinate
    23.2185,                  !- Vertex 2 Ycoordinate
    9,                        !- Vertex 2 Zcoordinate
    18.2236,                  !- Vertex 3 Xcoordinate
    15.4375,                  !- Vertex 3 Ycoordinate
    9,                        !- Vertex 3 Zcoordinate
    18.2236,                  !- Vertex 4 Xcoordinate
    15.4375,                  !- Vertex 4 Ycoordinate
    12;                       !- Vertex 4 Zcoordinate

BUILDINGSURFACE:DETAILED,
    Block Build_1_Alt0 Storey 4 Wall 0001,    !- Name
    wall,                     !- Surface Type
    Project Wall,             !- Construction Name
    Block Build_1_Alt0 Storey 4,    !- Zone Name
    outdoors,                 !- Outside Boundary Condition
    ,                         !- Outside Boundary Condition Object
    SunExposed,               !- Sun Exposure
    WindExposed,              !- Wind Exposure
    autocalculate,            !- View Factor to Ground
    autocalculate,            !- Number of Vertices
    -8.3084,                  !- Vertex 1 Xcoordinate
    -7.3555,                  !- Vertex 1 Ycoordinate
    15,                       !- Vertex 1 Zcoordinate
    -8.3084,                  !- Vertex 2 Xcoordinate
    -7.3555,                  !- Vertex 2 Ycoordinate
    12,                       !- Vertex 2 Zcoordinate
    -2.1904,                  !- Vertex 3 Xcoordinate
    -14.4245,                 !- Vertex 3 Ycoordinate
    12,                       !- Vertex 3 Zcoordinate
    -2.1904,                  !- Vertex 4 Xcoordinate
    -14.4245,                 !- Vertex 4 Ycoordinate
    15;                       !- Vertex 4 Zcoordinate

BUILDINGSURFACE:DETAILED,
    Block Build_1_Alt0 Storey 4 Wall 0002,    !- Name
    wall,                     !- Surface Type
    Project Wall,             !- Construction Name
    Block Build_1_Alt0 Storey 4,    !- Zone Name
    outdoors,                 !- Outside Boundary Condition
    ,                         !- Outside Boundary Condition Object
    SunExposed,               !- Sun Exposure
    WindExposed,              !- Wind Exposure
    autocalculate,            !- View Factor to Ground
    autocalculate,            !- Number of Vertices
    -2.1904,                  !- Vertex 1 Xcoordinate
    -14.4245,                 !- Vertex 1 Ycoordinate
    15,                       !- Vertex 1 Zcoordinate
    -2.1904,                  !- Vertex 2 Xcoordinate
    -14.4245,                 !- Vertex 2 Ycoordinate
    12,                       !- Vertex 2 Zcoordinate
    5.7206,                   !- Vertex 3 Xcoordinate
    -7.6585,                  !- Vertex 3 Ycoordinate
    12,                       !- Vertex 3 Zcoordinate
    5.7206,                   !- Vertex 4 Xcoordinate
    -7.6585,                  !- Vertex 4 Ycoordinate
    15;                       !- Vertex 4 Zcoordinate

BUILDINGSURFACE:DETAILED,
    Block Build_1_Alt0 Storey 4 Wall 0003,    !- Name
    wall,                     !- Surface Type
    Project Wall,             !- Construction Name
    Block Build_1_Alt0 Storey 4,    !- Zone Name
    outdoors,                 !- Outside Boundary Condition
    ,                         !- Outside Boundary Condition Object
    SunExposed,               !- Sun Exposure
    WindExposed,              !- Wind Exposure
    autocalculate,            !- View Factor to Ground
    autocalculate,            !- Number of Vertices
    5.7206,                   !- Vertex 1 Xcoordinate
    -7.6585,                  !- Vertex 1 Ycoordinate
    15,                       !- Vertex 1 Zcoordinate
    5.7206,                   !- Vertex 2 Xcoordinate
    -7.6585,                  !- Vertex 2 Ycoordinate
    12,                       !- Vertex 2 Zcoordinate
    8.2786,                   !- Vertex 3 Xcoordinate
    -10.7355,                 !- Vertex 3 Ycoordinate
    12,                       !- Vertex 3 Zcoordinate
    8.2786,                   !- Vertex 4 Xcoordinate
    -10.7355,                 !- Vertex 4 Ycoordinate
    15;                       !- Vertex 4 Zcoordinate

BUILDINGSURFACE:DETAILED,
    Block Build_1_Alt0 Storey 4 Wall 0004,    !- Name
    wall,                     !- Surface Type
    Project Wall,             !- Construction Name
    Block Build_1_Alt0 Storey 4,    !- Zone Name
    outdoors,                 !- Outside Boundary Condition
    ,                         !- Outside Boundary Condition Object
    SunExposed,               !- Sun Exposure
    WindExposed,              !- Wind Exposure
    autocalculate,            !- View Factor to Ground
    autocalculate,            !- Number of Vertices
    8.2786,                   !- Vertex 1 Xcoordinate
    -10.7355,                 !- Vertex 1 Ycoordinate
    15,                       !- Vertex 1 Zcoordinate
    8.2786,                   !- Vertex 2 Xcoordinate
    -10.7355,                 !- Vertex 2 Ycoordinate
    12,                       !- Vertex 2 Zcoordinate
    13.3636,                  !- Vertex 3 Xcoordinate
    -6.3885,                  !- Vertex 3 Ycoordinate
    12,                       !- Vertex 3 Zcoordinate
    13.3636,                  !- Vertex 4 Xcoordinate
    -6.3885,                  !- Vertex 4 Ycoordinate
    15;                       !- Vertex 4 Zcoordinate

BUILDINGSURFACE:DETAILED,
    Block Build_1_Alt0 Storey 4 Wall 0005,    !- Name
    wall,                     !- Surface Type
    Project Wall,             !- Construction Name
    Block Build_1_Alt0 Storey 4,    !- Zone Name
    outdoors,                 !- Outside Boundary Condition
    ,                         !- Outside Boundary Condition Object
    SunExposed,               !- Sun Exposure
    WindExposed,              !- Wind Exposure
    autocalculate,            !- View Factor to Ground
    autocalculate,            !- Number of Vertices
    13.3636,                  !- Vertex 1 Xcoordinate
    -6.3885,                  !- Vertex 1 Ycoordinate
    15,                       !- Vertex 1 Zcoordinate
    13.3636,                  !- Vertex 2 Xcoordinate
    -6.3885,                  !- Vertex 2 Ycoordinate
    12,                       !- Vertex 2 Zcoordinate
    10.8056,                  !- Vertex 3 Xcoordinate
    -3.3115,                  !- Vertex 3 Ycoordinate
    12,                       !- Vertex 3 Zcoordinate
    10.8056,                  !- Vertex 4 Xcoordinate
    -3.3115,                  !- Vertex 4 Ycoordinate
    15;                       !- Vertex 4 Zcoordinate

BUILDINGSURFACE:DETAILED,
    Block Build_1_Alt0 Storey 4 Wall 0006,    !- Name
    wall,                     !- Surface Type
    Project Wall,             !- Construction Name
    Block Build_1_Alt0 Storey 4,    !- Zone Name
    outdoors,                 !- Outside Boundary Condition
    ,                         !- Outside Boundary Condition Object
    SunExposed,               !- Sun Exposure
    WindExposed,              !- Wind Exposure
    autocalculate,            !- View Factor to Ground
    autocalculate,            !- Number of Vertices
    10.8056,                  !- Vertex 1 Xcoordinate
    -3.3115,                  !- Vertex 1 Ycoordinate
    15,                       !- Vertex 1 Zcoordinate
    10.8056,                  !- Vertex 2 Xcoordinate
    -3.3115,                  !- Vertex 2 Ycoordinate
    12,                       !- Vertex 2 Zcoordinate
    21.0126,                  !- Vertex 3 Xcoordinate
    5.4765,                   !- Vertex 3 Ycoordinate
    12,                       !- Vertex 3 Zcoordinate
    21.0126,                  !- Vertex 4 Xcoordinate
    5.4765,                   !- Vertex 4 Ycoordinate
    15;                       !- Vertex 4 Zcoordinate

BUILDINGSURFACE:DETAILED,
    Block Build_1_Alt0 Storey 4 Wall 0007,    !- Name
    wall,                     !- Surface Type
    Project Wall,             !- Construction Name
    Block Build_1_Alt0 Storey 4,    !- Zone Name
    outdoors,                 !- Outside Boundary Condition
    ,                         !- Outside Boundary Condition Object
    SunExposed,               !- Sun Exposure
    WindExposed,              !- Wind Exposure
    autocalculate,            !- View Factor to Ground
    autocalculate,            !- Number of Vertices
    21.0126,                  !- Vertex 1 Xcoordinate
    5.4765,                   !- Vertex 1 Ycoordinate
    15,                       !- Vertex 1 Zcoordinate
    21.0126,                  !- Vertex 2 Xcoordinate
    5.4765,                   !- Vertex 2 Ycoordinate
    12,                       !- Vertex 2 Zcoordinate
    23.6056,                  !- Vertex 3 Xcoordinate
    2.4315,                   !- Vertex 3 Ycoordinate
    12,                       !- Vertex 3 Zcoordinate
    23.6056,                  !- Vertex 4 Xcoordinate
    2.4315,                   !- Vertex 4 Ycoordinate
    15;                       !- Vertex 4 Zcoordinate

BUILDINGSURFACE:DETAILED,
    Block Build_1_Alt0 Storey 4 Wall 0008,    !- Name
    wall,                     !- Surface Type
    Project Wall,             !- Construction Name
    Block Build_1_Alt0 Storey 4,    !- Zone Name
    outdoors,                 !- Outside Boundary Condition
    ,                         !- Outside Boundary Condition Object
    SunExposed,               !- Sun Exposure
    WindExposed,              !- Wind Exposure
    autocalculate,            !- View Factor to Ground
    autocalculate,            !- Number of Vertices
    23.6056,                  !- Vertex 1 Xcoordinate
    2.4315,                   !- Vertex 1 Ycoordinate
    15,                       !- Vertex 1 Zcoordinate
    23.6056,                  !- Vertex 2 Xcoordinate
    2.4315,                   !- Vertex 2 Ycoordinate
    12,                       !- Vertex 2 Zcoordinate
    28.6906,                  !- Vertex 3 Xcoordinate
    6.8015,                   !- Vertex 3 Ycoordinate
    12,                       !- Vertex 3 Zcoordinate
    28.6906,                  !- Vertex 4 Xcoordinate
    6.8015,                   !- Vertex 4 Ycoordinate
    15;                       !- Vertex 4 Zcoordinate

BUILDINGSURFACE:DETAILED,
    Block Build_1_Alt0 Storey 4 Wall 0009,    !- Name
    wall,                     !- Surface Type
    Project Wall,             !- Construction Name
    Block Build_1_Alt0 Storey 4,    !- Zone Name
    outdoors,                 !- Outside Boundary Condition
    ,                         !- Outside Boundary Condition Object
    SunExposed,               !- Sun Exposure
    WindExposed,              !- Wind Exposure
    autocalculate,            !- View Factor to Ground
    autocalculate,            !- Number of Vertices
    28.6906,                  !- Vertex 1 Xcoordinate
    6.8015,                   !- Vertex 1 Ycoordinate
    15,                       !- Vertex 1 Zcoordinate
    28.6906,                  !- Vertex 2 Xcoordinate
    6.8015,                   !- Vertex 2 Ycoordinate
    12,                       !- Vertex 2 Zcoordinate
    26.0736,                  !- Vertex 3 Xcoordinate
    9.8265,                   !- Vertex 3 Ycoordinate
    12,                       !- Vertex 3 Zcoordinate
    26.0736,                  !- Vertex 4 Xcoordinate
    9.8265,                   !- Vertex 4 Ycoordinate
    15;                       !- Vertex 4 Zcoordinate

BUILDINGSURFACE:DETAILED,
    Block Build_1_Alt0 Storey 4 Wall 0010,    !- Name
    wall,                     !- Surface Type
    Project Wall,             !- Construction Name
    Block Build_1_Alt0 Storey 4,    !- Zone Name
    outdoors,                 !- Outside Boundary Condition
    ,                         !- Outside Boundary Condition Object
    SunExposed,               !- Sun Exposure
    WindExposed,              !- Wind Exposure
    autocalculate,            !- View Factor to Ground
    autocalculate,            !- Number of Vertices
    26.0736,                  !- Vertex 1 Xcoordinate
    9.8265,                   !- Vertex 1 Ycoordinate
    15,                       !- Vertex 1 Zcoordinate
    26.0736,                  !- Vertex 2 Xcoordinate
    9.8265,                   !- Vertex 2 Ycoordinate
    12,                       !- Vertex 2 Zcoordinate
    35.0206,                  !- Vertex 3 Xcoordinate
    17.5205,                  !- Vertex 3 Ycoordinate
    12,                       !- Vertex 3 Zcoordinate
    35.0206,                  !- Vertex 4 Xcoordinate
    17.5205,                  !- Vertex 4 Ycoordinate
    15;                       !- Vertex 4 Zcoordinate

BUILDINGSURFACE:DETAILED,
    Block Build_1_Alt0 Storey 4 Wall 0011,    !- Name
    wall,                     !- Surface Type
    Project Wall,             !- Construction Name
    Block Build_1_Alt0 Storey 4,    !- Zone Name
    outdoors,                 !- Outside Boundary Condition
    ,                         !- Outside Boundary Condition Object
    SunExposed,               !- Sun Exposure
    WindExposed,              !- Wind Exposure
    autocalculate,            !- View Factor to Ground
    autocalculate,            !- Number of Vertices
    35.0206,                  !- Vertex 1 Xcoordinate
    17.5205,                  !- Vertex 1 Ycoordinate
    15,                       !- Vertex 1 Zcoordinate
    35.0206,                  !- Vertex 2 Xcoordinate
    17.5205,                  !- Vertex 2 Ycoordinate
    12,                       !- Vertex 2 Zcoordinate
    28.8976,                  !- Vertex 3 Xcoordinate
    24.6325,                  !- Vertex 3 Ycoordinate
    12,                       !- Vertex 3 Zcoordinate
    28.8976,                  !- Vertex 4 Xcoordinate
    24.6325,                  !- Vertex 4 Ycoordinate
    15;                       !- Vertex 4 Zcoordinate

BUILDINGSURFACE:DETAILED,
    Block Build_1_Alt0 Storey 4 Wall 0012,    !- Name
    wall,                     !- Surface Type
    Project Wall,             !- Construction Name
    Block Build_1_Alt0 Storey 4,    !- Zone Name
    outdoors,                 !- Outside Boundary Condition
    ,                         !- Outside Boundary Condition Object
    SunExposed,               !- Sun Exposure
    WindExposed,              !- Wind Exposure
    autocalculate,            !- View Factor to Ground
    autocalculate,            !- Number of Vertices
    28.8976,                  !- Vertex 1 Xcoordinate
    24.6325,                  !- Vertex 1 Ycoordinate
    15,                       !- Vertex 1 Zcoordinate
    28.8976,                  !- Vertex 2 Xcoordinate
    24.6325,                  !- Vertex 2 Ycoordinate
    12,                       !- Vertex 2 Zcoordinate
    25.8646,                  !- Vertex 3 Xcoordinate
    22.0255,                  !- Vertex 3 Ycoordinate
    12,                       !- Vertex 3 Zcoordinate
    25.8646,                  !- Vertex 4 Xcoordinate
    22.0255,                  !- Vertex 4 Ycoordinate
    15;                       !- Vertex 4 Zcoordinate

BUILDINGSURFACE:DETAILED,
    Block Build_1_Alt0 Storey 4 Wall 0013,    !- Name
    wall,                     !- Surface Type
    Project Wall,             !- Construction Name
    Block Build_1_Alt0 Storey 4,    !- Zone Name
    outdoors,                 !- Outside Boundary Condition
    ,                         !- Outside Boundary Condition Object
    SunExposed,               !- Sun Exposure
    WindExposed,              !- Wind Exposure
    autocalculate,            !- View Factor to Ground
    autocalculate,            !- Number of Vertices
    25.8646,                  !- Vertex 1 Xcoordinate
    22.0255,                  !- Vertex 1 Ycoordinate
    15,                       !- Vertex 1 Zcoordinate
    25.8646,                  !- Vertex 2 Xcoordinate
    22.0255,                  !- Vertex 2 Ycoordinate
    12,                       !- Vertex 2 Zcoordinate
    19.1906,                  !- Vertex 3 Xcoordinate
    29.7785,                  !- Vertex 3 Ycoordinate
    12,                       !- Vertex 3 Zcoordinate
    19.1906,                  !- Vertex 4 Xcoordinate
    29.7785,                  !- Vertex 4 Ycoordinate
    15;                       !- Vertex 4 Zcoordinate

BUILDINGSURFACE:DETAILED,
    Block Build_1_Alt0 Storey 4 Wall 0014,    !- Name
    wall,                     !- Surface Type
    Project Wall,             !- Construction Name
    Block Build_1_Alt0 Storey 4,    !- Zone Name
    outdoors,                 !- Outside Boundary Condition
    ,                         !- Outside Boundary Condition Object
    SunExposed,               !- Sun Exposure
    WindExposed,              !- Wind Exposure
    autocalculate,            !- View Factor to Ground
    autocalculate,            !- Number of Vertices
    19.1906,                  !- Vertex 1 Xcoordinate
    29.7785,                  !- Vertex 1 Ycoordinate
    15,                       !- Vertex 1 Zcoordinate
    19.1906,                  !- Vertex 2 Xcoordinate
    29.7785,                  !- Vertex 2 Ycoordinate
    12,                       !- Vertex 2 Zcoordinate
    11.5226,                  !- Vertex 3 Xcoordinate
    23.2185,                  !- Vertex 3 Ycoordinate
    12,                       !- Vertex 3 Zcoordinate
    11.5226,                  !- Vertex 4 Xcoordinate
    23.2185,                  !- Vertex 4 Ycoordinate
    15;                       !- Vertex 4 Zcoordinate

BUILDINGSURFACE:DETAILED,
    Block Build_1_Alt0 Storey 4 Wall 0015,    !- Name
    wall,                     !- Surface Type
    Project Wall,             !- Construction Name
    Block Build_1_Alt0 Storey 4,    !- Zone Name
    outdoors,                 !- Outside Boundary Condition
    ,                         !- Outside Boundary Condition Object
    SunExposed,               !- Sun Exposure
    WindExposed,              !- Wind Exposure
    autocalculate,            !- View Factor to Ground
    autocalculate,            !- Number of Vertices
    11.5226,                  !- Vertex 1 Xcoordinate
    23.2185,                  !- Vertex 1 Ycoordinate
    15,                       !- Vertex 1 Zcoordinate
    11.5226,                  !- Vertex 2 Xcoordinate
    23.2185,                  !- Vertex 2 Ycoordinate
    12,                       !- Vertex 2 Zcoordinate
    18.2236,                  !- Vertex 3 Xcoordinate
    15.4375,                  !- Vertex 3 Ycoordinate
    12,                       !- Vertex 3 Zcoordinate
    18.2236,                  !- Vertex 4 Xcoordinate
    15.4375,                  !- Vertex 4 Ycoordinate
    15;                       !- Vertex 4 Zcoordinate

BUILDINGSURFACE:DETAILED,
    Block Build_1_Alt0 Storey 4 Wall 0016,    !- Name
    wall,                     !- Surface Type
    Project Wall,             !- Construction Name
    Block Build_1_Alt0 Storey 4,    !- Zone Name
    outdoors,                 !- Outside Boundary Condition
    ,                         !- Outside Boundary Condition Object
    SunExposed,               !- Sun Exposure
    WindExposed,              !- Wind Exposure
    autocalculate,            !- View Factor to Ground
    autocalculate,            !- Number of Vertices
    18.2236,                  !- Vertex 1 Xcoordinate
    15.4375,                  !- Vertex 1 Ycoordinate
    15,                       !- Vertex 1 Zcoordinate
    18.2236,                  !- Vertex 2 Xcoordinate
    15.4375,                  !- Vertex 2 Ycoordinate
    12,                       !- Vertex 2 Zcoordinate
    -8.3084,                  !- Vertex 3 Xcoordinate
    -7.3555,                  !- Vertex 3 Ycoordinate
    12,                       !- Vertex 3 Zcoordinate
    -8.3084,                  !- Vertex 4 Xcoordinate
    -7.3555,                  !- Vertex 4 Ycoordinate
    15;                       !- Vertex 4 Zcoordinate

BUILDINGSURFACE:DETAILED,
    Block Build_0_Alt0 Storey -1 Wall 0004_1,    !- Name
    wall,                     !- Surface Type
    Project Partition,        !- Construction Name
    Block Build_0_Alt0 Storey -1,    !- Zone Name
    surface,                  !- Outside Boundary Condition
    Block Build_1_Alt0 Storey -1 Wall 0016_1,    !- Outside Boundary Condition Object
    NoSun,                    !- Sun Exposure
    NoWind,                   !- Wind Exposure
    autocalculate,            !- View Factor to Ground
    autocalculate,            !- Number of Vertices
    -5.274399999994785,       !- Vertex 1 Xcoordinate
    -4.748999999995519,       !- Vertex 1 Ycoordinate
    0,                        !- Vertex 1 Zcoordinate
    -5.274399999994785,       !- Vertex 2 Xcoordinate
    -4.748999999995519,       !- Vertex 2 Ycoordinate
    -2.5,                     !- Vertex 2 Zcoordinate
    1.3001999999396503,       !- Vertex 3 Xcoordinate
    0.8989999999481569,       !- Vertex 3 Ycoordinate
    -2.5,                     !- Vertex 3 Zcoordinate
    1.3001999999396503,       !- Vertex 4 Xcoordinate
    0.8989999999481569,       !- Vertex 4 Ycoordinate
    0;                        !- Vertex 4 Zcoordinate

BUILDINGSURFACE:DETAILED,
    Block Build_1_Alt0 Storey -1 Wall 0016_1,    !- Name
    wall,                     !- Surface Type
    Project Partition,        !- Construction Name
    Block Build_1_Alt0 Storey -1,    !- Zone Name
    surface,                  !- Outside Boundary Condition
    Block Build_0_Alt0 Storey -1 Wall 0004_1,    !- Outside Boundary Condition Object
    NoSun,                    !- Sun Exposure
    NoWind,                   !- Wind Exposure
    autocalculate,            !- View Factor to Ground
    autocalculate,            !- Number of Vertices
    1.3001999999396503,       !- Vertex 1 Xcoordinate
    0.89901604849331,         !- Vertex 1 Ycoordinate
    0,                        !- Vertex 1 Zcoordinate
    1.3001999999396503,       !- Vertex 2 Xcoordinate
    0.89901604849331,         !- Vertex 2 Ycoordinate
    -2.5,                     !- Vertex 2 Zcoordinate
    -5.274399999994785,       !- Vertex 3 Xcoordinate
    -4.749063922805709,       !- Vertex 3 Ycoordinate
    -2.5,                     !- Vertex 3 Zcoordinate
    -5.274399999994785,       !- Vertex 4 Xcoordinate
    -4.749063922805709,       !- Vertex 4 Ycoordinate
    0;                        !- Vertex 4 Zcoordinate

BUILDINGSURFACE:DETAILED,
    Block Build_1_Alt0 Storey -1 Wall 0016_2,    !- Name
    wall,                     !- Surface Type
    Project Basement Wall,    !- Construction Name
    Block Build_1_Alt0 Storey -1,    !- Zone Name
    ground,                   !- Outside Boundary Condition
    ,                         !- Outside Boundary Condition Object
    NoSun,                    !- Sun Exposure
    NoWind,                   !- Wind Exposure
    autocalculate,            !- View Factor to Ground
    autocalculate,            !- Number of Vertices
    -5.274399999994785,       !- Vertex 1 Xcoordinate
    -4.749063922805709,       !- Vertex 1 Ycoordinate
    0,                        !- Vertex 1 Zcoordinate
    -5.274399999994785,       !- Vertex 2 Xcoordinate
    -4.749063922805709,       !- Vertex 2 Ycoordinate
    -2.5,                     !- Vertex 2 Zcoordinate
    -8.308399999979883,       !- Vertex 3 Xcoordinate
    -7.355499999982716,       !- Vertex 3 Ycoordinate
    -2.5,                     !- Vertex 3 Zcoordinate
    -8.308399999979883,       !- Vertex 4 Xcoordinate
    -7.355499999982716,       !- Vertex 4 Ycoordinate
    0;                        !- Vertex 4 Zcoordinate

BUILDINGSURFACE:DETAILED,
    Block Build_1_Alt0 Storey -1 Wall 0016_3,    !- Name
    wall,                     !- Surface Type
    Project Basement Wall,    !- Construction Name
    Block Build_1_Alt0 Storey -1,    !- Zone Name
    ground,                   !- Outside Boundary Condition
    ,                         !- Outside Boundary Condition Object
    NoSun,                    !- Sun Exposure
    NoWind,                   !- Wind Exposure
    autocalculate,            !- View Factor to Ground
    autocalculate,            !- Number of Vertices
    18.22359999967739,        !- Vertex 1 Xcoordinate
    15.437499999722856,       !- Vertex 1 Ycoordinate
    0,                        !- Vertex 1 Zcoordinate
    18.22359999967739,        !- Vertex 2 Xcoordinate
    15.437499999722856,       !- Vertex 2 Ycoordinate
    -2.5,                     !- Vertex 2 Zcoordinate
    1.3001999999396503,       !- Vertex 3 Xcoordinate
    0.89901604849331,         !- Vertex 3 Ycoordinate
    -2.5,                     !- Vertex 3 Zcoordinate
    1.3001999999396503,       !- Vertex 4 Xcoordinate
    0.89901604849331,         !- Vertex 4 Ycoordinate
    0;                        !- Vertex 4 Zcoordinate

BUILDINGSURFACE:DETAILED,
    Block Build_0_Alt0 Storey -1 Ceiling 0001_1,    !- Name
    ceiling,                  !- Surface Type
    Project Ceiling,          !- Construction Name
    Block Build_0_Alt0 Storey -1,    !- Zone Name
    surface,                  !- Outside Boundary Condition
    Block Build_0_Alt0 Storey 0 Floor 0001_1,    !- Outside Boundary Condition Object
    NoSun,                    !- Sun Exposure
    NoWind,                   !- Wind Exposure
    autocalculate,            !- View Factor to Ground
    autocalculate,            !- Number of Vertices
    1.3001999999396503,       !- Vertex 1 Xcoordinate
    0.898999999742955,        !- Vertex 1 Ycoordinate
    0,                        !- Vertex 1 Zcoordinate
    -5.154399999883026,       !- Vertex 2 Xcoordinate
    8.40349999954924,         !- Vertex 2 Ycoordinate
    0,                        !- Vertex 2 Zcoordinate
    -11.7494,                 !- Vertex 3 Xcoordinate
    2.7334999996237457,       !- Vertex 3 Ycoordinate
    0,                        !- Vertex 3 Zcoordinate
    -5.274399999994785,       !- Vertex 4 Xcoordinate
    -4.748999999836087,       !- Vertex 4 Ycoordinate
    0;                        !- Vertex 4 Zcoordinate

BUILDINGSURFACE:DETAILED,
    Block Build_0_Alt0 Storey 0 Floor 0001_1,    !- Name
    floor,                    !- Surface Type
    Project Floor,            !- Construction Name
    Block Build_0_Alt0 Storey 0,    !- Zone Name
    surface,                  !- Outside Boundary Condition
    Block Build_0_Alt0 Storey -1 Ceiling 0001_1,    !- Outside Boundary Condition Object
    NoSun,                    !- Sun Exposure
    NoWind,                   !- Wind Exposure
    autocalculate,            !- View Factor to Ground
    autocalculate,            !- Number of Vertices
    -5.154399999883026,       !- Vertex 1 Xcoordinate
    8.40349999954924,         !- Vertex 1 Ycoordinate
    0,                        !- Vertex 1 Zcoordinate
    1.3001999999396503,       !- Vertex 2 Xcoordinate
    0.898999999742955,        !- Vertex 2 Ycoordinate
    0,                        !- Vertex 2 Zcoordinate
    -5.274399999994785,       !- Vertex 3 Xcoordinate
    -4.748999999836087,       !- Vertex 3 Ycoordinate
    0,                        !- Vertex 3 Zcoordinate
    -11.7494,                 !- Vertex 4 Xcoordinate
    2.7334999996237457,       !- Vertex 4 Ycoordinate
    0;                        !- Vertex 4 Zcoordinate

BUILDINGSURFACE:DETAILED,
    Block Build_0_Alt0 Storey 0 Wall 0004_1,    !- Name
    wall,                     !- Surface Type
    Project Partition,        !- Construction Name
    Block Build_0_Alt0 Storey 0,    !- Zone Name
    surface,                  !- Outside Boundary Condition
    Block Build_1_Alt0 Storey 0 Wall 0016_1,    !- Outside Boundary Condition Object
    NoSun,                    !- Sun Exposure
    NoWind,                   !- Wind Exposure
    autocalculate,            !- View Factor to Ground
    autocalculate,            !- Number of Vertices
    -5.274399999994785,       !- Vertex 1 Xcoordinate
    -4.748999999995518,       !- Vertex 1 Ycoordinate
    3,                        !- Vertex 1 Zcoordinate
    -5.274399999994785,       !- Vertex 2 Xcoordinate
    -4.748999999995518,       !- Vertex 2 Ycoordinate
    0,                        !- Vertex 2 Zcoordinate
    1.3001999999396503,       !- Vertex 3 Xcoordinate
    0.8989999999481563,       !- Vertex 3 Ycoordinate
    0,                        !- Vertex 3 Zcoordinate
    1.3001999999396503,       !- Vertex 4 Xcoordinate
    0.8989999999481563,       !- Vertex 4 Ycoordinate
    3;                        !- Vertex 4 Zcoordinate

BUILDINGSURFACE:DETAILED,
    Block Build_1_Alt0 Storey 0 Wall 0016_1,    !- Name
    wall,                     !- Surface Type
    Project Partition,        !- Construction Name
    Block Build_1_Alt0 Storey 0,    !- Zone Name
    surface,                  !- Outside Boundary Condition
    Block Build_0_Alt0 Storey 0 Wall 0004_1,    !- Outside Boundary Condition Object
    NoSun,                    !- Sun Exposure
    NoWind,                   !- Wind Exposure
    autocalculate,            !- View Factor to Ground
    autocalculate,            !- Number of Vertices
    1.3001999999396503,       !- Vertex 1 Xcoordinate
    0.89901604849331,         !- Vertex 1 Ycoordinate
    3,                        !- Vertex 1 Zcoordinate
    1.3001999999396503,       !- Vertex 2 Xcoordinate
    0.89901604849331,         !- Vertex 2 Ycoordinate
    0,                        !- Vertex 2 Zcoordinate
    -5.274399999994785,       !- Vertex 3 Xcoordinate
    -4.749063922805708,       !- Vertex 3 Ycoordinate
    0,                        !- Vertex 3 Zcoordinate
    -5.274399999994785,       !- Vertex 4 Xcoordinate
    -4.749063922805708,       !- Vertex 4 Ycoordinate
    3;                        !- Vertex 4 Zcoordinate

BUILDINGSURFACE:DETAILED,
    Block Build_1_Alt0 Storey 0 Wall 0016_2,    !- Name
    wall,                     !- Surface Type
    Project Wall,             !- Construction Name
    Block Build_1_Alt0 Storey 0,    !- Zone Name
    outdoors,                 !- Outside Boundary Condition
    ,                         !- Outside Boundary Condition Object
    SunExposed,               !- Sun Exposure
    WindExposed,              !- Wind Exposure
    autocalculate,            !- View Factor to Ground
    autocalculate,            !- Number of Vertices
    -5.274399999994785,       !- Vertex 1 Xcoordinate
    -4.749063922805708,       !- Vertex 1 Ycoordinate
    3,                        !- Vertex 1 Zcoordinate
    -5.274399999994785,       !- Vertex 2 Xcoordinate
    -4.749063922805708,       !- Vertex 2 Ycoordinate
    0,                        !- Vertex 2 Zcoordinate
    -8.308399999979883,       !- Vertex 3 Xcoordinate
    -7.355499999982715,       !- Vertex 3 Ycoordinate
    0,                        !- Vertex 3 Zcoordinate
    -8.308399999979883,       !- Vertex 4 Xcoordinate
    -7.355499999982715,       !- Vertex 4 Ycoordinate
    3;                        !- Vertex 4 Zcoordinate

BUILDINGSURFACE:DETAILED,
    Block Build_1_Alt0 Storey 0 Wall 0016_3,    !- Name
    wall,                     !- Surface Type
    Project Wall,             !- Construction Name
    Block Build_1_Alt0 Storey 0,    !- Zone Name
    outdoors,                 !- Outside Boundary Condition
    ,                         !- Outside Boundary Condition Object
    SunExposed,               !- Sun Exposure
    WindExposed,              !- Wind Exposure
    autocalculate,            !- View Factor to Ground
    autocalculate,            !- Number of Vertices
    18.22359999967739,        !- Vertex 1 Xcoordinate
    15.437499999722851,       !- Vertex 1 Ycoordinate
    3,                        !- Vertex 1 Zcoordinate
    18.22359999967739,        !- Vertex 2 Xcoordinate
    15.437499999722851,       !- Vertex 2 Ycoordinate
    0,                        !- Vertex 2 Zcoordinate
    1.3001999999396503,       !- Vertex 3 Xcoordinate
    0.89901604849331,         !- Vertex 3 Ycoordinate
    0,                        !- Vertex 3 Zcoordinate
    1.3001999999396503,       !- Vertex 4 Xcoordinate
    0.89901604849331,         !- Vertex 4 Ycoordinate
    3;                        !- Vertex 4 Zcoordinate

BUILDINGSURFACE:DETAILED,
    Block Build_0_Alt0 Storey 0 Ceiling 0001_1,    !- Name
    ceiling,                  !- Surface Type
    Project Ceiling,          !- Construction Name
    Block Build_0_Alt0 Storey 0,    !- Zone Name
    surface,                  !- Outside Boundary Condition
    Block Build_0_Alt0 Storey 1 Floor 0001_1,    !- Outside Boundary Condition Object
    NoSun,                    !- Sun Exposure
    NoWind,                   !- Wind Exposure
    autocalculate,            !- View Factor to Ground
    autocalculate,            !- Number of Vertices
    1.3001999999396503,       !- Vertex 1 Xcoordinate
    0.898999999742955,        !- Vertex 1 Ycoordinate
    3,                        !- Vertex 1 Zcoordinate
    -5.154399999883026,       !- Vertex 2 Xcoordinate
    8.40349999954924,         !- Vertex 2 Ycoordinate
    3,                        !- Vertex 2 Zcoordinate
    -11.7494,                 !- Vertex 3 Xcoordinate
    2.7334999996237457,       !- Vertex 3 Ycoordinate
    3,                        !- Vertex 3 Zcoordinate
    -5.274399999994785,       !- Vertex 4 Xcoordinate
    -4.748999999836087,       !- Vertex 4 Ycoordinate
    3;                        !- Vertex 4 Zcoordinate

BUILDINGSURFACE:DETAILED,
    Block Build_0_Alt0 Storey 1 Floor 0001_1,    !- Name
    floor,                    !- Surface Type
    Project Floor,            !- Construction Name
    Block Build_0_Alt0 Storey 1,    !- Zone Name
    surface,                  !- Outside Boundary Condition
    Block Build_0_Alt0 Storey 0 Ceiling 0001_1,    !- Outside Boundary Condition Object
    NoSun,                    !- Sun Exposure
    NoWind,                   !- Wind Exposure
    autocalculate,            !- View Factor to Ground
    autocalculate,            !- Number of Vertices
    -5.154399999883026,       !- Vertex 1 Xcoordinate
    8.40349999954924,         !- Vertex 1 Ycoordinate
    3,                        !- Vertex 1 Zcoordinate
    1.3001999999396503,       !- Vertex 2 Xcoordinate
    0.898999999742955,        !- Vertex 2 Ycoordinate
    3,                        !- Vertex 2 Zcoordinate
    -5.274399999994785,       !- Vertex 3 Xcoordinate
    -4.748999999836087,       !- Vertex 3 Ycoordinate
    3,                        !- Vertex 3 Zcoordinate
    -11.7494,                 !- Vertex 4 Xcoordinate
    2.7334999996237457,       !- Vertex 4 Ycoordinate
    3;                        !- Vertex 4 Zcoordinate

BUILDINGSURFACE:DETAILED,
    Block Build_0_Alt0 Storey 1 Wall 0004_1,    !- Name
    wall,                     !- Surface Type
    Project Partition,        !- Construction Name
    Block Build_0_Alt0 Storey 1,    !- Zone Name
    surface,                  !- Outside Boundary Condition
    Block Build_1_Alt0 Storey 1 Wall 0016_1,    !- Outside Boundary Condition Object
    NoSun,                    !- Sun Exposure
    NoWind,                   !- Wind Exposure
    autocalculate,            !- View Factor to Ground
    autocalculate,            !- Number of Vertices
    -5.274399999994785,       !- Vertex 1 Xcoordinate
    -4.748999999995518,       !- Vertex 1 Ycoordinate
    6,                        !- Vertex 1 Zcoordinate
    -5.274399999994785,       !- Vertex 2 Xcoordinate
    -4.748999999995518,       !- Vertex 2 Ycoordinate
    3,                        !- Vertex 2 Zcoordinate
    1.3001999999396503,       !- Vertex 3 Xcoordinate
    0.8989999999481563,       !- Vertex 3 Ycoordinate
    3,                        !- Vertex 3 Zcoordinate
    1.3001999999396503,       !- Vertex 4 Xcoordinate
    0.8989999999481563,       !- Vertex 4 Ycoordinate
    6;                        !- Vertex 4 Zcoordinate

BUILDINGSURFACE:DETAILED,
    Block Build_1_Alt0 Storey 1 Wall 0016_1,    !- Name
    wall,                     !- Surface Type
    Project Partition,        !- Construction Name
    Block Build_1_Alt0 Storey 1,    !- Zone Name
    surface,                  !- Outside Boundary Condition
    Block Build_0_Alt0 Storey 1 Wall 0004_1,    !- Outside Boundary Condition Object
    NoSun,                    !- Sun Exposure
    NoWind,                   !- Wind Exposure
    autocalculate,            !- View Factor to Ground
    autocalculate,            !- Number of Vertices
    1.3001999999396503,       !- Vertex 1 Xcoordinate
    0.89901604849331,         !- Vertex 1 Ycoordinate
    6,                        !- Vertex 1 Zcoordinate
    1.3001999999396503,       !- Vertex 2 Xcoordinate
    0.89901604849331,         !- Vertex 2 Ycoordinate
    3,                        !- Vertex 2 Zcoordinate
    -5.274399999994785,       !- Vertex 3 Xcoordinate
    -4.749063922805708,       !- Vertex 3 Ycoordinate
    3,                        !- Vertex 3 Zcoordinate
    -5.274399999994785,       !- Vertex 4 Xcoordinate
    -4.749063922805708,       !- Vertex 4 Ycoordinate
    6;                        !- Vertex 4 Zcoordinate

BUILDINGSURFACE:DETAILED,
    Block Build_1_Alt0 Storey 1 Wall 0016_2,    !- Name
    wall,                     !- Surface Type
    Project Wall,             !- Construction Name
    Block Build_1_Alt0 Storey 1,    !- Zone Name
    outdoors,                 !- Outside Boundary Condition
    ,                         !- Outside Boundary Condition Object
    SunExposed,               !- Sun Exposure
    WindExposed,              !- Wind Exposure
    autocalculate,            !- View Factor to Ground
    autocalculate,            !- Number of Vertices
    -5.274399999994785,       !- Vertex 1 Xcoordinate
    -4.749063922805708,       !- Vertex 1 Ycoordinate
    6,                        !- Vertex 1 Zcoordinate
    -5.274399999994785,       !- Vertex 2 Xcoordinate
    -4.749063922805708,       !- Vertex 2 Ycoordinate
    3,                        !- Vertex 2 Zcoordinate
    -8.308399999979883,       !- Vertex 3 Xcoordinate
    -7.355499999982715,       !- Vertex 3 Ycoordinate
    3,                        !- Vertex 3 Zcoordinate
    -8.308399999979883,       !- Vertex 4 Xcoordinate
    -7.355499999982715,       !- Vertex 4 Ycoordinate
    6;                        !- Vertex 4 Zcoordinate

BUILDINGSURFACE:DETAILED,
    Block Build_1_Alt0 Storey 1 Wall 0016_3,    !- Name
    wall,                     !- Surface Type
    Project Wall,             !- Construction Name
    Block Build_1_Alt0 Storey 1,    !- Zone Name
    outdoors,                 !- Outside Boundary Condition
    ,                         !- Outside Boundary Condition Object
    SunExposed,               !- Sun Exposure
    WindExposed,              !- Wind Exposure
    autocalculate,            !- View Factor to Ground
    autocalculate,            !- Number of Vertices
    18.22359999967739,        !- Vertex 1 Xcoordinate
    15.437499999722851,       !- Vertex 1 Ycoordinate
    6,                        !- Vertex 1 Zcoordinate
    18.22359999967739,        !- Vertex 2 Xcoordinate
    15.437499999722851,       !- Vertex 2 Ycoordinate
    3,                        !- Vertex 2 Zcoordinate
    1.3001999999396503,       !- Vertex 3 Xcoordinate
    0.89901604849331,         !- Vertex 3 Ycoordinate
    3,                        !- Vertex 3 Zcoordinate
    1.3001999999396503,       !- Vertex 4 Xcoordinate
    0.89901604849331,         !- Vertex 4 Ycoordinate
    6;                        !- Vertex 4 Zcoordinate

BUILDINGSURFACE:DETAILED,
    Block Build_0_Alt0 Storey 1 Ceiling 0001_1,    !- Name
    ceiling,                  !- Surface Type
    Project Ceiling,          !- Construction Name
    Block Build_0_Alt0 Storey 1,    !- Zone Name
    surface,                  !- Outside Boundary Condition
    Block Build_0_Alt0 Storey 2 Floor 0001_1,    !- Outside Boundary Condition Object
    NoSun,                    !- Sun Exposure
    NoWind,                   !- Wind Exposure
    autocalculate,            !- View Factor to Ground
    autocalculate,            !- Number of Vertices
    1.3001999999396503,       !- Vertex 1 Xcoordinate
    0.898999999742955,        !- Vertex 1 Ycoordinate
    6,                        !- Vertex 1 Zcoordinate
    -5.154399999883026,       !- Vertex 2 Xcoordinate
    8.40349999954924,         !- Vertex 2 Ycoordinate
    6,                        !- Vertex 2 Zcoordinate
    -11.7494,                 !- Vertex 3 Xcoordinate
    2.7334999996237457,       !- Vertex 3 Ycoordinate
    6,                        !- Vertex 3 Zcoordinate
    -5.274399999994785,       !- Vertex 4 Xcoordinate
    -4.748999999836087,       !- Vertex 4 Ycoordinate
    6;                        !- Vertex 4 Zcoordinate

BUILDINGSURFACE:DETAILED,
    Block Build_0_Alt0 Storey 2 Floor 0001_1,    !- Name
    floor,                    !- Surface Type
    Project Floor,            !- Construction Name
    Block Build_0_Alt0 Storey 2,    !- Zone Name
    surface,                  !- Outside Boundary Condition
    Block Build_0_Alt0 Storey 1 Ceiling 0001_1,    !- Outside Boundary Condition Object
    NoSun,                    !- Sun Exposure
    NoWind,                   !- Wind Exposure
    autocalculate,            !- View Factor to Ground
    autocalculate,            !- Number of Vertices
    -5.154399999883026,       !- Vertex 1 Xcoordinate
    8.40349999954924,         !- Vertex 1 Ycoordinate
    6,                        !- Vertex 1 Zcoordinate
    1.3001999999396503,       !- Vertex 2 Xcoordinate
    0.898999999742955,        !- Vertex 2 Ycoordinate
    6,                        !- Vertex 2 Zcoordinate
    -5.274399999994785,       !- Vertex 3 Xcoordinate
    -4.748999999836087,       !- Vertex 3 Ycoordinate
    6,                        !- Vertex 3 Zcoordinate
    -11.7494,                 !- Vertex 4 Xcoordinate
    2.7334999996237457,       !- Vertex 4 Ycoordinate
    6;                        !- Vertex 4 Zcoordinate

BUILDINGSURFACE:DETAILED,
    Block Build_0_Alt0 Storey 2 Wall 0004_1,    !- Name
    wall,                     !- Surface Type
    Project Partition,        !- Construction Name
    Block Build_0_Alt0 Storey 2,    !- Zone Name
    surface,                  !- Outside Boundary Condition
    Block Build_1_Alt0 Storey 2 Wall 0016_1,    !- Outside Boundary Condition Object
    NoSun,                    !- Sun Exposure
    NoWind,                   !- Wind Exposure
    autocalculate,            !- View Factor to Ground
    autocalculate,            !- Number of Vertices
    -5.274399999994785,       !- Vertex 1 Xcoordinate
    -4.748999999995518,       !- Vertex 1 Ycoordinate
    9,                        !- Vertex 1 Zcoordinate
    -5.274399999994785,       !- Vertex 2 Xcoordinate
    -4.748999999995518,       !- Vertex 2 Ycoordinate
    6,                        !- Vertex 2 Zcoordinate
    1.3001999999396503,       !- Vertex 3 Xcoordinate
    0.8989999999481555,       !- Vertex 3 Ycoordinate
    6,                        !- Vertex 3 Zcoordinate
    1.3001999999396503,       !- Vertex 4 Xcoordinate
    0.8989999999481555,       !- Vertex 4 Ycoordinate
    9;                        !- Vertex 4 Zcoordinate

BUILDINGSURFACE:DETAILED,
    Block Build_1_Alt0 Storey 2 Wall 0016_1,    !- Name
    wall,                     !- Surface Type
    Project Partition,        !- Construction Name
    Block Build_1_Alt0 Storey 2,    !- Zone Name
    surface,                  !- Outside Boundary Condition
    Block Build_0_Alt0 Storey 2 Wall 0004_1,    !- Outside Boundary Condition Object
    NoSun,                    !- Sun Exposure
    NoWind,                   !- Wind Exposure
    autocalculate,            !- View Factor to Ground
    autocalculate,            !- Number of Vertices
    1.3001999999396503,       !- Vertex 1 Xcoordinate
    0.8990160484933034,       !- Vertex 1 Ycoordinate
    9,                        !- Vertex 1 Zcoordinate
    1.3001999999396503,       !- Vertex 2 Xcoordinate
    0.8990160484933034,       !- Vertex 2 Ycoordinate
    6,                        !- Vertex 2 Zcoordinate
    -5.274399999994785,       !- Vertex 3 Xcoordinate
    -4.749063922805715,       !- Vertex 3 Ycoordinate
    6,                        !- Vertex 3 Zcoordinate
    -5.274399999994785,       !- Vertex 4 Xcoordinate
    -4.749063922805715,       !- Vertex 4 Ycoordinate
    9;                        !- Vertex 4 Zcoordinate

BUILDINGSURFACE:DETAILED,
    Block Build_1_Alt0 Storey 2 Wall 0016_2,    !- Name
    wall,                     !- Surface Type
    Project Wall,             !- Construction Name
    Block Build_1_Alt0 Storey 2,    !- Zone Name
    outdoors,                 !- Outside Boundary Condition
    ,                         !- Outside Boundary Condition Object
    SunExposed,               !- Sun Exposure
    WindExposed,              !- Wind Exposure
    autocalculate,            !- View Factor to Ground
    autocalculate,            !- Number of Vertices
    -5.274399999994785,       !- Vertex 1 Xcoordinate
    -4.749063922805715,       !- Vertex 1 Ycoordinate
    9,                        !- Vertex 1 Zcoordinate
    -5.274399999994785,       !- Vertex 2 Xcoordinate
    -4.749063922805715,       !- Vertex 2 Ycoordinate
    6,                        !- Vertex 2 Zcoordinate
    -8.308399999979883,       !- Vertex 3 Xcoordinate
    -7.355499999982723,       !- Vertex 3 Ycoordinate
    6,                        !- Vertex 3 Zcoordinate
    -8.308399999979883,       !- Vertex 4 Xcoordinate
    -7.355499999982723,       !- Vertex 4 Ycoordinate
    9;                        !- Vertex 4 Zcoordinate

BUILDINGSURFACE:DETAILED,
    Block Build_1_Alt0 Storey 2 Wall 0016_3,    !- Name
    wall,                     !- Surface Type
    Project Wall,             !- Construction Name
    Block Build_1_Alt0 Storey 2,    !- Zone Name
    outdoors,                 !- Outside Boundary Condition
    ,                         !- Outside Boundary Condition Object
    SunExposed,               !- Sun Exposure
    WindExposed,              !- Wind Exposure
    autocalculate,            !- View Factor to Ground
    autocalculate,            !- Number of Vertices
    18.22359999967739,        !- Vertex 1 Xcoordinate
    15.437499999722847,       !- Vertex 1 Ycoordinate
    9,                        !- Vertex 1 Zcoordinate
    18.22359999967739,        !- Vertex 2 Xcoordinate
    15.437499999722847,       !- Vertex 2 Ycoordinate
    6,                        !- Vertex 2 Zcoordinate
    1.3001999999396503,       !- Vertex 3 Xcoordinate
    0.8990160484933034,       !- Vertex 3 Ycoordinate
    6,                        !- Vertex 3 Zcoordinate
    1.3001999999396503,       !- Vertex 4 Xcoordinate
    0.8990160484933034,       !- Vertex 4 Ycoordinate
    9;                        !- Vertex 4 Zcoordinate

BUILDINGSURFACE:DETAILED,
    Block Build_0_Alt0 Storey 2 Ceiling 0001_1,    !- Name
    ceiling,                  !- Surface Type
    Project Ceiling,          !- Construction Name
    Block Build_0_Alt0 Storey 2,    !- Zone Name
    surface,                  !- Outside Boundary Condition
    Block Build_0_Alt0 Storey 3 Floor 0001_1,    !- Outside Boundary Condition Object
    NoSun,                    !- Sun Exposure
    NoWind,                   !- Wind Exposure
    autocalculate,            !- View Factor to Ground
    autocalculate,            !- Number of Vertices
    1.3001999999396503,       !- Vertex 1 Xcoordinate
    0.898999999742955,        !- Vertex 1 Ycoordinate
    9,                        !- Vertex 1 Zcoordinate
    -5.154399999883026,       !- Vertex 2 Xcoordinate
    8.40349999954924,         !- Vertex 2 Ycoordinate
    9,                        !- Vertex 2 Zcoordinate
    -11.7494,                 !- Vertex 3 Xcoordinate
    2.7334999996237457,       !- Vertex 3 Ycoordinate
    9,                        !- Vertex 3 Zcoordinate
    -5.274399999994785,       !- Vertex 4 Xcoordinate
    -4.748999999836087,       !- Vertex 4 Ycoordinate
    9;                        !- Vertex 4 Zcoordinate

BUILDINGSURFACE:DETAILED,
    Block Build_0_Alt0 Storey 3 Floor 0001_1,    !- Name
    floor,                    !- Surface Type
    Project Floor,            !- Construction Name
    Block Build_0_Alt0 Storey 3,    !- Zone Name
    surface,                  !- Outside Boundary Condition
    Block Build_0_Alt0 Storey 2 Ceiling 0001_1,    !- Outside Boundary Condition Object
    NoSun,                    !- Sun Exposure
    NoWind,                   !- Wind Exposure
    autocalculate,            !- View Factor to Ground
    autocalculate,            !- Number of Vertices
    -5.154399999883026,       !- Vertex 1 Xcoordinate
    8.40349999954924,         !- Vertex 1 Ycoordinate
    9,                        !- Vertex 1 Zcoordinate
    1.3001999999396503,       !- Vertex 2 Xcoordinate
    0.898999999742955,        !- Vertex 2 Ycoordinate
    9,                        !- Vertex 2 Zcoordinate
    -5.274399999994785,       !- Vertex 3 Xcoordinate
    -4.748999999836087,       !- Vertex 3 Ycoordinate
    9,                        !- Vertex 3 Zcoordinate
    -11.7494,                 !- Vertex 4 Xcoordinate
    2.7334999996237457,       !- Vertex 4 Ycoordinate
    9;                        !- Vertex 4 Zcoordinate

BUILDINGSURFACE:DETAILED,
    Block Build_0_Alt0 Storey 3 Wall 0004_1,    !- Name
    wall,                     !- Surface Type
    Project Partition,        !- Construction Name
    Block Build_0_Alt0 Storey 3,    !- Zone Name
    surface,                  !- Outside Boundary Condition
    Block Build_1_Alt0 Storey 3 Wall 0016_1,    !- Outside Boundary Condition Object
    NoSun,                    !- Sun Exposure
    NoWind,                   !- Wind Exposure
    autocalculate,            !- View Factor to Ground
    autocalculate,            !- Number of Vertices
    -5.274399999994785,       !- Vertex 1 Xcoordinate
    -4.748999999995519,       !- Vertex 1 Ycoordinate
    12,                       !- Vertex 1 Zcoordinate
    -5.274399999994785,       !- Vertex 2 Xcoordinate
    -4.748999999995519,       !- Vertex 2 Ycoordinate
    9,                        !- Vertex 2 Zcoordinate
    1.3001999999396503,       !- Vertex 3 Xcoordinate
    0.8989999999481569,       !- Vertex 3 Ycoordinate
    9,                        !- Vertex 3 Zcoordinate
    1.3001999999396503,       !- Vertex 4 Xcoordinate
    0.8989999999481569,       !- Vertex 4 Ycoordinate
    12;                       !- Vertex 4 Zcoordinate

BUILDINGSURFACE:DETAILED,
    Block Build_1_Alt0 Storey 3 Wall 0016_1,    !- Name
    wall,                     !- Surface Type
    Project Partition,        !- Construction Name
    Block Build_1_Alt0 Storey 3,    !- Zone Name
    surface,                  !- Outside Boundary Condition
    Block Build_0_Alt0 Storey 3 Wall 0004_1,    !- Outside Boundary Condition Object
    NoSun,                    !- Sun Exposure
    NoWind,                   !- Wind Exposure
    autocalculate,            !- View Factor to Ground
    autocalculate,            !- Number of Vertices
    1.3001999999396503,       !- Vertex 1 Xcoordinate
    0.8990160484933143,       !- Vertex 1 Ycoordinate
    12,                       !- Vertex 1 Zcoordinate
    1.3001999999396503,       !- Vertex 2 Xcoordinate
    0.8990160484933143,       !- Vertex 2 Ycoordinate
    9,                        !- Vertex 2 Zcoordinate
    -5.274399999994785,       !- Vertex 3 Xcoordinate
    -4.7490639228057,         !- Vertex 3 Ycoordinate
    9,                        !- Vertex 3 Zcoordinate
    -5.274399999994785,       !- Vertex 4 Xcoordinate
    -4.7490639228057,         !- Vertex 4 Ycoordinate
    12;                       !- Vertex 4 Zcoordinate

BUILDINGSURFACE:DETAILED,
    Block Build_1_Alt0 Storey 3 Wall 0016_2,    !- Name
    wall,                     !- Surface Type
    Project Wall,             !- Construction Name
    Block Build_1_Alt0 Storey 3,    !- Zone Name
    outdoors,                 !- Outside Boundary Condition
    ,                         !- Outside Boundary Condition Object
    SunExposed,               !- Sun Exposure
    WindExposed,              !- Wind Exposure
    autocalculate,            !- View Factor to Ground
    autocalculate,            !- Number of Vertices
    -5.274399999994785,       !- Vertex 1 Xcoordinate
    -4.7490639228057,         !- Vertex 1 Ycoordinate
    12,                       !- Vertex 1 Zcoordinate
    -5.274399999994785,       !- Vertex 2 Xcoordinate
    -4.7490639228057,         !- Vertex 2 Ycoordinate
    9,                        !- Vertex 2 Zcoordinate
    -8.308399999979883,       !- Vertex 3 Xcoordinate
    -7.355499999982706,       !- Vertex 3 Ycoordinate
    9,                        !- Vertex 3 Zcoordinate
    -8.308399999979883,       !- Vertex 4 Xcoordinate
    -7.355499999982706,       !- Vertex 4 Ycoordinate
    12;                       !- Vertex 4 Zcoordinate

BUILDINGSURFACE:DETAILED,
    Block Build_1_Alt0 Storey 3 Wall 0016_3,    !- Name
    wall,                     !- Surface Type
    Project Wall,             !- Construction Name
    Block Build_1_Alt0 Storey 3,    !- Zone Name
    outdoors,                 !- Outside Boundary Condition
    ,                         !- Outside Boundary Condition Object
    SunExposed,               !- Sun Exposure
    WindExposed,              !- Wind Exposure
    autocalculate,            !- View Factor to Ground
    autocalculate,            !- Number of Vertices
    18.22359999967739,        !- Vertex 1 Xcoordinate
    15.437499999722847,       !- Vertex 1 Ycoordinate
    12,                       !- Vertex 1 Zcoordinate
    18.22359999967739,        !- Vertex 2 Xcoordinate
    15.437499999722847,       !- Vertex 2 Ycoordinate
    9,                        !- Vertex 2 Zcoordinate
    1.3001999999396503,       !- Vertex 3 Xcoordinate
    0.8990160484933143,       !- Vertex 3 Ycoordinate
    9,                        !- Vertex 3 Zcoordinate
    1.3001999999396503,       !- Vertex 4 Xcoordinate
    0.8990160484933143,       !- Vertex 4 Ycoordinate
    12;                       !- Vertex 4 Zcoordinate

BUILDINGSURFACE:DETAILED,
    Block Build_1_Alt0 Storey -1 Ceiling 0001_1,    !- Name
    ceiling,                  !- Surface Type
    Project Ceiling,          !- Construction Name
    Block Build_1_Alt0 Storey -1,    !- Zone Name
    surface,                  !- Outside Boundary Condition
    Block Build_1_Alt0 Storey 0 Floor 0001_1,    !- Outside Boundary Condition Object
    NoSun,                    !- Sun Exposure
    NoWind,                   !- Wind Exposure
    autocalculate,            !- View Factor to Ground
    autocalculate,            !- Number of Vertices
    23.605599999893457,       !- Vertex 1 Xcoordinate
    2.431499999947846,        !- Vertex 1 Ycoordinate
    0,                        !- Vertex 1 Zcoordinate
    28.690599999856204,       !- Vertex 2 Xcoordinate
    6.801499999593943,        !- Vertex 2 Ycoordinate
    0,                        !- Vertex 2 Zcoordinate
    26.073599999770522,       !- Vertex 3 Xcoordinate
    9.826499999966472,        !- Vertex 3 Ycoordinate
    0,                        !- Vertex 3 Zcoordinate
    35.02059999993071,        !- Vertex 4 Xcoordinate
    17.52049999963492,        !- Vertex 4 Ycoordinate
    0,                        !- Vertex 4 Zcoordinate
    28.897599999792874,       !- Vertex 5 Xcoordinate
    24.632499999832362,       !- Vertex 5 Ycoordinate
    0,                        !- Vertex 5 Zcoordinate
    25.864599999971688,       !- Vertex 6 Xcoordinate
    22.025499999988824,       !- Vertex 6 Ycoordinate
    0,                        !- Vertex 6 Zcoordinate
    19.190599999856204,       !- Vertex 7 Xcoordinate
    29.77849999954924,        !- Vertex 7 Ycoordinate
    0,                        !- Vertex 7 Zcoordinate
    11.522599999792874,       !- Vertex 8 Xcoordinate
    23.218499999959022,       !- Vertex 8 Ycoordinate
    0,                        !- Vertex 8 Zcoordinate
    18.22359999967739,        !- Vertex 9 Xcoordinate
    15.4375,                  !- Vertex 9 Ycoordinate
    0,                        !- Vertex 9 Zcoordinate
    -8.308399999979883,       !- Vertex 10 Xcoordinate
    -7.355499999597669,       !- Vertex 10 Ycoordinate
    0,                        !- Vertex 10 Zcoordinate
    -2.190399999730289,       !- Vertex 11 Xcoordinate
    -14.4245,                 !- Vertex 11 Ycoordinate
    0,                        !- Vertex 11 Zcoordinate
    5.720599999651313,        !- Vertex 12 Xcoordinate
    -7.6585,                  !- Vertex 12 Ycoordinate
    0,                        !- Vertex 12 Zcoordinate
    8.278599999845028,        !- Vertex 13 Xcoordinate
    -10.7355,                 !- Vertex 13 Ycoordinate
    0,                        !- Vertex 13 Zcoordinate
    13.363599999807775,       !- Vertex 14 Xcoordinate
    -6.388499999884516,       !- Vertex 14 Ycoordinate
    0,                        !- Vertex 14 Zcoordinate
    10.80559999961406,        !- Vertex 15 Xcoordinate
    -3.3115,                  !- Vertex 15 Ycoordinate
    0,                        !- Vertex 15 Zcoordinate
    21.01259999955073,        !- Vertex 16 Xcoordinate
    5.47649999987334,         !- Vertex 16 Ycoordinate
    0;                        !- Vertex 16 Zcoordinate

BUILDINGSURFACE:DETAILED,
    Block Build_1_Alt0 Storey 0 Floor 0001_1,    !- Name
    floor,                    !- Surface Type
    Project Floor,            !- Construction Name
    Block Build_1_Alt0 Storey 0,    !- Zone Name
    surface,                  !- Outside Boundary Condition
    Block Build_1_Alt0 Storey -1 Ceiling 0001_1,    !- Outside Boundary Condition Object
    NoSun,                    !- Sun Exposure
    NoWind,                   !- Wind Exposure
    autocalculate,            !- View Factor to Ground
    autocalculate,            !- Number of Vertices
    28.897599999792874,       !- Vertex 1 Xcoordinate
    24.632499999832362,       !- Vertex 1 Ycoordinate
    0,                        !- Vertex 1 Zcoordinate
    35.02059999993071,        !- Vertex 2 Xcoordinate
    17.52049999963492,        !- Vertex 2 Ycoordinate
    0,                        !- Vertex 2 Zcoordinate
    26.073599999770522,       !- Vertex 3 Xcoordinate
    9.826499999966472,        !- Vertex 3 Ycoordinate
    0,                        !- Vertex 3 Zcoordinate
    28.690599999856204,       !- Vertex 4 Xcoordinate
    6.801499999593943,        !- Vertex 4 Ycoordinate
    0,                        !- Vertex 4 Zcoordinate
    23.605599999893457,       !- Vertex 5 Xcoordinate
    2.431499999947846,        !- Vertex 5 Ycoordinate
    0,                        !- Vertex 5 Zcoordinate
    21.01259999955073,        !- Vertex 6 Xcoordinate
    5.47649999987334,         !- Vertex 6 Ycoordinate
    0,                        !- Vertex 6 Zcoordinate
    10.80559999961406,        !- Vertex 7 Xcoordinate
    -3.3115,                  !- Vertex 7 Ycoordinate
    0,                        !- Vertex 7 Zcoordinate
    13.363599999807775,       !- Vertex 8 Xcoordinate
    -6.388499999884516,       !- Vertex 8 Ycoordinate
    0,                        !- Vertex 8 Zcoordinate
    8.278599999845028,        !- Vertex 9 Xcoordinate
    -10.7355,                 !- Vertex 9 Ycoordinate
    0,                        !- Vertex 9 Zcoordinate
    5.720599999651313,        !- Vertex 10 Xcoordinate
    -7.6585,                  !- Vertex 10 Ycoordinate
    0,                        !- Vertex 10 Zcoordinate
    -2.190399999730289,       !- Vertex 11 Xcoordinate
    -14.4245,                 !- Vertex 11 Ycoordinate
    0,                        !- Vertex 11 Zcoordinate
    -8.308399999979883,       !- Vertex 12 Xcoordinate
    -7.355499999597669,       !- Vertex 12 Ycoordinate
    0,                        !- Vertex 12 Zcoordinate
    18.22359999967739,        !- Vertex 13 Xcoordinate
    15.4375,                  !- Vertex 13 Ycoordinate
    0,                        !- Vertex 13 Zcoordinate
    11.522599999792874,       !- Vertex 14 Xcoordinate
    23.218499999959022,       !- Vertex 14 Ycoordinate
    0,                        !- Vertex 14 Zcoordinate
    19.190599999856204,       !- Vertex 15 Xcoordinate
    29.77849999954924,        !- Vertex 15 Ycoordinate
    0,                        !- Vertex 15 Zcoordinate
    25.864599999971688,       !- Vertex 16 Xcoordinate
    22.025499999988824,       !- Vertex 16 Ycoordinate
    0;                        !- Vertex 16 Zcoordinate

BUILDINGSURFACE:DETAILED,
    Block Build_1_Alt0 Storey 0 Ceiling 0001_1,    !- Name
    ceiling,                  !- Surface Type
    Project Ceiling,          !- Construction Name
    Block Build_1_Alt0 Storey 0,    !- Zone Name
    surface,                  !- Outside Boundary Condition
    Block Build_1_Alt0 Storey 1 Floor 0001_1,    !- Outside Boundary Condition Object
    NoSun,                    !- Sun Exposure
    NoWind,                   !- Wind Exposure
    autocalculate,            !- View Factor to Ground
    autocalculate,            !- Number of Vertices
    23.605599999893457,       !- Vertex 1 Xcoordinate
    2.431499999947846,        !- Vertex 1 Ycoordinate
    2.9999999999999996,       !- Vertex 1 Zcoordinate
    28.690599999856204,       !- Vertex 2 Xcoordinate
    6.801499999593943,        !- Vertex 2 Ycoordinate
    2.9999999999999996,       !- Vertex 2 Zcoordinate
    26.073599999770522,       !- Vertex 3 Xcoordinate
    9.826499999966472,        !- Vertex 3 Ycoordinate
    2.9999999999999996,       !- Vertex 3 Zcoordinate
    35.02059999993071,        !- Vertex 4 Xcoordinate
    17.52049999963492,        !- Vertex 4 Ycoordinate
    3,                        !- Vertex 4 Zcoordinate
    28.897599999792874,       !- Vertex 5 Xcoordinate
    24.632499999832362,       !- Vertex 5 Ycoordinate
    2.9999999999999996,       !- Vertex 5 Zcoordinate
    25.864599999971688,       !- Vertex 6 Xcoordinate
    22.025499999988824,       !- Vertex 6 Ycoordinate
    2.9999999999999996,       !- Vertex 6 Zcoordinate
    19.190599999856204,       !- Vertex 7 Xcoordinate
    29.77849999954924,        !- Vertex 7 Ycoordinate
    2.9999999999999996,       !- Vertex 7 Zcoordinate
    11.522599999792874,       !- Vertex 8 Xcoordinate
    23.218499999959022,       !- Vertex 8 Ycoordinate
    2.9999999999999996,       !- Vertex 8 Zcoordinate
    18.22359999967739,        !- Vertex 9 Xcoordinate
    15.4375,                  !- Vertex 9 Ycoordinate
    2.9999999999999996,       !- Vertex 9 Zcoordinate
    -8.308399999979883,       !- Vertex 10 Xcoordinate
    -7.355499999597669,       !- Vertex 10 Ycoordinate
    2.999999999999999,        !- Vertex 10 Zcoordinate
    -2.190399999730289,       !- Vertex 11 Xcoordinate
    -14.4245,                 !- Vertex 11 Ycoordinate
    2.999999999999999,        !- Vertex 11 Zcoordinate
    5.720599999651313,        !- Vertex 12 Xcoordinate
    -7.6585,                  !- Vertex 12 Ycoordinate
    2.999999999999999,        !- Vertex 12 Zcoordinate
    8.278599999845028,        !- Vertex 13 Xcoordinate
    -10.7355,                 !- Vertex 13 Ycoordinate
    2.999999999999999,        !- Vertex 13 Zcoordinate
    13.363599999807775,       !- Vertex 14 Xcoordinate
    -6.388499999884516,       !- Vertex 14 Ycoordinate
    2.9999999999999996,       !- Vertex 14 Zcoordinate
    10.80559999961406,        !- Vertex 15 Xcoordinate
    -3.3115,                  !- Vertex 15 Ycoordinate
    2.9999999999999996,       !- Vertex 15 Zcoordinate
    21.01259999955073,        !- Vertex 16 Xcoordinate
    5.47649999987334,         !- Vertex 16 Ycoordinate
    2.9999999999999996;       !- Vertex 16 Zcoordinate

BUILDINGSURFACE:DETAILED,
    Block Build_1_Alt0 Storey 1 Floor 0001_1,    !- Name
    floor,                    !- Surface Type
    Project Floor,            !- Construction Name
    Block Build_1_Alt0 Storey 1,    !- Zone Name
    surface,                  !- Outside Boundary Condition
    Block Build_1_Alt0 Storey 0 Ceiling 0001_1,    !- Outside Boundary Condition Object
    NoSun,                    !- Sun Exposure
    NoWind,                   !- Wind Exposure
    autocalculate,            !- View Factor to Ground
    autocalculate,            !- Number of Vertices
    28.897599999792874,       !- Vertex 1 Xcoordinate
    24.632499999832362,       !- Vertex 1 Ycoordinate
    3.000000000000001,        !- Vertex 1 Zcoordinate
    35.02059999993071,        !- Vertex 2 Xcoordinate
    17.52049999963492,        !- Vertex 2 Ycoordinate
    3.000000000000001,        !- Vertex 2 Zcoordinate
    26.073599999770522,       !- Vertex 3 Xcoordinate
    9.826499999966472,        !- Vertex 3 Ycoordinate
    3.0000000000000004,       !- Vertex 3 Zcoordinate
    28.690599999856204,       !- Vertex 4 Xcoordinate
    6.801499999593943,        !- Vertex 4 Ycoordinate
    3.000000000000001,        !- Vertex 4 Zcoordinate
    23.605599999893457,       !- Vertex 5 Xcoordinate
    2.431499999947846,        !- Vertex 5 Ycoordinate
    3.0000000000000004,       !- Vertex 5 Zcoordinate
    21.01259999955073,        !- Vertex 6 Xcoordinate
    5.47649999987334,         !- Vertex 6 Ycoordinate
    3.0000000000000004,       !- Vertex 6 Zcoordinate
    10.80559999961406,        !- Vertex 7 Xcoordinate
    -3.3115,                  !- Vertex 7 Ycoordinate
    3,                        !- Vertex 7 Zcoordinate
    13.363599999807775,       !- Vertex 8 Xcoordinate
    -6.388499999884516,       !- Vertex 8 Ycoordinate
    3,                        !- Vertex 8 Zcoordinate
    8.278599999845028,        !- Vertex 9 Xcoordinate
    -10.7355,                 !- Vertex 9 Ycoordinate
    3,                        !- Vertex 9 Zcoordinate
    5.720599999651313,        !- Vertex 10 Xcoordinate
    -7.6585,                  !- Vertex 10 Ycoordinate
    3,                        !- Vertex 10 Zcoordinate
    -2.190399999730289,       !- Vertex 11 Xcoordinate
    -14.4245,                 !- Vertex 11 Ycoordinate
    2.9999999999999996,       !- Vertex 11 Zcoordinate
    -8.308399999979883,       !- Vertex 12 Xcoordinate
    -7.355499999597669,       !- Vertex 12 Ycoordinate
    2.999999999999999,        !- Vertex 12 Zcoordinate
    18.22359999967739,        !- Vertex 13 Xcoordinate
    15.4375,                  !- Vertex 13 Ycoordinate
    3.0000000000000004,       !- Vertex 13 Zcoordinate
    11.522599999792874,       !- Vertex 14 Xcoordinate
    23.218499999959022,       !- Vertex 14 Ycoordinate
    3,                        !- Vertex 14 Zcoordinate
    19.190599999856204,       !- Vertex 15 Xcoordinate
    29.77849999954924,        !- Vertex 15 Ycoordinate
    3.0000000000000004,       !- Vertex 15 Zcoordinate
    25.864599999971688,       !- Vertex 16 Xcoordinate
    22.025499999988824,       !- Vertex 16 Ycoordinate
    3.0000000000000004;       !- Vertex 16 Zcoordinate

BUILDINGSURFACE:DETAILED,
    Block Build_1_Alt0 Storey 1 Ceiling 0001_1,    !- Name
    ceiling,                  !- Surface Type
    Project Ceiling,          !- Construction Name
    Block Build_1_Alt0 Storey 1,    !- Zone Name
    surface,                  !- Outside Boundary Condition
    Block Build_1_Alt0 Storey 2 Floor 0001_1,    !- Outside Boundary Condition Object
    NoSun,                    !- Sun Exposure
    NoWind,                   !- Wind Exposure
    autocalculate,            !- View Factor to Ground
    autocalculate,            !- Number of Vertices
    23.605599999893457,       !- Vertex 1 Xcoordinate
    2.431499999947846,        !- Vertex 1 Ycoordinate
    5.999999999999999,        !- Vertex 1 Zcoordinate
    28.690599999856204,       !- Vertex 2 Xcoordinate
    6.801499999593943,        !- Vertex 2 Ycoordinate
    5.999999999999999,        !- Vertex 2 Zcoordinate
    26.073599999770522,       !- Vertex 3 Xcoordinate
    9.826499999966472,        !- Vertex 3 Ycoordinate
    5.999999999999999,        !- Vertex 3 Zcoordinate
    35.02059999993071,        !- Vertex 4 Xcoordinate
    17.52049999963492,        !- Vertex 4 Ycoordinate
    6,                        !- Vertex 4 Zcoordinate
    28.897599999792874,       !- Vertex 5 Xcoordinate
    24.632499999832362,       !- Vertex 5 Ycoordinate
    5.999999999999999,        !- Vertex 5 Zcoordinate
    25.864599999971688,       !- Vertex 6 Xcoordinate
    22.025499999988824,       !- Vertex 6 Ycoordinate
    5.999999999999999,        !- Vertex 6 Zcoordinate
    19.190599999856204,       !- Vertex 7 Xcoordinate
    29.77849999954924,        !- Vertex 7 Ycoordinate
    5.999999999999999,        !- Vertex 7 Zcoordinate
    11.522599999792874,       !- Vertex 8 Xcoordinate
    23.218499999959022,       !- Vertex 8 Ycoordinate
    5.999999999999999,        !- Vertex 8 Zcoordinate
    18.22359999967739,        !- Vertex 9 Xcoordinate
    15.4375,                  !- Vertex 9 Ycoordinate
    5.999999999999999,        !- Vertex 9 Zcoordinate
    -8.308399999979883,       !- Vertex 10 Xcoordinate
    -7.355499999597669,       !- Vertex 10 Ycoordinate
    5.999999999999998,        !- Vertex 10 Zcoordinate
    -2.190399999730289,       !- Vertex 11 Xcoordinate
    -14.4245,                 !- Vertex 11 Ycoordinate
    5.999999999999998,        !- Vertex 11 Zcoordinate
    5.720599999651313,        !- Vertex 12 Xcoordinate
    -7.6585,                  !- Vertex 12 Ycoordinate
    5.999999999999998,        !- Vertex 12 Zcoordinate
    8.278599999845028,        !- Vertex 13 Xcoordinate
    -10.7355,                 !- Vertex 13 Ycoordinate
    5.999999999999998,        !- Vertex 13 Zcoordinate
    13.363599999807775,       !- Vertex 14 Xcoordinate
    -6.388499999884516,       !- Vertex 14 Ycoordinate
    5.999999999999999,        !- Vertex 14 Zcoordinate
    10.80559999961406,        !- Vertex 15 Xcoordinate
    -3.3115,                  !- Vertex 15 Ycoordinate
    5.999999999999999,        !- Vertex 15 Zcoordinate
    21.01259999955073,        !- Vertex 16 Xcoordinate
    5.47649999987334,         !- Vertex 16 Ycoordinate
    5.999999999999999;        !- Vertex 16 Zcoordinate

BUILDINGSURFACE:DETAILED,
    Block Build_1_Alt0 Storey 2 Floor 0001_1,    !- Name
    floor,                    !- Surface Type
    Project Floor,            !- Construction Name
    Block Build_1_Alt0 Storey 2,    !- Zone Name
    surface,                  !- Outside Boundary Condition
    Block Build_1_Alt0 Storey 1 Ceiling 0001_1,    !- Outside Boundary Condition Object
    NoSun,                    !- Sun Exposure
    NoWind,                   !- Wind Exposure
    autocalculate,            !- View Factor to Ground
    autocalculate,            !- Number of Vertices
    28.897599999792874,       !- Vertex 1 Xcoordinate
    24.632499999832362,       !- Vertex 1 Ycoordinate
    6.000000000000002,        !- Vertex 1 Zcoordinate
    35.02059999993071,        !- Vertex 2 Xcoordinate
    17.52049999963492,        !- Vertex 2 Ycoordinate
    6.000000000000002,        !- Vertex 2 Zcoordinate
    26.073599999770522,       !- Vertex 3 Xcoordinate
    9.826499999966472,        !- Vertex 3 Ycoordinate
    6.000000000000001,        !- Vertex 3 Zcoordinate
    28.690599999856204,       !- Vertex 4 Xcoordinate
    6.801499999593943,        !- Vertex 4 Ycoordinate
    6.000000000000002,        !- Vertex 4 Zcoordinate
    23.605599999893457,       !- Vertex 5 Xcoordinate
    2.431499999947846,        !- Vertex 5 Ycoordinate
    6.000000000000001,        !- Vertex 5 Zcoordinate
    21.01259999955073,        !- Vertex 6 Xcoordinate
    5.47649999987334,         !- Vertex 6 Ycoordinate
    6.000000000000001,        !- Vertex 6 Zcoordinate
    10.80559999961406,        !- Vertex 7 Xcoordinate
    -3.3115,                  !- Vertex 7 Ycoordinate
    6,                        !- Vertex 7 Zcoordinate
    13.363599999807775,       !- Vertex 8 Xcoordinate
    -6.388499999884516,       !- Vertex 8 Ycoordinate
    6,                        !- Vertex 8 Zcoordinate
    8.278599999845028,        !- Vertex 9 Xcoordinate
    -10.7355,                 !- Vertex 9 Ycoordinate
    6,                        !- Vertex 9 Zcoordinate
    5.720599999651313,        !- Vertex 10 Xcoordinate
    -7.6585,                  !- Vertex 10 Ycoordinate
    6,                        !- Vertex 10 Zcoordinate
    -2.190399999730289,       !- Vertex 11 Xcoordinate
    -14.4245,                 !- Vertex 11 Ycoordinate
    5.999999999999999,        !- Vertex 11 Zcoordinate
    -8.308399999979883,       !- Vertex 12 Xcoordinate
    -7.355499999597669,       !- Vertex 12 Ycoordinate
    5.999999999999998,        !- Vertex 12 Zcoordinate
    18.22359999967739,        !- Vertex 13 Xcoordinate
    15.4375,                  !- Vertex 13 Ycoordinate
    6.000000000000001,        !- Vertex 13 Zcoordinate
    11.522599999792874,       !- Vertex 14 Xcoordinate
    23.218499999959022,       !- Vertex 14 Ycoordinate
    6,                        !- Vertex 14 Zcoordinate
    19.190599999856204,       !- Vertex 15 Xcoordinate
    29.77849999954924,        !- Vertex 15 Ycoordinate
    6.000000000000001,        !- Vertex 15 Zcoordinate
    25.864599999971688,       !- Vertex 16 Xcoordinate
    22.025499999988824,       !- Vertex 16 Ycoordinate
    6.000000000000001;        !- Vertex 16 Zcoordinate

BUILDINGSURFACE:DETAILED,
    Block Build_1_Alt0 Storey 2 Ceiling 0001_1,    !- Name
    ceiling,                  !- Surface Type
    Project Ceiling,          !- Construction Name
    Block Build_1_Alt0 Storey 2,    !- Zone Name
    surface,                  !- Outside Boundary Condition
    Block Build_1_Alt0 Storey 3 Floor 0001_1,    !- Outside Boundary Condition Object
    NoSun,                    !- Sun Exposure
    NoWind,                   !- Wind Exposure
    autocalculate,            !- View Factor to Ground
    autocalculate,            !- Number of Vertices
    23.605599999893457,       !- Vertex 1 Xcoordinate
    2.431499999947846,        !- Vertex 1 Ycoordinate
    9,                        !- Vertex 1 Zcoordinate
    28.690599999856204,       !- Vertex 2 Xcoordinate
    6.801499999593943,        !- Vertex 2 Ycoordinate
    9,                        !- Vertex 2 Zcoordinate
    26.073599999770522,       !- Vertex 3 Xcoordinate
    9.826499999966472,        !- Vertex 3 Ycoordinate
    9,                        !- Vertex 3 Zcoordinate
    35.02059999993071,        !- Vertex 4 Xcoordinate
    17.52049999963492,        !- Vertex 4 Ycoordinate
    9,                        !- Vertex 4 Zcoordinate
    28.897599999792874,       !- Vertex 5 Xcoordinate
    24.632499999832362,       !- Vertex 5 Ycoordinate
    9,                        !- Vertex 5 Zcoordinate
    25.864599999971688,       !- Vertex 6 Xcoordinate
    22.025499999988824,       !- Vertex 6 Ycoordinate
    9,                        !- Vertex 6 Zcoordinate
    19.190599999856204,       !- Vertex 7 Xcoordinate
    29.77849999954924,        !- Vertex 7 Ycoordinate
    9,                        !- Vertex 7 Zcoordinate
    11.522599999792874,       !- Vertex 8 Xcoordinate
    23.218499999959022,       !- Vertex 8 Ycoordinate
    9,                        !- Vertex 8 Zcoordinate
    18.22359999967739,        !- Vertex 9 Xcoordinate
    15.4375,                  !- Vertex 9 Ycoordinate
    9,                        !- Vertex 9 Zcoordinate
    -8.308399999979883,       !- Vertex 10 Xcoordinate
    -7.355499999597669,       !- Vertex 10 Ycoordinate
    9,                        !- Vertex 10 Zcoordinate
    -2.190399999730289,       !- Vertex 11 Xcoordinate
    -14.4245,                 !- Vertex 11 Ycoordinate
    9,                        !- Vertex 11 Zcoordinate
    5.720599999651313,        !- Vertex 12 Xcoordinate
    -7.6585,                  !- Vertex 12 Ycoordinate
    9,                        !- Vertex 12 Zcoordinate
    8.278599999845028,        !- Vertex 13 Xcoordinate
    -10.7355,                 !- Vertex 13 Ycoordinate
    9,                        !- Vertex 13 Zcoordinate
    13.363599999807775,       !- Vertex 14 Xcoordinate
    -6.388499999884516,       !- Vertex 14 Ycoordinate
    9,                        !- Vertex 14 Zcoordinate
    10.80559999961406,        !- Vertex 15 Xcoordinate
    -3.3115,                  !- Vertex 15 Ycoordinate
    9,                        !- Vertex 15 Zcoordinate
    21.01259999955073,        !- Vertex 16 Xcoordinate
    5.47649999987334,         !- Vertex 16 Ycoordinate
    9;                        !- Vertex 16 Zcoordinate

BUILDINGSURFACE:DETAILED,
    Block Build_1_Alt0 Storey 3 Floor 0001_1,    !- Name
    floor,                    !- Surface Type
    Project Floor,            !- Construction Name
    Block Build_1_Alt0 Storey 3,    !- Zone Name
    surface,                  !- Outside Boundary Condition
    Block Build_1_Alt0 Storey 2 Ceiling 0001_1,    !- Outside Boundary Condition Object
    NoSun,                    !- Sun Exposure
    NoWind,                   !- Wind Exposure
    autocalculate,            !- View Factor to Ground
    autocalculate,            !- Number of Vertices
    28.897599999792874,       !- Vertex 1 Xcoordinate
    24.632499999832362,       !- Vertex 1 Ycoordinate
    9,                        !- Vertex 1 Zcoordinate
    35.02059999993071,        !- Vertex 2 Xcoordinate
    17.52049999963492,        !- Vertex 2 Ycoordinate
    9,                        !- Vertex 2 Zcoordinate
    26.073599999770522,       !- Vertex 3 Xcoordinate
    9.826499999966472,        !- Vertex 3 Ycoordinate
    9,                        !- Vertex 3 Zcoordinate
    28.690599999856204,       !- Vertex 4 Xcoordinate
    6.801499999593943,        !- Vertex 4 Ycoordinate
    9,                        !- Vertex 4 Zcoordinate
    23.605599999893457,       !- Vertex 5 Xcoordinate
    2.431499999947846,        !- Vertex 5 Ycoordinate
    9,                        !- Vertex 5 Zcoordinate
    21.01259999955073,        !- Vertex 6 Xcoordinate
    5.47649999987334,         !- Vertex 6 Ycoordinate
    9,                        !- Vertex 6 Zcoordinate
    10.80559999961406,        !- Vertex 7 Xcoordinate
    -3.3115,                  !- Vertex 7 Ycoordinate
    9,                        !- Vertex 7 Zcoordinate
    13.363599999807775,       !- Vertex 8 Xcoordinate
    -6.388499999884516,       !- Vertex 8 Ycoordinate
    9,                        !- Vertex 8 Zcoordinate
    8.278599999845028,        !- Vertex 9 Xcoordinate
    -10.7355,                 !- Vertex 9 Ycoordinate
    9,                        !- Vertex 9 Zcoordinate
    5.720599999651313,        !- Vertex 10 Xcoordinate
    -7.6585,                  !- Vertex 10 Ycoordinate
    9,                        !- Vertex 10 Zcoordinate
    -2.190399999730289,       !- Vertex 11 Xcoordinate
    -14.4245,                 !- Vertex 11 Ycoordinate
    9,                        !- Vertex 11 Zcoordinate
    -8.308399999979883,       !- Vertex 12 Xcoordinate
    -7.355499999597669,       !- Vertex 12 Ycoordinate
    9,                        !- Vertex 12 Zcoordinate
    18.22359999967739,        !- Vertex 13 Xcoordinate
    15.4375,                  !- Vertex 13 Ycoordinate
    9,                        !- Vertex 13 Zcoordinate
    11.522599999792874,       !- Vertex 14 Xcoordinate
    23.218499999959022,       !- Vertex 14 Ycoordinate
    9,                        !- Vertex 14 Zcoordinate
    19.190599999856204,       !- Vertex 15 Xcoordinate
    29.77849999954924,        !- Vertex 15 Ycoordinate
    9,                        !- Vertex 15 Zcoordinate
    25.864599999971688,       !- Vertex 16 Xcoordinate
    22.025499999988824,       !- Vertex 16 Ycoordinate
    9;                        !- Vertex 16 Zcoordinate

BUILDINGSURFACE:DETAILED,
    Block Build_1_Alt0 Storey 3 Ceiling 0001_1,    !- Name
    ceiling,                  !- Surface Type
    Project Ceiling,          !- Construction Name
    Block Build_1_Alt0 Storey 3,    !- Zone Name
    surface,                  !- Outside Boundary Condition
    Block Build_1_Alt0 Storey 4 Floor 0001_1,    !- Outside Boundary Condition Object
    NoSun,                    !- Sun Exposure
    NoWind,                   !- Wind Exposure
    autocalculate,            !- View Factor to Ground
    autocalculate,            !- Number of Vertices
    23.605599999893457,       !- Vertex 1 Xcoordinate
    2.431499999947846,        !- Vertex 1 Ycoordinate
    11.999999999999998,       !- Vertex 1 Zcoordinate
    28.690599999856204,       !- Vertex 2 Xcoordinate
    6.801499999593943,        !- Vertex 2 Ycoordinate
    11.999999999999998,       !- Vertex 2 Zcoordinate
    26.073599999770522,       !- Vertex 3 Xcoordinate
    9.826499999966472,        !- Vertex 3 Ycoordinate
    11.999999999999998,       !- Vertex 3 Zcoordinate
    35.02059999993071,        !- Vertex 4 Xcoordinate
    17.52049999963492,        !- Vertex 4 Ycoordinate
    12,                       !- Vertex 4 Zcoordinate
    28.897599999792874,       !- Vertex 5 Xcoordinate
    24.632499999832362,       !- Vertex 5 Ycoordinate
    11.999999999999998,       !- Vertex 5 Zcoordinate
    25.864599999971688,       !- Vertex 6 Xcoordinate
    22.025499999988824,       !- Vertex 6 Ycoordinate
    11.999999999999998,       !- Vertex 6 Zcoordinate
    19.190599999856204,       !- Vertex 7 Xcoordinate
    29.77849999954924,        !- Vertex 7 Ycoordinate
    11.999999999999998,       !- Vertex 7 Zcoordinate
    11.522599999792874,       !- Vertex 8 Xcoordinate
    23.218499999959022,       !- Vertex 8 Ycoordinate
    11.999999999999998,       !- Vertex 8 Zcoordinate
    18.22359999967739,        !- Vertex 9 Xcoordinate
    15.4375,                  !- Vertex 9 Ycoordinate
    11.999999999999998,       !- Vertex 9 Zcoordinate
    -8.308399999979883,       !- Vertex 10 Xcoordinate
    -7.355499999597669,       !- Vertex 10 Ycoordinate
    11.999999999999996,       !- Vertex 10 Zcoordinate
    -2.190399999730289,       !- Vertex 11 Xcoordinate
    -14.4245,                 !- Vertex 11 Ycoordinate
    11.999999999999996,       !- Vertex 11 Zcoordinate
    5.720599999651313,        !- Vertex 12 Xcoordinate
    -7.6585,                  !- Vertex 12 Ycoordinate
    11.999999999999996,       !- Vertex 12 Zcoordinate
    8.278599999845028,        !- Vertex 13 Xcoordinate
    -10.7355,                 !- Vertex 13 Ycoordinate
    11.999999999999996,       !- Vertex 13 Zcoordinate
    13.363599999807775,       !- Vertex 14 Xcoordinate
    -6.388499999884516,       !- Vertex 14 Ycoordinate
    11.999999999999998,       !- Vertex 14 Zcoordinate
    10.80559999961406,        !- Vertex 15 Xcoordinate
    -3.3115,                  !- Vertex 15 Ycoordinate
    11.999999999999998,       !- Vertex 15 Zcoordinate
    21.01259999955073,        !- Vertex 16 Xcoordinate
    5.47649999987334,         !- Vertex 16 Ycoordinate
    11.999999999999998;       !- Vertex 16 Zcoordinate

BUILDINGSURFACE:DETAILED,
    Block Build_1_Alt0 Storey 4 Floor 0001_1,    !- Name
    floor,                    !- Surface Type
    Project Floor,            !- Construction Name
    Block Build_1_Alt0 Storey 4,    !- Zone Name
    surface,                  !- Outside Boundary Condition
    Block Build_1_Alt0 Storey 3 Ceiling 0001_1,    !- Outside Boundary Condition Object
    NoSun,                    !- Sun Exposure
    NoWind,                   !- Wind Exposure
    autocalculate,            !- View Factor to Ground
    autocalculate,            !- Number of Vertices
    28.897599999792874,       !- Vertex 1 Xcoordinate
    24.632499999832362,       !- Vertex 1 Ycoordinate
    12.000000000000004,       !- Vertex 1 Zcoordinate
    35.02059999993071,        !- Vertex 2 Xcoordinate
    17.52049999963492,        !- Vertex 2 Ycoordinate
    12.000000000000004,       !- Vertex 2 Zcoordinate
    26.073599999770522,       !- Vertex 3 Xcoordinate
    9.826499999966472,        !- Vertex 3 Ycoordinate
    12.000000000000002,       !- Vertex 3 Zcoordinate
    28.690599999856204,       !- Vertex 4 Xcoordinate
    6.801499999593943,        !- Vertex 4 Ycoordinate
    12.000000000000004,       !- Vertex 4 Zcoordinate
    23.605599999893457,       !- Vertex 5 Xcoordinate
    2.431499999947846,        !- Vertex 5 Ycoordinate
    12.000000000000002,       !- Vertex 5 Zcoordinate
    21.01259999955073,        !- Vertex 6 Xcoordinate
    5.47649999987334,         !- Vertex 6 Ycoordinate
    12.000000000000002,       !- Vertex 6 Zcoordinate
    10.80559999961406,        !- Vertex 7 Xcoordinate
    -3.3115,                  !- Vertex 7 Ycoordinate
    12,                       !- Vertex 7 Zcoordinate
    13.363599999807775,       !- Vertex 8 Xcoordinate
    -6.388499999884516,       !- Vertex 8 Ycoordinate
    12,                       !- Vertex 8 Zcoordinate
    8.278599999845028,        !- Vertex 9 Xcoordinate
    -10.7355,                 !- Vertex 9 Ycoordinate
    12,                       !- Vertex 9 Zcoordinate
    5.720599999651313,        !- Vertex 10 Xcoordinate
    -7.6585,                  !- Vertex 10 Ycoordinate
    12,                       !- Vertex 10 Zcoordinate
    -2.190399999730289,       !- Vertex 11 Xcoordinate
    -14.4245,                 !- Vertex 11 Ycoordinate
    11.999999999999998,       !- Vertex 11 Zcoordinate
    -8.308399999979883,       !- Vertex 12 Xcoordinate
    -7.355499999597669,       !- Vertex 12 Ycoordinate
    11.999999999999996,       !- Vertex 12 Zcoordinate
    18.22359999967739,        !- Vertex 13 Xcoordinate
    15.4375,                  !- Vertex 13 Ycoordinate
    12.000000000000002,       !- Vertex 13 Zcoordinate
    11.522599999792874,       !- Vertex 14 Xcoordinate
    23.218499999959022,       !- Vertex 14 Ycoordinate
    12,                       !- Vertex 14 Zcoordinate
    19.190599999856204,       !- Vertex 15 Xcoordinate
    29.77849999954924,        !- Vertex 15 Ycoordinate
    12.000000000000002,       !- Vertex 15 Zcoordinate
    25.864599999971688,       !- Vertex 16 Xcoordinate
    22.025499999988824,       !- Vertex 16 Ycoordinate
    12.000000000000002;       !- Vertex 16 Zcoordinate

BUILDINGSURFACE:DETAILED,
    Block Build_1_Alt0 Storey 4 Roof 0001_0,    !- Name
    roof,                     !- Surface Type
    Project Flat Roof,        !- Construction Name
    Block Build_1_Alt0 Storey 4,    !- Zone Name
    outdoors,                 !- Outside Boundary Condition
    ,                         !- Outside Boundary Condition Object
    SunExposed,               !- Sun Exposure
    WindExposed,              !- Wind Exposure
    autocalculate,            !- View Factor to Ground
    autocalculate,            !- Number of Vertices
    10.8056,                  !- Vertex 1 Xcoordinate
    -3.3115,                  !- Vertex 1 Ycoordinate
    15,                       !- Vertex 1 Zcoordinate
    21.0126,                  !- Vertex 2 Xcoordinate
    5.4765,                   !- Vertex 2 Ycoordinate
    15,                       !- Vertex 2 Zcoordinate
    18.2236,                  !- Vertex 3 Xcoordinate
    15.4375,                  !- Vertex 3 Ycoordinate
    15,                       !- Vertex 3 Zcoordinate
    5.7206,                   !- Vertex 4 Xcoordinate
    -7.6585,                  !- Vertex 4 Ycoordinate
    15;                       !- Vertex 4 Zcoordinate

BUILDINGSURFACE:DETAILED,
    Block Build_1_Alt0 Storey 4 Roof 0001_1,    !- Name
    roof,                     !- Surface Type
    Project Flat Roof,        !- Construction Name
    Block Build_1_Alt0 Storey 4,    !- Zone Name
    outdoors,                 !- Outside Boundary Condition
    ,                         !- Outside Boundary Condition Object
    SunExposed,               !- Sun Exposure
    WindExposed,              !- Wind Exposure
    autocalculate,            !- View Factor to Ground
    autocalculate,            !- Number of Vertices
    28.6906,                  !- Vertex 1 Xcoordinate
    6.8015,                   !- Vertex 1 Ycoordinate
    15,                       !- Vertex 1 Zcoordinate
    26.0736,                  !- Vertex 2 Xcoordinate
    9.8265,                   !- Vertex 2 Ycoordinate
    15,                       !- Vertex 2 Zcoordinate
    21.0126,                  !- Vertex 3 Xcoordinate
    5.4765,                   !- Vertex 3 Ycoordinate
    15,                       !- Vertex 3 Zcoordinate
    23.6056,                  !- Vertex 4 Xcoordinate
    2.4315,                   !- Vertex 4 Ycoordinate
    15;                       !- Vertex 4 Zcoordinate

BUILDINGSURFACE:DETAILED,
    Block Build_1_Alt0 Storey 4 Roof 0001_2,    !- Name
    roof,                     !- Surface Type
    Project Flat Roof,        !- Construction Name
    Block Build_1_Alt0 Storey 4,    !- Zone Name
    outdoors,                 !- Outside Boundary Condition
    ,                         !- Outside Boundary Condition Object
    SunExposed,               !- Sun Exposure
    WindExposed,              !- Wind Exposure
    autocalculate,            !- View Factor to Ground
    autocalculate,            !- Number of Vertices
    13.3636,                  !- Vertex 1 Xcoordinate
    -6.3885,                  !- Vertex 1 Ycoordinate
    15,                       !- Vertex 1 Zcoordinate
    10.8056,                  !- Vertex 2 Xcoordinate
    -3.3115,                  !- Vertex 2 Ycoordinate
    15,                       !- Vertex 2 Zcoordinate
    5.7206,                   !- Vertex 3 Xcoordinate
    -7.6585,                  !- Vertex 3 Ycoordinate
    15,                       !- Vertex 3 Zcoordinate
    8.2786,                   !- Vertex 4 Xcoordinate
    -10.7355,                 !- Vertex 4 Ycoordinate
    15;                       !- Vertex 4 Zcoordinate

BUILDINGSURFACE:DETAILED,
    Block Build_1_Alt0 Storey 4 Roof 0001_3,    !- Name
    roof,                     !- Surface Type
    Project Flat Roof,        !- Construction Name
    Block Build_1_Alt0 Storey 4,    !- Zone Name
    outdoors,                 !- Outside Boundary Condition
    ,                         !- Outside Boundary Condition Object
    SunExposed,               !- Sun Exposure
    WindExposed,              !- Wind Exposure
    autocalculate,            !- View Factor to Ground
    autocalculate,            !- Number of Vertices
    5.7206,                   !- Vertex 1 Xcoordinate
    -7.6585,                  !- Vertex 1 Ycoordinate
    15,                       !- Vertex 1 Zcoordinate
    18.2236,                  !- Vertex 2 Xcoordinate
    15.4375,                  !- Vertex 2 Ycoordinate
    15,                       !- Vertex 2 Zcoordinate
    -8.3084,                  !- Vertex 3 Xcoordinate
    -7.3555,                  !- Vertex 3 Ycoordinate
    15,                       !- Vertex 3 Zcoordinate
    -2.1904,                  !- Vertex 4 Xcoordinate
    -14.4245,                 !- Vertex 4 Ycoordinate
    15;                       !- Vertex 4 Zcoordinate

BUILDINGSURFACE:DETAILED,
    Block Build_1_Alt0 Storey 4 Roof 0001_4,    !- Name
    roof,                     !- Surface Type
    Project Flat Roof,        !- Construction Name
    Block Build_1_Alt0 Storey 4,    !- Zone Name
    outdoors,                 !- Outside Boundary Condition
    ,                         !- Outside Boundary Condition Object
    SunExposed,               !- Sun Exposure
    WindExposed,              !- Wind Exposure
    autocalculate,            !- View Factor to Ground
    autocalculate,            !- Number of Vertices
    25.8646,                  !- Vertex 1 Xcoordinate
    22.0255,                  !- Vertex 1 Ycoordinate
    15,                       !- Vertex 1 Zcoordinate
    19.1906,                  !- Vertex 2 Xcoordinate
    29.7785,                  !- Vertex 2 Ycoordinate
    15,                       !- Vertex 2 Zcoordinate
    11.5226,                  !- Vertex 3 Xcoordinate
    23.2185,                  !- Vertex 3 Ycoordinate
    15,                       !- Vertex 3 Zcoordinate
    18.2236,                  !- Vertex 4 Xcoordinate
    15.4375,                  !- Vertex 4 Ycoordinate
    15;                       !- Vertex 4 Zcoordinate

BUILDINGSURFACE:DETAILED,
    Block Build_1_Alt0 Storey 4 Roof 0001_5,    !- Name
    roof,                     !- Surface Type
    Project Flat Roof,        !- Construction Name
    Block Build_1_Alt0 Storey 4,    !- Zone Name
    outdoors,                 !- Outside Boundary Condition
    ,                         !- Outside Boundary Condition Object
    SunExposed,               !- Sun Exposure
    WindExposed,              !- Wind Exposure
    autocalculate,            !- View Factor to Ground
    autocalculate,            !- Number of Vertices
    26.0736,                  !- Vertex 1 Xcoordinate
    9.8265,                   !- Vertex 1 Ycoordinate
    15,                       !- Vertex 1 Zcoordinate
    35.0206,                  !- Vertex 2 Xcoordinate
    17.5205,                  !- Vertex 2 Ycoordinate
    15,                       !- Vertex 2 Zcoordinate
    28.8976,                  !- Vertex 3 Xcoordinate
    24.6325,                  !- Vertex 3 Ycoordinate
    15,                       !- Vertex 3 Zcoordinate
    25.8646,                  !- Vertex 4 Xcoordinate
    22.0255,                  !- Vertex 4 Ycoordinate
    15,                       !- Vertex 4 Zcoordinate
    18.2236,                  !- Vertex 5 Xcoordinate
    15.4375,                  !- Vertex 5 Ycoordinate
    15,                       !- Vertex 5 Zcoordinate
    21.0126,                  !- Vertex 6 Xcoordinate
    5.4765,                   !- Vertex 6 Ycoordinate
    15;                       !- Vertex 6 Zcoordinate

INTERNALMASS,
    Block Build_0_Alt0 Storey -1IntMass,    !- Name
    NonHeatedZoneIntMassObj,    !- Construction Name
    Block Build_0_Alt0 Storey -1,    !- Zone or ZoneList Name
    172;                      !- Surface Area

INTERNALMASS,
    Block Build_1_Alt0 Storey -1IntMass,    !- Name
    NonHeatedZoneIntMassObj,    !- Construction Name
    Block Build_1_Alt0 Storey -1,    !- Zone or ZoneList Name
    1234;                     !- Surface Area

INTERNALMASS,
    Block Build_0_Alt0 Storey 0IntMass,    !- Name
    HeatedZoneIntMassObj,     !- Construction Name
    Block Build_0_Alt0 Storey 0,    !- Zone or ZoneList Name
    172;                      !- Surface Area

INTERNALMASS,
    Block Build_1_Alt0 Storey 0IntMass,    !- Name
    HeatedZoneIntMassObj,     !- Construction Name
    Block Build_1_Alt0 Storey 0,    !- Zone or ZoneList Name
    1234;                     !- Surface Area

INTERNALMASS,
    Block Build_0_Alt0 Storey 1IntMass,    !- Name
    HeatedZoneIntMassObj,     !- Construction Name
    Block Build_0_Alt0 Storey 1,    !- Zone or ZoneList Name
    172;                      !- Surface Area

INTERNALMASS,
    Block Build_1_Alt0 Storey 1IntMass,    !- Name
    HeatedZoneIntMassObj,     !- Construction Name
    Block Build_1_Alt0 Storey 1,    !- Zone or ZoneList Name
    1234;                     !- Surface Area

INTERNALMASS,
    Block Build_0_Alt0 Storey 2IntMass,    !- Name
    HeatedZoneIntMassObj,     !- Construction Name
    Block Build_0_Alt0 Storey 2,    !- Zone or ZoneList Name
    172;                      !- Surface Area

INTERNALMASS,
    Block Build_1_Alt0 Storey 2IntMass,    !- Name
    HeatedZoneIntMassObj,     !- Construction Name
    Block Build_1_Alt0 Storey 2,    !- Zone or ZoneList Name
    1234;                     !- Surface Area

INTERNALMASS,
    Block Build_0_Alt0 Storey 3IntMass,    !- Name
    HeatedZoneIntMassObj,     !- Construction Name
    Block Build_0_Alt0 Storey 3,    !- Zone or ZoneList Name
    172;                      !- Surface Area

INTERNALMASS,
    Block Build_1_Alt0 Storey 3IntMass,    !- Name
    HeatedZoneIntMassObj,     !- Construction Name
    Block Build_1_Alt0 Storey 3,    !- Zone or ZoneList Name
    1234;                     !- Surface Area

INTERNALMASS,
    Block Build_1_Alt0 Storey 4IntMass,    !- Name
    HeatedZoneIntMassObj,     !- Construction Name
    Block Build_1_Alt0 Storey 4,    !- Zone or ZoneList Name
    1234;                     !- Surface Area

PEOPLE,
    Block Build_0_Alt0 Storey 0 Occ,    !- Name
    Block Build_0_Alt0 Storey 0,    !- Zone or ZoneList Name
    OfficeOccuSchedule 1,     !- Number of People Schedule Name
    People,                   !- Number of People Calculation Method
    1,                        !- Number of People
    ,                         !- People per Zone Floor Area
    ,                         !- Zone Floor Area per Person
    0.3,                      !- Fraction Radiant
    autocalculate,            !- Sensible Heat Fraction
    OccupActivity,            !- Activity Level Schedule Name
    3.82e-08,                 !- Carbon Dioxide Generation Rate
    No,                       !- Enable ASHRAE 55 Comfort Warnings
    ZoneAveraged,             !- Mean Radiant Temperature Calculation Type
    ,                         !- Surface NameAngle Factor List Name
    WorkEfficiency,           !- Work Efficiency Schedule Name
    ClothingInsulationSchedule,    !- Clothing Insulation Calculation Method
    ,                         !- Clothing Insulation Calculation Method Schedule Name
    ClothingInsulation,       !- Clothing Insulation Schedule Name
    Airvelocity,              !- Air Velocity Schedule Name
    FANGER;                   !- Thermal Comfort Model 1 Type

PEOPLE,
    Block Build_1_Alt0 Storey 0 Occ,    !- Name
    Block Build_1_Alt0 Storey 0,    !- Zone or ZoneList Name
    OfficeOccuSchedule 6,     !- Number of People Schedule Name
    People,                   !- Number of People Calculation Method
    1,                        !- Number of People
    ,                         !- People per Zone Floor Area
    ,                         !- Zone Floor Area per Person
    0.3,                      !- Fraction Radiant
    autocalculate,            !- Sensible Heat Fraction
    OccupActivity,            !- Activity Level Schedule Name
    3.82e-08,                 !- Carbon Dioxide Generation Rate
    No,                       !- Enable ASHRAE 55 Comfort Warnings
    ZoneAveraged,             !- Mean Radiant Temperature Calculation Type
    ,                         !- Surface NameAngle Factor List Name
    WorkEfficiency,           !- Work Efficiency Schedule Name
    ClothingInsulationSchedule,    !- Clothing Insulation Calculation Method
    ,                         !- Clothing Insulation Calculation Method Schedule Name
    ClothingInsulation,       !- Clothing Insulation Schedule Name
    Airvelocity,              !- Air Velocity Schedule Name
    FANGER;                   !- Thermal Comfort Model 1 Type

PEOPLE,
    Block Build_0_Alt0 Storey 1 Occ,    !- Name
    Block Build_0_Alt0 Storey 1,    !- Zone or ZoneList Name
    OfficeOccuSchedule 2,     !- Number of People Schedule Name
    People,                   !- Number of People Calculation Method
    1,                        !- Number of People
    ,                         !- People per Zone Floor Area
    ,                         !- Zone Floor Area per Person
    0.3,                      !- Fraction Radiant
    autocalculate,            !- Sensible Heat Fraction
    OccupActivity,            !- Activity Level Schedule Name
    3.82e-08,                 !- Carbon Dioxide Generation Rate
    No,                       !- Enable ASHRAE 55 Comfort Warnings
    ZoneAveraged,             !- Mean Radiant Temperature Calculation Type
    ,                         !- Surface NameAngle Factor List Name
    WorkEfficiency,           !- Work Efficiency Schedule Name
    ClothingInsulationSchedule,    !- Clothing Insulation Calculation Method
    ,                         !- Clothing Insulation Calculation Method Schedule Name
    ClothingInsulation,       !- Clothing Insulation Schedule Name
    Airvelocity,              !- Air Velocity Schedule Name
    FANGER;                   !- Thermal Comfort Model 1 Type

PEOPLE,
    Block Build_1_Alt0 Storey 1 Occ,    !- Name
    Block Build_1_Alt0 Storey 1,    !- Zone or ZoneList Name
    OfficeOccuSchedule 7,     !- Number of People Schedule Name
    People,                   !- Number of People Calculation Method
    1,                        !- Number of People
    ,                         !- People per Zone Floor Area
    ,                         !- Zone Floor Area per Person
    0.3,                      !- Fraction Radiant
    autocalculate,            !- Sensible Heat Fraction
    OccupActivity,            !- Activity Level Schedule Name
    3.82e-08,                 !- Carbon Dioxide Generation Rate
    No,                       !- Enable ASHRAE 55 Comfort Warnings
    ZoneAveraged,             !- Mean Radiant Temperature Calculation Type
    ,                         !- Surface NameAngle Factor List Name
    WorkEfficiency,           !- Work Efficiency Schedule Name
    ClothingInsulationSchedule,    !- Clothing Insulation Calculation Method
    ,                         !- Clothing Insulation Calculation Method Schedule Name
    ClothingInsulation,       !- Clothing Insulation Schedule Name
    Airvelocity,              !- Air Velocity Schedule Name
    FANGER;                   !- Thermal Comfort Model 1 Type

PEOPLE,
    Block Build_0_Alt0 Storey 2 Occ,    !- Name
    Block Build_0_Alt0 Storey 2,    !- Zone or ZoneList Name
    OfficeOccuSchedule 3,     !- Number of People Schedule Name
    People,                   !- Number of People Calculation Method
    1,                        !- Number of People
    ,                         !- People per Zone Floor Area
    ,                         !- Zone Floor Area per Person
    0.3,                      !- Fraction Radiant
    autocalculate,            !- Sensible Heat Fraction
    OccupActivity,            !- Activity Level Schedule Name
    3.82e-08,                 !- Carbon Dioxide Generation Rate
    No,                       !- Enable ASHRAE 55 Comfort Warnings
    ZoneAveraged,             !- Mean Radiant Temperature Calculation Type
    ,                         !- Surface NameAngle Factor List Name
    WorkEfficiency,           !- Work Efficiency Schedule Name
    ClothingInsulationSchedule,    !- Clothing Insulation Calculation Method
    ,                         !- Clothing Insulation Calculation Method Schedule Name
    ClothingInsulation,       !- Clothing Insulation Schedule Name
    Airvelocity,              !- Air Velocity Schedule Name
    FANGER;                   !- Thermal Comfort Model 1 Type

PEOPLE,
    Block Build_1_Alt0 Storey 2 Occ,    !- Name
    Block Build_1_Alt0 Storey 2,    !- Zone or ZoneList Name
    OfficeOccuSchedule 8,     !- Number of People Schedule Name
    People,                   !- Number of People Calculation Method
    1,                        !- Number of People
    ,                         !- People per Zone Floor Area
    ,                         !- Zone Floor Area per Person
    0.3,                      !- Fraction Radiant
    autocalculate,            !- Sensible Heat Fraction
    OccupActivity,            !- Activity Level Schedule Name
    3.82e-08,                 !- Carbon Dioxide Generation Rate
    No,                       !- Enable ASHRAE 55 Comfort Warnings
    ZoneAveraged,             !- Mean Radiant Temperature Calculation Type
    ,                         !- Surface NameAngle Factor List Name
    WorkEfficiency,           !- Work Efficiency Schedule Name
    ClothingInsulationSchedule,    !- Clothing Insulation Calculation Method
    ,                         !- Clothing Insulation Calculation Method Schedule Name
    ClothingInsulation,       !- Clothing Insulation Schedule Name
    Airvelocity,              !- Air Velocity Schedule Name
    FANGER;                   !- Thermal Comfort Model 1 Type

PEOPLE,
    Block Build_0_Alt0 Storey 3 Occ,    !- Name
    Block Build_0_Alt0 Storey 3,    !- Zone or ZoneList Name
    ResidentialOccuSchedule 4,    !- Number of People Schedule Name
    People,                   !- Number of People Calculation Method
    1,                        !- Number of People
    ,                         !- People per Zone Floor Area
    ,                         !- Zone Floor Area per Person
    0.3,                      !- Fraction Radiant
    autocalculate,            !- Sensible Heat Fraction
    OccupActivity,            !- Activity Level Schedule Name
    3.82e-08,                 !- Carbon Dioxide Generation Rate
    No,                       !- Enable ASHRAE 55 Comfort Warnings
    ZoneAveraged,             !- Mean Radiant Temperature Calculation Type
    ,                         !- Surface NameAngle Factor List Name
    WorkEfficiency,           !- Work Efficiency Schedule Name
    ClothingInsulationSchedule,    !- Clothing Insulation Calculation Method
    ,                         !- Clothing Insulation Calculation Method Schedule Name
    ClothingInsulation,       !- Clothing Insulation Schedule Name
    Airvelocity,              !- Air Velocity Schedule Name
    FANGER;                   !- Thermal Comfort Model 1 Type

PEOPLE,
    Block Build_1_Alt0 Storey 3 Occ,    !- Name
    Block Build_1_Alt0 Storey 3,    !- Zone or ZoneList Name
    ResidentialOccuSchedule 9,    !- Number of People Schedule Name
    People,                   !- Number of People Calculation Method
    1,                        !- Number of People
    ,                         !- People per Zone Floor Area
    ,                         !- Zone Floor Area per Person
    0.3,                      !- Fraction Radiant
    autocalculate,            !- Sensible Heat Fraction
    OccupActivity,            !- Activity Level Schedule Name
    3.82e-08,                 !- Carbon Dioxide Generation Rate
    No,                       !- Enable ASHRAE 55 Comfort Warnings
    ZoneAveraged,             !- Mean Radiant Temperature Calculation Type
    ,                         !- Surface NameAngle Factor List Name
    WorkEfficiency,           !- Work Efficiency Schedule Name
    ClothingInsulationSchedule,    !- Clothing Insulation Calculation Method
    ,                         !- Clothing Insulation Calculation Method Schedule Name
    ClothingInsulation,       !- Clothing Insulation Schedule Name
    Airvelocity,              !- Air Velocity Schedule Name
    FANGER;                   !- Thermal Comfort Model 1 Type

PEOPLE,
    Block Build_1_Alt0 Storey 4 Occ,    !- Name
    Block Build_1_Alt0 Storey 4,    !- Zone or ZoneList Name
    ResidentialOccuSchedule 10,    !- Number of People Schedule Name
    People,                   !- Number of People Calculation Method
    1,                        !- Number of People
    ,                         !- People per Zone Floor Area
    ,                         !- Zone Floor Area per Person
    0.3,                      !- Fraction Radiant
    autocalculate,            !- Sensible Heat Fraction
    OccupActivity,            !- Activity Level Schedule Name
    3.82e-08,                 !- Carbon Dioxide Generation Rate
    No,                       !- Enable ASHRAE 55 Comfort Warnings
    ZoneAveraged,             !- Mean Radiant Temperature Calculation Type
    ,                         !- Surface NameAngle Factor List Name
    WorkEfficiency,           !- Work Efficiency Schedule Name
    ClothingInsulationSchedule,    !- Clothing Insulation Calculation Method
    ,                         !- Clothing Insulation Calculation Method Schedule Name
    ClothingInsulation,       !- Clothing Insulation Schedule Name
    Airvelocity,              !- Air Velocity Schedule Name
    FANGER;                   !- Thermal Comfort Model 1 Type

ELECTRICEQUIPMENT,
    Block Build_0_Alt0 Storey 0Load,    !- Name
    Block Build_0_Alt0 Storey 0,    !- Zone or ZoneList Name
    LoadSchedule,             !- Schedule Name
    Watts/Area,               !- Design Level Calculation Method
    ,                         !- Design Level
    0.01,                     !- Watts per Zone Floor Area
    ,                         !- Watts per Person
    0,                        !- Fraction Latent
    0,                        !- Fraction Radiant
    0,                        !- Fraction Lost
    General;                  !- EndUse Subcategory

ELECTRICEQUIPMENT,
    Block Build_1_Alt0 Storey 0Load,    !- Name
    Block Build_1_Alt0 Storey 0,    !- Zone or ZoneList Name
    LoadSchedule,             !- Schedule Name
    Watts/Area,               !- Design Level Calculation Method
    ,                         !- Design Level
    0.01,                     !- Watts per Zone Floor Area
    ,                         !- Watts per Person
    0,                        !- Fraction Latent
    0,                        !- Fraction Radiant
    0,                        !- Fraction Lost
    General;                  !- EndUse Subcategory

ELECTRICEQUIPMENT,
    Block Build_0_Alt0 Storey 1Load,    !- Name
    Block Build_0_Alt0 Storey 1,    !- Zone or ZoneList Name
    LoadSchedule,             !- Schedule Name
    Watts/Area,               !- Design Level Calculation Method
    ,                         !- Design Level
    0.01,                     !- Watts per Zone Floor Area
    ,                         !- Watts per Person
    0,                        !- Fraction Latent
    0,                        !- Fraction Radiant
    0,                        !- Fraction Lost
    General;                  !- EndUse Subcategory

ELECTRICEQUIPMENT,
    Block Build_1_Alt0 Storey 1Load,    !- Name
    Block Build_1_Alt0 Storey 1,    !- Zone or ZoneList Name
    LoadSchedule,             !- Schedule Name
    Watts/Area,               !- Design Level Calculation Method
    ,                         !- Design Level
    0.01,                     !- Watts per Zone Floor Area
    ,                         !- Watts per Person
    0,                        !- Fraction Latent
    0,                        !- Fraction Radiant
    0,                        !- Fraction Lost
    General;                  !- EndUse Subcategory

ELECTRICEQUIPMENT,
    Block Build_0_Alt0 Storey 2Load,    !- Name
    Block Build_0_Alt0 Storey 2,    !- Zone or ZoneList Name
    LoadSchedule,             !- Schedule Name
    Watts/Area,               !- Design Level Calculation Method
    ,                         !- Design Level
    0.01,                     !- Watts per Zone Floor Area
    ,                         !- Watts per Person
    0,                        !- Fraction Latent
    0,                        !- Fraction Radiant
    0,                        !- Fraction Lost
    General;                  !- EndUse Subcategory

ELECTRICEQUIPMENT,
    Block Build_1_Alt0 Storey 2Load,    !- Name
    Block Build_1_Alt0 Storey 2,    !- Zone or ZoneList Name
    LoadSchedule,             !- Schedule Name
    Watts/Area,               !- Design Level Calculation Method
    ,                         !- Design Level
    0.01,                     !- Watts per Zone Floor Area
    ,                         !- Watts per Person
    0,                        !- Fraction Latent
    0,                        !- Fraction Radiant
    0,                        !- Fraction Lost
    General;                  !- EndUse Subcategory

ELECTRICEQUIPMENT,
    Block Build_0_Alt0 Storey 3Load,    !- Name
    Block Build_0_Alt0 Storey 3,    !- Zone or ZoneList Name
    LoadSchedule,             !- Schedule Name
    Watts/Area,               !- Design Level Calculation Method
    ,                         !- Design Level
    0.01,                     !- Watts per Zone Floor Area
    ,                         !- Watts per Person
    0,                        !- Fraction Latent
    0,                        !- Fraction Radiant
    0,                        !- Fraction Lost
    General;                  !- EndUse Subcategory

ELECTRICEQUIPMENT,
    Block Build_1_Alt0 Storey 3Load,    !- Name
    Block Build_1_Alt0 Storey 3,    !- Zone or ZoneList Name
    LoadSchedule,             !- Schedule Name
    Watts/Area,               !- Design Level Calculation Method
    ,                         !- Design Level
    0.01,                     !- Watts per Zone Floor Area
    ,                         !- Watts per Person
    0,                        !- Fraction Latent
    0,                        !- Fraction Radiant
    0,                        !- Fraction Lost
    General;                  !- EndUse Subcategory

ELECTRICEQUIPMENT,
    Block Build_1_Alt0 Storey 4Load,    !- Name
    Block Build_1_Alt0 Storey 4,    !- Zone or ZoneList Name
    LoadSchedule,             !- Schedule Name
    Watts/Area,               !- Design Level Calculation Method
    ,                         !- Design Level
    0.01,                     !- Watts per Zone Floor Area
    ,                         !- Watts per Person
    0,                        !- Fraction Latent
    0,                        !- Fraction Radiant
    0,                        !- Fraction Lost
    General;                  !- EndUse Subcategory

ZONEINFILTRATION:DESIGNFLOWRATE,
    Block Build_0_Alt0 Storey -1Leak,    !- Name
    Block Build_0_Alt0 Storey -1,    !- Zone or ZoneList Name
    AlwaysON,                 !- Schedule Name
    AirChanges/Hour,          !- Design Flow Rate Calculation Method
    ,                         !- Design Flow Rate
    ,                         !- Flow per Zone Floor Area
    ,                         !- Flow per Exterior Surface Area
    1,                        !- Air Changes per Hour
    1,                        !- Constant Term Coefficient
    0,                        !- Temperature Term Coefficient
    0,                        !- Velocity Term Coefficient
    0;                        !- Velocity Squared Term Coefficient

ZONEINFILTRATION:DESIGNFLOWRATE,
    Block Build_1_Alt0 Storey -1Leak,    !- Name
    Block Build_1_Alt0 Storey -1,    !- Zone or ZoneList Name
    AlwaysON,                 !- Schedule Name
    AirChanges/Hour,          !- Design Flow Rate Calculation Method
    ,                         !- Design Flow Rate
    ,                         !- Flow per Zone Floor Area
    ,                         !- Flow per Exterior Surface Area
    1,                        !- Air Changes per Hour
    1,                        !- Constant Term Coefficient
    0,                        !- Temperature Term Coefficient
    0,                        !- Velocity Term Coefficient
    0;                        !- Velocity Squared Term Coefficient

ZONEINFILTRATION:FLOWCOEFFICIENT,
    Block Build_0_Alt0 Storey 0Leak,    !- Name
    Block Build_0_Alt0 Storey 0,    !- Zone Name
    AlwaysON,                 !- Schedule Name
    6.289469e-03,             !- Flow Coefficient
    0.107,                    !- Stack Coefficient
    0.667,                    !- Pressure Exponent
    0.167,                    !- Wind Coefficient
    0.61;                     !- Shelter Factor

ZONEINFILTRATION:FLOWCOEFFICIENT,
    Block Build_1_Alt0 Storey 0Leak,    !- Name
    Block Build_1_Alt0 Storey 0,    !- Zone Name
    AlwaysON,                 !- Schedule Name
    3.194508e-02,             !- Flow Coefficient
    0.107,                    !- Stack Coefficient
    0.667,                    !- Pressure Exponent
    0.167,                    !- Wind Coefficient
    0.61;                     !- Shelter Factor

ZONEINFILTRATION:FLOWCOEFFICIENT,
    Block Build_0_Alt0 Storey 1Leak,    !- Name
    Block Build_0_Alt0 Storey 1,    !- Zone Name
    AlwaysON,                 !- Schedule Name
    6.289469e-03,             !- Flow Coefficient
    0.107,                    !- Stack Coefficient
    0.667,                    !- Pressure Exponent
    0.167,                    !- Wind Coefficient
    0.61;                     !- Shelter Factor

ZONEINFILTRATION:FLOWCOEFFICIENT,
    Block Build_1_Alt0 Storey 1Leak,    !- Name
    Block Build_1_Alt0 Storey 1,    !- Zone Name
    AlwaysON,                 !- Schedule Name
    3.194508e-02,             !- Flow Coefficient
    0.107,                    !- Stack Coefficient
    0.667,                    !- Pressure Exponent
    0.167,                    !- Wind Coefficient
    0.61;                     !- Shelter Factor

ZONEINFILTRATION:FLOWCOEFFICIENT,
    Block Build_0_Alt0 Storey 2Leak,    !- Name
    Block Build_0_Alt0 Storey 2,    !- Zone Name
    AlwaysON,                 !- Schedule Name
    6.289469e-03,             !- Flow Coefficient
    0.107,                    !- Stack Coefficient
    0.667,                    !- Pressure Exponent
    0.167,                    !- Wind Coefficient
    0.61;                     !- Shelter Factor

ZONEINFILTRATION:FLOWCOEFFICIENT,
    Block Build_1_Alt0 Storey 2Leak,    !- Name
    Block Build_1_Alt0 Storey 2,    !- Zone Name
    AlwaysON,                 !- Schedule Name
    3.194508e-02,             !- Flow Coefficient
    0.107,                    !- Stack Coefficient
    0.667,                    !- Pressure Exponent
    0.167,                    !- Wind Coefficient
    0.61;                     !- Shelter Factor

ZONEINFILTRATION:FLOWCOEFFICIENT,
    Block Build_0_Alt0 Storey 3Leak,    !- Name
    Block Build_0_Alt0 Storey 3,    !- Zone Name
    AlwaysON,                 !- Schedule Name
    1.261241e-02,             !- Flow Coefficient
    0.107,                    !- Stack Coefficient
    0.667,                    !- Pressure Exponent
    0.167,                    !- Wind Coefficient
    0.61;                     !- Shelter Factor

ZONEINFILTRATION:FLOWCOEFFICIENT,
    Block Build_1_Alt0 Storey 3Leak,    !- Name
    Block Build_1_Alt0 Storey 3,    !- Zone Name
    AlwaysON,                 !- Schedule Name
    3.194508e-02,             !- Flow Coefficient
    0.107,                    !- Stack Coefficient
    0.667,                    !- Pressure Exponent
    0.167,                    !- Wind Coefficient
    0.61;                     !- Shelter Factor

ZONEINFILTRATION:FLOWCOEFFICIENT,
    Block Build_1_Alt0 Storey 4Leak,    !- Name
    Block Build_1_Alt0 Storey 4,    !- Zone Name
    AlwaysON,                 !- Schedule Name
    7.924867e-02,             !- Flow Coefficient
    0.107,                    !- Stack Coefficient
    0.667,                    !- Pressure Exponent
    0.167,                    !- Wind Coefficient
    0.61;                     !- Shelter Factor

ZONEVENTILATION:DESIGNFLOWRATE,
    Block Build_0_Alt0 Storey 0FreeCool,    !- Name
    Block Build_0_Alt0 Storey 0,    !- Zone or ZoneList Name
    AlwaysON,                 !- Schedule Name
    AirChanges/Hour,          !- Design Flow Rate Calculation Method
    ,                         !- Design Flow Rate
    ,                         !- Flow Rate per Zone Floor Area
    ,                         !- Flow Rate per Person
    4,                        !- Air Changes per Hour
    Natural,                  !- Ventilation Type
    0,                        !- Fan Pressure Rise
    1,                        !- Fan Total Efficiency
    1,                        !- Constant Term Coefficient
    0,                        !- Temperature Term Coefficient
    0,                        !- Velocity Term Coefficient
    0,                        !- Velocity Squared Term Coefficient
    26,                       !- Minimum Indoor Temperature
    ,                         !- Minimum Indoor Temperature Schedule Name
    100,                      !- Maximum Indoor Temperature
    ,                         !- Maximum Indoor Temperature Schedule Name
    1,                        !- Delta Temperature
    ,                         !- Delta Temperature Schedule Name
    -100,                     !- Minimum Outdoor Temperature
    ,                         !- Minimum Outdoor Temperature Schedule Name
    100,                      !- Maximum Outdoor Temperature
    ,                         !- Maximum Outdoor Temperature Schedule Name
    40;                       !- Maximum Wind Speed

ZONEVENTILATION:DESIGNFLOWRATE,
    Block Build_1_Alt0 Storey 0FreeCool,    !- Name
    Block Build_1_Alt0 Storey 0,    !- Zone or ZoneList Name
    AlwaysON,                 !- Schedule Name
    AirChanges/Hour,          !- Design Flow Rate Calculation Method
    ,                         !- Design Flow Rate
    ,                         !- Flow Rate per Zone Floor Area
    ,                         !- Flow Rate per Person
    4,                        !- Air Changes per Hour
    Natural,                  !- Ventilation Type
    0,                        !- Fan Pressure Rise
    1,                        !- Fan Total Efficiency
    1,                        !- Constant Term Coefficient
    0,                        !- Temperature Term Coefficient
    0,                        !- Velocity Term Coefficient
    0,                        !- Velocity Squared Term Coefficient
    26,                       !- Minimum Indoor Temperature
    ,                         !- Minimum Indoor Temperature Schedule Name
    100,                      !- Maximum Indoor Temperature
    ,                         !- Maximum Indoor Temperature Schedule Name
    1,                        !- Delta Temperature
    ,                         !- Delta Temperature Schedule Name
    -100,                     !- Minimum Outdoor Temperature
    ,                         !- Minimum Outdoor Temperature Schedule Name
    100,                      !- Maximum Outdoor Temperature
    ,                         !- Maximum Outdoor Temperature Schedule Name
    40;                       !- Maximum Wind Speed

ZONEVENTILATION:DESIGNFLOWRATE,
    Block Build_0_Alt0 Storey 1FreeCool,    !- Name
    Block Build_0_Alt0 Storey 1,    !- Zone or ZoneList Name
    AlwaysON,                 !- Schedule Name
    AirChanges/Hour,          !- Design Flow Rate Calculation Method
    ,                         !- Design Flow Rate
    ,                         !- Flow Rate per Zone Floor Area
    ,                         !- Flow Rate per Person
    4,                        !- Air Changes per Hour
    Natural,                  !- Ventilation Type
    0,                        !- Fan Pressure Rise
    1,                        !- Fan Total Efficiency
    1,                        !- Constant Term Coefficient
    0,                        !- Temperature Term Coefficient
    0,                        !- Velocity Term Coefficient
    0,                        !- Velocity Squared Term Coefficient
    26,                       !- Minimum Indoor Temperature
    ,                         !- Minimum Indoor Temperature Schedule Name
    100,                      !- Maximum Indoor Temperature
    ,                         !- Maximum Indoor Temperature Schedule Name
    1,                        !- Delta Temperature
    ,                         !- Delta Temperature Schedule Name
    -100,                     !- Minimum Outdoor Temperature
    ,                         !- Minimum Outdoor Temperature Schedule Name
    100,                      !- Maximum Outdoor Temperature
    ,                         !- Maximum Outdoor Temperature Schedule Name
    40;                       !- Maximum Wind Speed

ZONEVENTILATION:DESIGNFLOWRATE,
    Block Build_1_Alt0 Storey 1FreeCool,    !- Name
    Block Build_1_Alt0 Storey 1,    !- Zone or ZoneList Name
    AlwaysON,                 !- Schedule Name
    AirChanges/Hour,          !- Design Flow Rate Calculation Method
    ,                         !- Design Flow Rate
    ,                         !- Flow Rate per Zone Floor Area
    ,                         !- Flow Rate per Person
    4,                        !- Air Changes per Hour
    Natural,                  !- Ventilation Type
    0,                        !- Fan Pressure Rise
    1,                        !- Fan Total Efficiency
    1,                        !- Constant Term Coefficient
    0,                        !- Temperature Term Coefficient
    0,                        !- Velocity Term Coefficient
    0,                        !- Velocity Squared Term Coefficient
    26,                       !- Minimum Indoor Temperature
    ,                         !- Minimum Indoor Temperature Schedule Name
    100,                      !- Maximum Indoor Temperature
    ,                         !- Maximum Indoor Temperature Schedule Name
    1,                        !- Delta Temperature
    ,                         !- Delta Temperature Schedule Name
    -100,                     !- Minimum Outdoor Temperature
    ,                         !- Minimum Outdoor Temperature Schedule Name
    100,                      !- Maximum Outdoor Temperature
    ,                         !- Maximum Outdoor Temperature Schedule Name
    40;                       !- Maximum Wind Speed

ZONEVENTILATION:DESIGNFLOWRATE,
    Block Build_0_Alt0 Storey 2FreeCool,    !- Name
    Block Build_0_Alt0 Storey 2,    !- Zone or ZoneList Name
    AlwaysON,                 !- Schedule Name
    AirChanges/Hour,          !- Design Flow Rate Calculation Method
    ,                         !- Design Flow Rate
    ,                         !- Flow Rate per Zone Floor Area
    ,                         !- Flow Rate per Person
    4,                        !- Air Changes per Hour
    Natural,                  !- Ventilation Type
    0,                        !- Fan Pressure Rise
    1,                        !- Fan Total Efficiency
    1,                        !- Constant Term Coefficient
    0,                        !- Temperature Term Coefficient
    0,                        !- Velocity Term Coefficient
    0,                        !- Velocity Squared Term Coefficient
    26,                       !- Minimum Indoor Temperature
    ,                         !- Minimum Indoor Temperature Schedule Name
    100,                      !- Maximum Indoor Temperature
    ,                         !- Maximum Indoor Temperature Schedule Name
    1,                        !- Delta Temperature
    ,                         !- Delta Temperature Schedule Name
    -100,                     !- Minimum Outdoor Temperature
    ,                         !- Minimum Outdoor Temperature Schedule Name
    100,                      !- Maximum Outdoor Temperature
    ,                         !- Maximum Outdoor Temperature Schedule Name
    40;                       !- Maximum Wind Speed

ZONEVENTILATION:DESIGNFLOWRATE,
    Block Build_1_Alt0 Storey 2FreeCool,    !- Name
    Block Build_1_Alt0 Storey 2,    !- Zone or ZoneList Name
    AlwaysON,                 !- Schedule Name
    AirChanges/Hour,          !- Design Flow Rate Calculation Method
    ,                         !- Design Flow Rate
    ,                         !- Flow Rate per Zone Floor Area
    ,                         !- Flow Rate per Person
    4,                        !- Air Changes per Hour
    Natural,                  !- Ventilation Type
    0,                        !- Fan Pressure Rise
    1,                        !- Fan Total Efficiency
    1,                        !- Constant Term Coefficient
    0,                        !- Temperature Term Coefficient
    0,                        !- Velocity Term Coefficient
    0,                        !- Velocity Squared Term Coefficient
    26,                       !- Minimum Indoor Temperature
    ,                         !- Minimum Indoor Temperature Schedule Name
    100,                      !- Maximum Indoor Temperature
    ,                         !- Maximum Indoor Temperature Schedule Name
    1,                        !- Delta Temperature
    ,                         !- Delta Temperature Schedule Name
    -100,                     !- Minimum Outdoor Temperature
    ,                         !- Minimum Outdoor Temperature Schedule Name
    100,                      !- Maximum Outdoor Temperature
    ,                         !- Maximum Outdoor Temperature Schedule Name
    40;                       !- Maximum Wind Speed

ZONEVENTILATION:DESIGNFLOWRATE,
    Block Build_0_Alt0 Storey 3FreeCool,    !- Name
    Block Build_0_Alt0 Storey 3,    !- Zone or ZoneList Name
    AlwaysON,                 !- Schedule Name
    AirChanges/Hour,          !- Design Flow Rate Calculation Method
    ,                         !- Design Flow Rate
    ,                         !- Flow Rate per Zone Floor Area
    ,                         !- Flow Rate per Person
    4,                        !- Air Changes per Hour
    Natural,                  !- Ventilation Type
    0,                        !- Fan Pressure Rise
    1,                        !- Fan Total Efficiency
    1,                        !- Constant Term Coefficient
    0,                        !- Temperature Term Coefficient
    0,                        !- Velocity Term Coefficient
    0,                        !- Velocity Squared Term Coefficient
    26,                       !- Minimum Indoor Temperature
    ,                         !- Minimum Indoor Temperature Schedule Name
    100,                      !- Maximum Indoor Temperature
    ,                         !- Maximum Indoor Temperature Schedule Name
    1,                        !- Delta Temperature
    ,                         !- Delta Temperature Schedule Name
    -100,                     !- Minimum Outdoor Temperature
    ,                         !- Minimum Outdoor Temperature Schedule Name
    100,                      !- Maximum Outdoor Temperature
    ,                         !- Maximum Outdoor Temperature Schedule Name
    40;                       !- Maximum Wind Speed

ZONEVENTILATION:DESIGNFLOWRATE,
    Block Build_1_Alt0 Storey 3FreeCool,    !- Name
    Block Build_1_Alt0 Storey 3,    !- Zone or ZoneList Name
    AlwaysON,                 !- Schedule Name
    AirChanges/Hour,          !- Design Flow Rate Calculation Method
    ,                         !- Design Flow Rate
    ,                         !- Flow Rate per Zone Floor Area
    ,                         !- Flow Rate per Person
    4,                        !- Air Changes per Hour
    Natural,                  !- Ventilation Type
    0,                        !- Fan Pressure Rise
    1,                        !- Fan Total Efficiency
    1,                        !- Constant Term Coefficient
    0,                        !- Temperature Term Coefficient
    0,                        !- Velocity Term Coefficient
    0,                        !- Velocity Squared Term Coefficient
    26,                       !- Minimum Indoor Temperature
    ,                         !- Minimum Indoor Temperature Schedule Name
    100,                      !- Maximum Indoor Temperature
    ,                         !- Maximum Indoor Temperature Schedule Name
    1,                        !- Delta Temperature
    ,                         !- Delta Temperature Schedule Name
    -100,                     !- Minimum Outdoor Temperature
    ,                         !- Minimum Outdoor Temperature Schedule Name
    100,                      !- Maximum Outdoor Temperature
    ,                         !- Maximum Outdoor Temperature Schedule Name
    40;                       !- Maximum Wind Speed

ZONEVENTILATION:DESIGNFLOWRATE,
    Block Build_1_Alt0 Storey 4FreeCool,    !- Name
    Block Build_1_Alt0 Storey 4,    !- Zone or ZoneList Name
    AlwaysON,                 !- Schedule Name
    AirChanges/Hour,          !- Design Flow Rate Calculation Method
    ,                         !- Design Flow Rate
    ,                         !- Flow Rate per Zone Floor Area
    ,                         !- Flow Rate per Person
    4,                        !- Air Changes per Hour
    Natural,                  !- Ventilation Type
    0,                        !- Fan Pressure Rise
    1,                        !- Fan Total Efficiency
    1,                        !- Constant Term Coefficient
    0,                        !- Temperature Term Coefficient
    0,                        !- Velocity Term Coefficient
    0,                        !- Velocity Squared Term Coefficient
    26,                       !- Minimum Indoor Temperature
    ,                         !- Minimum Indoor Temperature Schedule Name
    100,                      !- Maximum Indoor Temperature
    ,                         !- Maximum Indoor Temperature Schedule Name
    1,                        !- Delta Temperature
    ,                         !- Delta Temperature Schedule Name
    -100,                     !- Minimum Outdoor Temperature
    ,                         !- Minimum Outdoor Temperature Schedule Name
    100,                      !- Maximum Outdoor Temperature
    ,                         !- Maximum Outdoor Temperature Schedule Name
    40;                       !- Maximum Wind Speed

HVACTEMPLATE:THERMOSTAT,
    ResidZone,                !- Name
    ,                         !- Heating Setpoint Schedule Name
    21,                       !- Constant Heating Setpoint
    ,                         !- Cooling Setpoint Schedule Name
    50;                       !- Constant Cooling Setpoint

HVACTEMPLATE:ZONE:IDEALLOADSAIRSYSTEM,
    Block Build_0_Alt0 Storey 0,    !- Zone Name
    ResidZone,                !- Template Thermostat Name
    ,                         !- System Availability Schedule Name
    50,                       !- Maximum Heating Supply Air Temperature
    13,                       !- Minimum Cooling Supply Air Temperature
    0.0156,                   !- Maximum Heating Supply Air Humidity Ratio
    0.0077,                   !- Minimum Cooling Supply Air Humidity Ratio
    NoLimit,                  !- Heating Limit
    ,                         !- Maximum Heating Air Flow Rate
    2148.1875498921963,       !- Maximum Sensible Heating Capacity
    NoLimit,                  !- Cooling Limit
    ,                         !- Maximum Cooling Air Flow Rate
    ,                         !- Maximum Total Cooling Capacity
    ,                         !- Heating Availability Schedule Name
    ,                         !- Cooling Availability Schedule Name
    ConstantSensibleHeatRatio,    !- Dehumidification Control Type
    0.7,                      !- Cooling Sensible Heat Ratio
    60,                       !- Dehumidification Setpoint
    None,                     !- Humidification Control Type
    30,                       !- Humidification Setpoint
    Sum,                      !- Outdoor Air Method
    0.007,                    !- Outdoor Air Flow Rate per Person
    3.500000e-04,             !- Outdoor Air Flow Rate per Zone Floor Area
    0,                        !- Outdoor Air Flow Rate per Zone
    ,                         !- Design Specification Outdoor Air Object Name
    OccupancySchedule,        !- Demand Controlled Ventilation Type
    NoEconomizer,             !- Outdoor Air Economizer Type
    Sensible,                 !- Heat Recovery Type
    0.9,                      !- Sensible Heat Recovery Effectiveness
    0;                        !- Latent Heat Recovery Effectiveness

HVACTEMPLATE:ZONE:IDEALLOADSAIRSYSTEM,
    Block Build_1_Alt0 Storey 0,    !- Zone Name
    ResidZone,                !- Template Thermostat Name
    ,                         !- System Availability Schedule Name
    50,                       !- Maximum Heating Supply Air Temperature
    13,                       !- Minimum Cooling Supply Air Temperature
    0.0156,                   !- Maximum Heating Supply Air Humidity Ratio
    0.0077,                   !- Minimum Cooling Supply Air Humidity Ratio
    NoLimit,                  !- Heating Limit
    ,                         !- Maximum Heating Air Flow Rate
    15421.088762502271,       !- Maximum Sensible Heating Capacity
    NoLimit,                  !- Cooling Limit
    ,                         !- Maximum Cooling Air Flow Rate
    ,                         !- Maximum Total Cooling Capacity
    ,                         !- Heating Availability Schedule Name
    ,                         !- Cooling Availability Schedule Name
    ConstantSensibleHeatRatio,    !- Dehumidification Control Type
    0.7,                      !- Cooling Sensible Heat Ratio
    60,                       !- Dehumidification Setpoint
    None,                     !- Humidification Control Type
    30,                       !- Humidification Setpoint
    Sum,                      !- Outdoor Air Method
    0.007,                    !- Outdoor Air Flow Rate per Person
    3.500000e-04,             !- Outdoor Air Flow Rate per Zone Floor Area
    0,                        !- Outdoor Air Flow Rate per Zone
    ,                         !- Design Specification Outdoor Air Object Name
    OccupancySchedule,        !- Demand Controlled Ventilation Type
    NoEconomizer,             !- Outdoor Air Economizer Type
    Sensible,                 !- Heat Recovery Type
    0.9,                      !- Sensible Heat Recovery Effectiveness
    0;                        !- Latent Heat Recovery Effectiveness

HVACTEMPLATE:ZONE:IDEALLOADSAIRSYSTEM,
    Block Build_0_Alt0 Storey 1,    !- Zone Name
    ResidZone,                !- Template Thermostat Name
    ,                         !- System Availability Schedule Name
    50,                       !- Maximum Heating Supply Air Temperature
    13,                       !- Minimum Cooling Supply Air Temperature
    0.0156,                   !- Maximum Heating Supply Air Humidity Ratio
    0.0077,                   !- Minimum Cooling Supply Air Humidity Ratio
    NoLimit,                  !- Heating Limit
    ,                         !- Maximum Heating Air Flow Rate
    2148.1875498921963,       !- Maximum Sensible Heating Capacity
    NoLimit,                  !- Cooling Limit
    ,                         !- Maximum Cooling Air Flow Rate
    ,                         !- Maximum Total Cooling Capacity
    ,                         !- Heating Availability Schedule Name
    ,                         !- Cooling Availability Schedule Name
    ConstantSensibleHeatRatio,    !- Dehumidification Control Type
    0.7,                      !- Cooling Sensible Heat Ratio
    60,                       !- Dehumidification Setpoint
    None,                     !- Humidification Control Type
    30,                       !- Humidification Setpoint
    Sum,                      !- Outdoor Air Method
    0.007,                    !- Outdoor Air Flow Rate per Person
    3.500000e-04,             !- Outdoor Air Flow Rate per Zone Floor Area
    0,                        !- Outdoor Air Flow Rate per Zone
    ,                         !- Design Specification Outdoor Air Object Name
    OccupancySchedule,        !- Demand Controlled Ventilation Type
    NoEconomizer,             !- Outdoor Air Economizer Type
    Sensible,                 !- Heat Recovery Type
    0.9,                      !- Sensible Heat Recovery Effectiveness
    0;                        !- Latent Heat Recovery Effectiveness

HVACTEMPLATE:ZONE:IDEALLOADSAIRSYSTEM,
    Block Build_1_Alt0 Storey 1,    !- Zone Name
    ResidZone,                !- Template Thermostat Name
    ,                         !- System Availability Schedule Name
    50,                       !- Maximum Heating Supply Air Temperature
    13,                       !- Minimum Cooling Supply Air Temperature
    0.0156,                   !- Maximum Heating Supply Air Humidity Ratio
    0.0077,                   !- Minimum Cooling Supply Air Humidity Ratio
    NoLimit,                  !- Heating Limit
    ,                         !- Maximum Heating Air Flow Rate
    15421.088762502271,       !- Maximum Sensible Heating Capacity
    NoLimit,                  !- Cooling Limit
    ,                         !- Maximum Cooling Air Flow Rate
    ,                         !- Maximum Total Cooling Capacity
    ,                         !- Heating Availability Schedule Name
    ,                         !- Cooling Availability Schedule Name
    ConstantSensibleHeatRatio,    !- Dehumidification Control Type
    0.7,                      !- Cooling Sensible Heat Ratio
    60,                       !- Dehumidification Setpoint
    None,                     !- Humidification Control Type
    30,                       !- Humidification Setpoint
    Sum,                      !- Outdoor Air Method
    0.007,                    !- Outdoor Air Flow Rate per Person
    3.500000e-04,             !- Outdoor Air Flow Rate per Zone Floor Area
    0,                        !- Outdoor Air Flow Rate per Zone
    ,                         !- Design Specification Outdoor Air Object Name
    OccupancySchedule,        !- Demand Controlled Ventilation Type
    NoEconomizer,             !- Outdoor Air Economizer Type
    Sensible,                 !- Heat Recovery Type
    0.9,                      !- Sensible Heat Recovery Effectiveness
    0;                        !- Latent Heat Recovery Effectiveness

HVACTEMPLATE:ZONE:IDEALLOADSAIRSYSTEM,
    Block Build_0_Alt0 Storey 2,    !- Zone Name
    ResidZone,                !- Template Thermostat Name
    ,                         !- System Availability Schedule Name
    50,                       !- Maximum Heating Supply Air Temperature
    13,                       !- Minimum Cooling Supply Air Temperature
    0.0156,                   !- Maximum Heating Supply Air Humidity Ratio
    0.0077,                   !- Minimum Cooling Supply Air Humidity Ratio
    NoLimit,                  !- Heating Limit
    ,                         !- Maximum Heating Air Flow Rate
    2148.1875498921963,       !- Maximum Sensible Heating Capacity
    NoLimit,                  !- Cooling Limit
    ,                         !- Maximum Cooling Air Flow Rate
    ,                         !- Maximum Total Cooling Capacity
    ,                         !- Heating Availability Schedule Name
    ,                         !- Cooling Availability Schedule Name
    ConstantSensibleHeatRatio,    !- Dehumidification Control Type
    0.7,                      !- Cooling Sensible Heat Ratio
    60,                       !- Dehumidification Setpoint
    None,                     !- Humidification Control Type
    30,                       !- Humidification Setpoint
    Sum,                      !- Outdoor Air Method
    0.007,                    !- Outdoor Air Flow Rate per Person
    3.500000e-04,             !- Outdoor Air Flow Rate per Zone Floor Area
    0,                        !- Outdoor Air Flow Rate per Zone
    ,                         !- Design Specification Outdoor Air Object Name
    OccupancySchedule,        !- Demand Controlled Ventilation Type
    NoEconomizer,             !- Outdoor Air Economizer Type
    Sensible,                 !- Heat Recovery Type
    0.9,                      !- Sensible Heat Recovery Effectiveness
    0;                        !- Latent Heat Recovery Effectiveness

HVACTEMPLATE:ZONE:IDEALLOADSAIRSYSTEM,
    Block Build_1_Alt0 Storey 2,    !- Zone Name
    ResidZone,                !- Template Thermostat Name
    ,                         !- System Availability Schedule Name
    50,                       !- Maximum Heating Supply Air Temperature
    13,                       !- Minimum Cooling Supply Air Temperature
    0.0156,                   !- Maximum Heating Supply Air Humidity Ratio
    0.0077,                   !- Minimum Cooling Supply Air Humidity Ratio
    NoLimit,                  !- Heating Limit
    ,                         !- Maximum Heating Air Flow Rate
    15421.088762502271,       !- Maximum Sensible Heating Capacity
    NoLimit,                  !- Cooling Limit
    ,                         !- Maximum Cooling Air Flow Rate
    ,                         !- Maximum Total Cooling Capacity
    ,                         !- Heating Availability Schedule Name
    ,                         !- Cooling Availability Schedule Name
    ConstantSensibleHeatRatio,    !- Dehumidification Control Type
    0.7,                      !- Cooling Sensible Heat Ratio
    60,                       !- Dehumidification Setpoint
    None,                     !- Humidification Control Type
    30,                       !- Humidification Setpoint
    Sum,                      !- Outdoor Air Method
    0.007,                    !- Outdoor Air Flow Rate per Person
    3.500000e-04,             !- Outdoor Air Flow Rate per Zone Floor Area
    0,                        !- Outdoor Air Flow Rate per Zone
    ,                         !- Design Specification Outdoor Air Object Name
    OccupancySchedule,        !- Demand Controlled Ventilation Type
    NoEconomizer,             !- Outdoor Air Economizer Type
    Sensible,                 !- Heat Recovery Type
    0.9,                      !- Sensible Heat Recovery Effectiveness
    0;                        !- Latent Heat Recovery Effectiveness

HVACTEMPLATE:ZONE:IDEALLOADSAIRSYSTEM,
    Block Build_0_Alt0 Storey 3,    !- Zone Name
    ResidZone,                !- Template Thermostat Name
    ,                         !- System Availability Schedule Name
    50,                       !- Maximum Heating Supply Air Temperature
    13,                       !- Minimum Cooling Supply Air Temperature
    0.0156,                   !- Maximum Heating Supply Air Humidity Ratio
    0.0077,                   !- Minimum Cooling Supply Air Humidity Ratio
    NoLimit,                  !- Heating Limit
    ,                         !- Maximum Heating Air Flow Rate
    2148.1875498921963,       !- Maximum Sensible Heating Capacity
    NoLimit,                  !- Cooling Limit
    ,                         !- Maximum Cooling Air Flow Rate
    ,                         !- Maximum Total Cooling Capacity
    ,                         !- Heating Availability Schedule Name
    ,                         !- Cooling Availability Schedule Name
    ConstantSensibleHeatRatio,    !- Dehumidification Control Type
    0.7,                      !- Cooling Sensible Heat Ratio
    60,                       !- Dehumidification Setpoint
    None,                     !- Humidification Control Type
    30,                       !- Humidification Setpoint
    Flow/Area,                !- Outdoor Air Method
    0.007,                    !- Outdoor Air Flow Rate per Person
    3.500000e-04,             !- Outdoor Air Flow Rate per Zone Floor Area
    0,                        !- Outdoor Air Flow Rate per Zone
    ,                         !- Design Specification Outdoor Air Object Name
    None,                     !- Demand Controlled Ventilation Type
    NoEconomizer,             !- Outdoor Air Economizer Type
    Sensible,                 !- Heat Recovery Type
    0.9,                      !- Sensible Heat Recovery Effectiveness
    0;                        !- Latent Heat Recovery Effectiveness

HVACTEMPLATE:ZONE:IDEALLOADSAIRSYSTEM,
    Block Build_1_Alt0 Storey 3,    !- Zone Name
    ResidZone,                !- Template Thermostat Name
    ,                         !- System Availability Schedule Name
    50,                       !- Maximum Heating Supply Air Temperature
    13,                       !- Minimum Cooling Supply Air Temperature
    0.0156,                   !- Maximum Heating Supply Air Humidity Ratio
    0.0077,                   !- Minimum Cooling Supply Air Humidity Ratio
    NoLimit,                  !- Heating Limit
    ,                         !- Maximum Heating Air Flow Rate
    15421.088762502271,       !- Maximum Sensible Heating Capacity
    NoLimit,                  !- Cooling Limit
    ,                         !- Maximum Cooling Air Flow Rate
    ,                         !- Maximum Total Cooling Capacity
    ,                         !- Heating Availability Schedule Name
    ,                         !- Cooling Availability Schedule Name
    ConstantSensibleHeatRatio,    !- Dehumidification Control Type
    0.7,                      !- Cooling Sensible Heat Ratio
    60,                       !- Dehumidification Setpoint
    None,                     !- Humidification Control Type
    30,                       !- Humidification Setpoint
    Flow/Area,                !- Outdoor Air Method
    0.007,                    !- Outdoor Air Flow Rate per Person
    3.500000e-04,             !- Outdoor Air Flow Rate per Zone Floor Area
    0,                        !- Outdoor Air Flow Rate per Zone
    ,                         !- Design Specification Outdoor Air Object Name
    None,                     !- Demand Controlled Ventilation Type
    NoEconomizer,             !- Outdoor Air Economizer Type
    Sensible,                 !- Heat Recovery Type
    0.9,                      !- Sensible Heat Recovery Effectiveness
    0;                        !- Latent Heat Recovery Effectiveness

HVACTEMPLATE:ZONE:IDEALLOADSAIRSYSTEM,
    Block Build_1_Alt0 Storey 4,    !- Zone Name
    ResidZone,                !- Template Thermostat Name
    ,                         !- System Availability Schedule Name
    50,                       !- Maximum Heating Supply Air Temperature
    13,                       !- Minimum Cooling Supply Air Temperature
    0.0156,                   !- Maximum Heating Supply Air Humidity Ratio
    0.0077,                   !- Minimum Cooling Supply Air Humidity Ratio
    NoLimit,                  !- Heating Limit
    ,                         !- Maximum Heating Air Flow Rate
    15421.088762502271,       !- Maximum Sensible Heating Capacity
    NoLimit,                  !- Cooling Limit
    ,                         !- Maximum Cooling Air Flow Rate
    ,                         !- Maximum Total Cooling Capacity
    ,                         !- Heating Availability Schedule Name
    ,                         !- Cooling Availability Schedule Name
    ConstantSensibleHeatRatio,    !- Dehumidification Control Type
    0.7,                      !- Cooling Sensible Heat Ratio
    60,                       !- Dehumidification Setpoint
    None,                     !- Humidification Control Type
    30,                       !- Humidification Setpoint
    Flow/Area,                !- Outdoor Air Method
    0.007,                    !- Outdoor Air Flow Rate per Person
    3.500000e-04,             !- Outdoor Air Flow Rate per Zone Floor Area
    0,                        !- Outdoor Air Flow Rate per Zone
    ,                         !- Design Specification Outdoor Air Object Name
    None,                     !- Demand Controlled Ventilation Type
    NoEconomizer,             !- Outdoor Air Economizer Type
    Sensible,                 !- Heat Recovery Type
    0.9,                      !- Sensible Heat Recovery Effectiveness
    0;                        !- Latent Heat Recovery Effectiveness

OUTDOORAIR:NODE,
    Block Build_0_Alt0 Storey 0 IDEAL LOADS OUTDOOR AIR INLET,    !- Name
    -1,                       !- Height Above Ground
    ,                         !- Drybulb Temperature Schedule Name
    ,                         !- Wetbulb Temperature Schedule Name
    ,                         !- Wind Speed Schedule Name
    ,                         !- Wind Direction Schedule Name
    ,                         !- Wind Pressure Coefficient Curve Name
    No,                       !- Symmetric Wind Pressure Coefficient Curve
    Absolute;                 !- Wind Angle Type

OUTDOORAIR:NODE,
    Block Build_1_Alt0 Storey 0 IDEAL LOADS OUTDOOR AIR INLET,    !- Name
    -1,                       !- Height Above Ground
    ,                         !- Drybulb Temperature Schedule Name
    ,                         !- Wetbulb Temperature Schedule Name
    ,                         !- Wind Speed Schedule Name
    ,                         !- Wind Direction Schedule Name
    ,                         !- Wind Pressure Coefficient Curve Name
    No,                       !- Symmetric Wind Pressure Coefficient Curve
    Absolute;                 !- Wind Angle Type

OUTDOORAIR:NODE,
    Block Build_0_Alt0 Storey 1 IDEAL LOADS OUTDOOR AIR INLET,    !- Name
    -1,                       !- Height Above Ground
    ,                         !- Drybulb Temperature Schedule Name
    ,                         !- Wetbulb Temperature Schedule Name
    ,                         !- Wind Speed Schedule Name
    ,                         !- Wind Direction Schedule Name
    ,                         !- Wind Pressure Coefficient Curve Name
    No,                       !- Symmetric Wind Pressure Coefficient Curve
    Absolute;                 !- Wind Angle Type

OUTDOORAIR:NODE,
    Block Build_1_Alt0 Storey 1 IDEAL LOADS OUTDOOR AIR INLET,    !- Name
    -1,                       !- Height Above Ground
    ,                         !- Drybulb Temperature Schedule Name
    ,                         !- Wetbulb Temperature Schedule Name
    ,                         !- Wind Speed Schedule Name
    ,                         !- Wind Direction Schedule Name
    ,                         !- Wind Pressure Coefficient Curve Name
    No,                       !- Symmetric Wind Pressure Coefficient Curve
    Absolute;                 !- Wind Angle Type

OUTDOORAIR:NODE,
    Block Build_0_Alt0 Storey 2 IDEAL LOADS OUTDOOR AIR INLET,    !- Name
    -1,                       !- Height Above Ground
    ,                         !- Drybulb Temperature Schedule Name
    ,                         !- Wetbulb Temperature Schedule Name
    ,                         !- Wind Speed Schedule Name
    ,                         !- Wind Direction Schedule Name
    ,                         !- Wind Pressure Coefficient Curve Name
    No,                       !- Symmetric Wind Pressure Coefficient Curve
    Absolute;                 !- Wind Angle Type

OUTDOORAIR:NODE,
    Block Build_1_Alt0 Storey 2 IDEAL LOADS OUTDOOR AIR INLET,    !- Name
    -1,                       !- Height Above Ground
    ,                         !- Drybulb Temperature Schedule Name
    ,                         !- Wetbulb Temperature Schedule Name
    ,                         !- Wind Speed Schedule Name
    ,                         !- Wind Direction Schedule Name
    ,                         !- Wind Pressure Coefficient Curve Name
    No,                       !- Symmetric Wind Pressure Coefficient Curve
    Absolute;                 !- Wind Angle Type

OUTDOORAIR:NODE,
    Block Build_0_Alt0 Storey 3 IDEAL LOADS OUTDOOR AIR INLET,    !- Name
    -1,                       !- Height Above Ground
    ,                         !- Drybulb Temperature Schedule Name
    ,                         !- Wetbulb Temperature Schedule Name
    ,                         !- Wind Speed Schedule Name
    ,                         !- Wind Direction Schedule Name
    ,                         !- Wind Pressure Coefficient Curve Name
    No,                       !- Symmetric Wind Pressure Coefficient Curve
    Absolute;                 !- Wind Angle Type

OUTDOORAIR:NODE,
    Block Build_1_Alt0 Storey 3 IDEAL LOADS OUTDOOR AIR INLET,    !- Name
    -1,                       !- Height Above Ground
    ,                         !- Drybulb Temperature Schedule Name
    ,                         !- Wetbulb Temperature Schedule Name
    ,                         !- Wind Speed Schedule Name
    ,                         !- Wind Direction Schedule Name
    ,                         !- Wind Pressure Coefficient Curve Name
    No,                       !- Symmetric Wind Pressure Coefficient Curve
    Absolute;                 !- Wind Angle Type

OUTDOORAIR:NODE,
    Block Build_1_Alt0 Storey 4 IDEAL LOADS OUTDOOR AIR INLET,    !- Name
    -1,                       !- Height Above Ground
    ,                         !- Drybulb Temperature Schedule Name
    ,                         !- Wetbulb Temperature Schedule Name
    ,                         !- Wind Speed Schedule Name
    ,                         !- Wind Direction Schedule Name
    ,                         !- Wind Pressure Coefficient Curve Name
    No,                       !- Symmetric Wind Pressure Coefficient Curve
    Absolute;                 !- Wind Angle Type

ENERGYMANAGEMENTSYSTEM:SENSOR,
    T0,                       !- Name
    Block Build_0_Alt0 Storey 0,    !- OutputVariable or OutputMeter Index Key Name
    Zone Mean Air Temperature;    !- OutputVariable or OutputMeter Name

ENERGYMANAGEMENTSYSTEM:SENSOR,
    T1,                       !- Name
    Block Build_0_Alt0 Storey 1,    !- OutputVariable or OutputMeter Index Key Name
    Zone Mean Air Temperature;    !- OutputVariable or OutputMeter Name

ENERGYMANAGEMENTSYSTEM:SENSOR,
    T2,                       !- Name
    Block Build_0_Alt0 Storey 2,    !- OutputVariable or OutputMeter Index Key Name
    Zone Mean Air Temperature;    !- OutputVariable or OutputMeter Name

ENERGYMANAGEMENTSYSTEM:SENSOR,
    T3,                       !- Name
    Block Build_0_Alt0 Storey 3,    !- OutputVariable or OutputMeter Index Key Name
    Zone Mean Air Temperature;    !- OutputVariable or OutputMeter Name

ENERGYMANAGEMENTSYSTEM:SENSOR,
    T4,                       !- Name
    Block Build_1_Alt0 Storey 0,    !- OutputVariable or OutputMeter Index Key Name
    Zone Mean Air Temperature;    !- OutputVariable or OutputMeter Name

ENERGYMANAGEMENTSYSTEM:SENSOR,
    T5,                       !- Name
    Block Build_1_Alt0 Storey 1,    !- OutputVariable or OutputMeter Index Key Name
    Zone Mean Air Temperature;    !- OutputVariable or OutputMeter Name

ENERGYMANAGEMENTSYSTEM:SENSOR,
    T6,                       !- Name
    Block Build_1_Alt0 Storey 2,    !- OutputVariable or OutputMeter Index Key Name
    Zone Mean Air Temperature;    !- OutputVariable or OutputMeter Name

ENERGYMANAGEMENTSYSTEM:SENSOR,
    T7,                       !- Name
    Block Build_1_Alt0 Storey 3,    !- OutputVariable or OutputMeter Index Key Name
    Zone Mean Air Temperature;    !- OutputVariable or OutputMeter Name

ENERGYMANAGEMENTSYSTEM:SENSOR,
    T8,                       !- Name
    Block Build_1_Alt0 Storey 4,    !- OutputVariable or OutputMeter Index Key Name
    Zone Mean Air Temperature;    !- OutputVariable or OutputMeter Name

ENERGYMANAGEMENTSYSTEM:SENSOR,
    Pow0,                     !- Name
    Block Build_0_Alt0 Storey 0 IDEAL LOADS AIR SYSTEM,    !- OutputVariable or OutputMeter Index Key Name
    Zone Ideal Loads Supply Air Total Heating Rate;    !- OutputVariable or OutputMeter Name

ENERGYMANAGEMENTSYSTEM:SENSOR,
    Pow1,                     !- Name
    Block Build_0_Alt0 Storey 1 IDEAL LOADS AIR SYSTEM,    !- OutputVariable or OutputMeter Index Key Name
    Zone Ideal Loads Supply Air Total Heating Rate;    !- OutputVariable or OutputMeter Name

ENERGYMANAGEMENTSYSTEM:SENSOR,
    Pow2,                     !- Name
    Block Build_0_Alt0 Storey 2 IDEAL LOADS AIR SYSTEM,    !- OutputVariable or OutputMeter Index Key Name
    Zone Ideal Loads Supply Air Total Heating Rate;    !- OutputVariable or OutputMeter Name

ENERGYMANAGEMENTSYSTEM:SENSOR,
    Pow3,                     !- Name
    Block Build_0_Alt0 Storey 3 IDEAL LOADS AIR SYSTEM,    !- OutputVariable or OutputMeter Index Key Name
    Zone Ideal Loads Supply Air Total Heating Rate;    !- OutputVariable or OutputMeter Name

ENERGYMANAGEMENTSYSTEM:SENSOR,
    Pow4,                     !- Name
    Block Build_1_Alt0 Storey 0 IDEAL LOADS AIR SYSTEM,    !- OutputVariable or OutputMeter Index Key Name
    Zone Ideal Loads Supply Air Total Heating Rate;    !- OutputVariable or OutputMeter Name

ENERGYMANAGEMENTSYSTEM:SENSOR,
    Pow5,                     !- Name
    Block Build_1_Alt0 Storey 1 IDEAL LOADS AIR SYSTEM,    !- OutputVariable or OutputMeter Index Key Name
    Zone Ideal Loads Supply Air Total Heating Rate;    !- OutputVariable or OutputMeter Name

ENERGYMANAGEMENTSYSTEM:SENSOR,
    Pow6,                     !- Name
    Block Build_1_Alt0 Storey 2 IDEAL LOADS AIR SYSTEM,    !- OutputVariable or OutputMeter Index Key Name
    Zone Ideal Loads Supply Air Total Heating Rate;    !- OutputVariable or OutputMeter Name

ENERGYMANAGEMENTSYSTEM:SENSOR,
    Pow7,                     !- Name
    Block Build_1_Alt0 Storey 3 IDEAL LOADS AIR SYSTEM,    !- OutputVariable or OutputMeter Index Key Name
    Zone Ideal Loads Supply Air Total Heating Rate;    !- OutputVariable or OutputMeter Name

ENERGYMANAGEMENTSYSTEM:SENSOR,
    Pow8,                     !- Name
    Block Build_1_Alt0 Storey 4 IDEAL LOADS AIR SYSTEM,    !- OutputVariable or OutputMeter Index Key Name
    Zone Ideal Loads Supply Air Total Heating Rate;    !- OutputVariable or OutputMeter Name

ENERGYMANAGEMENTSYSTEM:SENSOR,
    DHWPow,                   !- Name
    DHW,                      !- OutputVariable or OutputMeter Index Key Name
    Water Use Equipment Heating Rate;    !- OutputVariable or OutputMeter Name

ENERGYMANAGEMENTSYSTEM:PROGRAMCALLINGMANAGER,
    Average Building Temperature,    !- Name
    EndOfZoneTimestepBeforeZoneReporting,    !- EnergyPlus Model Calling Point
    AverageZoneTemps;         !- Program Name 1

ENERGYMANAGEMENTSYSTEM:PROGRAMCALLINGMANAGER,
    Compute Total Building Heat Pow,    !- Name
    EndOfZoneTimestepBeforeZoneReporting,    !- EnergyPlus Model Calling Point
    TotZonePow;               !- Program Name 1

ENERGYMANAGEMENTSYSTEM:PROGRAMCALLINGMANAGER,
    Compute Total DHW Heat Pow,    !- Name
    EndOfZoneTimestepBeforeZoneReporting,    !- EnergyPlus Model Calling Point
    prgmDHWPow;               !- Program Name 1

ENERGYMANAGEMENTSYSTEM:PROGRAM,
    AverageZoneTemps,         !- Name
    SET SumNumerator = T0*Vol0+T1*Vol1+T2*Vol2+T3*Vol3+T4*Vol4+T5*Vol5+T6*Vol6+T7*Vol7+T8*Vol8,    !- Program Line 1
    SET SumDenominator  = Vol0+Vol1+Vol2+Vol3+Vol4+Vol5+Vol6+Vol7+Vol8,    !- Program Line 2
    SET AverageBuildingTemp  = SumNumerator / SumDenominator;    !- Program Line 3

ENERGYMANAGEMENTSYSTEM:PROGRAM,
    TotZonePow,               !- Name
    SET TotBuildPow = Pow0+Pow1+Pow2+Pow3+Pow4+Pow5+Pow6+Pow7+Pow8;    !- Program Line 1

ENERGYMANAGEMENTSYSTEM:PROGRAM,
    prgmDHWPow,               !- Name
    SET TotDHWPow = DHWPow;    !- Program Line 1

ENERGYMANAGEMENTSYSTEM:GLOBALVARIABLE,
    AverageBuildingTemp;      !- Erl Variable 1 Name

ENERGYMANAGEMENTSYSTEM:GLOBALVARIABLE,
    TotBuildPow;              !- Erl Variable 1 Name

ENERGYMANAGEMENTSYSTEM:GLOBALVARIABLE,
    TotDHWPow;                !- Erl Variable 1 Name

ENERGYMANAGEMENTSYSTEM:OUTPUTVARIABLE,
    Mean Heated Zones Air Temperature,    !- Name
    AverageBuildingTemp,      !- EMS Variable Name
    Averaged,                 !- Type of Data in Variable
    ZoneTimeStep;             !- Update Frequency

ENERGYMANAGEMENTSYSTEM:OUTPUTVARIABLE,
    Total Building Heating Power,    !- Name
    TotBuildPow,              !- EMS Variable Name
    Averaged,                 !- Type of Data in Variable
    ZoneTimeStep;             !- Update Frequency

ENERGYMANAGEMENTSYSTEM:OUTPUTVARIABLE,
    Total DHW Heating Power,    !- Name
    TotDHWPow,                !- EMS Variable Name
    Averaged,                 !- Type of Data in Variable
    ZoneTimeStep;             !- Update Frequency

ENERGYMANAGEMENTSYSTEM:INTERNALVARIABLE,
    Vol0,                     !- Name
    Block Build_0_Alt0 Storey 0,    !- Internal Data Index Key Name
    Zone Air Volume;          !- Internal Data Type

ENERGYMANAGEMENTSYSTEM:INTERNALVARIABLE,
    Vol1,                     !- Name
    Block Build_0_Alt0 Storey 1,    !- Internal Data Index Key Name
    Zone Air Volume;          !- Internal Data Type

ENERGYMANAGEMENTSYSTEM:INTERNALVARIABLE,
    Vol2,                     !- Name
    Block Build_0_Alt0 Storey 2,    !- Internal Data Index Key Name
    Zone Air Volume;          !- Internal Data Type

ENERGYMANAGEMENTSYSTEM:INTERNALVARIABLE,
    Vol3,                     !- Name
    Block Build_0_Alt0 Storey 3,    !- Internal Data Index Key Name
    Zone Air Volume;          !- Internal Data Type

ENERGYMANAGEMENTSYSTEM:INTERNALVARIABLE,
    Vol4,                     !- Name
    Block Build_1_Alt0 Storey 0,    !- Internal Data Index Key Name
    Zone Air Volume;          !- Internal Data Type

ENERGYMANAGEMENTSYSTEM:INTERNALVARIABLE,
    Vol5,                     !- Name
    Block Build_1_Alt0 Storey 1,    !- Internal Data Index Key Name
    Zone Air Volume;          !- Internal Data Type

ENERGYMANAGEMENTSYSTEM:INTERNALVARIABLE,
    Vol6,                     !- Name
    Block Build_1_Alt0 Storey 2,    !- Internal Data Index Key Name
    Zone Air Volume;          !- Internal Data Type

ENERGYMANAGEMENTSYSTEM:INTERNALVARIABLE,
    Vol7,                     !- Name
    Block Build_1_Alt0 Storey 3,    !- Internal Data Index Key Name
    Zone Air Volume;          !- Internal Data Type

ENERGYMANAGEMENTSYSTEM:INTERNALVARIABLE,
    Vol8,                     !- Name
    Block Build_1_Alt0 Storey 4,    !- Internal Data Index Key Name
    Zone Air Volume;          !- Internal Data Type

WATERUSE:EQUIPMENT,
    DHW,                      !- Name
    General,                  !- EndUse Subcategory
    1.146686e-08,             !- Peak Flow Rate
    WaterTaps,                !- Flow Rate Fraction Schedule Name
    TargetWaterTemp,          !- Target Temperature Schedule Name
    HotWaterTemp,             !- Hot Water Supply Temperature Schedule Name
    ColdWaterTemp;            !- Cold Water Supply Temperature Schedule Name

Output:VariableDictionary,
    Regular;                  !- Key Field

OUTPUT:ENERGYMANAGEMENTSYSTEM,
    Verbose,                  !- Actuator Availability Dictionary Reporting
    Verbose,                  !- Internal Variable Availability Dictionary Reporting
    Verbose;                  !- EMS Runtime Language Debug Output Level

Output:Table:SummaryReports,
    AllSummary;               !- Report 1 Name

OutputControl:Table:Style,
    HTML;                     !- Column Separator

OUTPUT:VARIABLE,
    *,                        !- Key Value
    Site Outdoor Air Drybulb Temperature,    !- Variable Name
    Annual;                   !- Reporting Frequency

OUTPUT:VARIABLE,
    *,                        !- Key Value
    Site Outdoor Air Relative Humidity,    !- Variable Name
    Annual;                   !- Reporting Frequency

OUTPUT:VARIABLE,
    *,                        !- Key Value
    Site Outdoor Air Barometric Pressure,    !- Variable Name
    Annual;                   !- Reporting Frequency

OUTPUT:VARIABLE,
    *,                        !- Key Value
    Site Wind Speed,          !- Variable Name
    Annual;                   !- Reporting Frequency

OUTPUT:VARIABLE,
    *,                        !- Key Value
    Site Diffuse Solar Radiation Rate per Area,    !- Variable Name
    Annual;                   !- Reporting Frequency

OUTPUT:VARIABLE,
    *,                        !- Key Value
    Site Direct Solar Radiation Rate per Area,    !- Variable Name
    Annual;                   !- Reporting Frequency

OUTPUT:VARIABLE,
    *,                        !- Key Value
    Zone Electric Equipment Electric Power,    !- Variable Name
    Annual;                   !- Reporting Frequency

OUTPUT:VARIABLE,
    *,                        !- Key Value
    Zone Electric Equipment Total Heating Rate,    !- Variable Name
    Annual;                   !- Reporting Frequency

OUTPUT:VARIABLE,
    *,                        !- Key Value
    Zone Windows Total Heat Loss Rate,    !- Variable Name
    Annual;                   !- Reporting Frequency

OUTPUT:VARIABLE,
    *,                        !- Key Value
    Zone Windows Total Heat Loss Energy,    !- Variable Name
    Annual;                   !- Reporting Frequency

OUTPUT:VARIABLE,
    *,                        !- Key Value
    Surface Outside Face Incident Solar Radiation Rate per Area,    !- Variable Name
    Annual;                   !- Reporting Frequency

OUTPUT:VARIABLE,
    *,                        !- Key Value
    Surface Outside Face Incident Beam Solar Radiation Rate per Area,    !- Variable Name
    Annual;                   !- Reporting Frequency

OUTPUT:VARIABLE,
    *,                        !- Key Value
    Surface Outside Face Conduction Heat Transfer Energy,    !- Variable Name
    Annual;                   !- Reporting Frequency

OUTPUT:VARIABLE,
    *,                        !- Key Value
    Zone Ideal Loads Supply Air Total Heating Energy,    !- Variable Name
    Annual;                   !- Reporting Frequency

OUTPUT:VARIABLE,
    *,                        !- Key Value
    Zone Ideal Loads Zone Total Heating Energy,    !- Variable Name
    Annual;                   !- Reporting Frequency

OUTPUT:VARIABLE,
    *,                        !- Key Value
    Zone Ideal Loads Outdoor Air Sensible Heating Energy,    !- Variable Name
    Annual;                   !- Reporting Frequency

OUTPUT:VARIABLE,
    *,                        !- Key Value
    Zone Ideal Loads Outdoor Air Total Heating Energy,    !- Variable Name
    Annual;                   !- Reporting Frequency

OUTPUT:VARIABLE,
    *,                        !- Key Value
    Zone Ideal Loads Heat Recovery Total Heating Energy,    !- Variable Name
    Annual;                   !- Reporting Frequency

OUTPUT:VARIABLE,
    *,                        !- Key Value
    Zone Ideal Loads Supply Air Total Heating Rate,    !- Variable Name
    Annual;                   !- Reporting Frequency

OUTPUT:VARIABLE,
    *,                        !- Key Value
    Water Use Equipment Hot Water Mass Flow Rate,    !- Variable Name
    Annual;                   !- Reporting Frequency

OUTPUT:VARIABLE,
    *,                        !- Key Value
    Water Use Equipment Cold Water Mass Flow Rate,    !- Variable Name
    Annual;                   !- Reporting Frequency

OUTPUT:VARIABLE,
    *,                        !- Key Value
    Water Use Equipment Hot Water Temperature,    !- Variable Name
    Annual;                   !- Reporting Frequency

OUTPUT:VARIABLE,
    *,                        !- Key Value
    Water Use Equipment Cold Water Temperature,    !- Variable Name
    Annual;                   !- Reporting Frequency

OUTPUT:VARIABLE,
    *,                        !- Key Value
    Water Use Equipment Heating Rate,    !- Variable Name
    Annual;                   !- Reporting Frequency

OUTPUT:VARIABLE,
    *,                        !- Key Value
    Environmental Impact Total CO2 Emissions Carbon Equivalent Mass,    !- Variable Name
    Annual;                   !- Reporting Frequency

OUTPUT:VARIABLE,
    *,                        !- Key Value
    Zone Air CO2 Concentration,    !- Variable Name
    Annual;                   !- Reporting Frequency

OUTPUT:VARIABLE,
    *,                        !- Key Value
    Mean Heated Zones Air Temperature,    !- Variable Name
    Annual;                   !- Reporting Frequency

OUTPUT:VARIABLE,
    *,                        !- Key Value
    Total Building Heating Power,    !- Variable Name
    Annual;                   !- Reporting Frequency

OUTPUT:VARIABLE,
    *,                        !- Key Value
    Total DHW Heating Power,    !- Variable Name
    Annual;                   !- Reporting Frequency

OUTPUT:DIAGNOSTICS,
    DISPLAYEXTRAWARNINGS,     !- Key 1
    DisplayAdvancedReportVariables;    !- Key 2