!- Darwin Line endings 

Version,
    9.5;                      !- Version Identifier

SimulationControl,
    No,                       !- Do Zone Sizing Calculation
    No,                       !- Do System Sizing Calculation
    No,                       !- Do Plant Sizing Calculation
    No,                       !- Run Simulation for Sizing Periods
    Yes,                      !- Run Simulation for Weather File Run Periods
    No,                       !- Do HVAC Sizing Simulation for Sizing Periods
    1;                        !- Maximum Number of HVAC Sizing Simulation Passes

Building,
    None,                     !- Name
    0,                        !- North Axis
    Suburbs,                  !- Terrain
    0.04,                     !- Loads Convergence Tolerance Value
    0.4,                      !- Temperature Convergence Tolerance Value
    FullExterior,             !- Solar Distribution
    25,                       !- Maximum Number of Warmup Days
    6;                        !- Minimum Number of Warmup Days

SHADOWCALCULATION,
    PolygonClipping,          !- Shading Calculation Method
    Periodic,                 !- Shading Calculation Update Frequency Method
    20,                       !- Shading Calculation Update Frequency
    25000,                    !- Maximum Figures in Shadow Overlap Calculations
    SutherlandHodgman,        !- Polygon Clipping Algorithm
    512,                      !- Pixel Counting Resolution
    SimpleSkyDiffuseModeling,    !- Sky Diffuse Modeling Algorithm
    No,                       !- Output External Shading Calculation Results
    No,                       !- Disable SelfShading Within Shading Zone Groups
    No;                       !- Disable SelfShading From Shading Zone Groups to Other Zones

Timestep,
    4;                        !- Number of Timesteps per Hour

Site:Location,
    WeatherData/USA_CA_San.Francisco.Intl.AP.724940_TMY3.epw,    !- Name
    37.62,                    !- Latitude
    -122.4,                   !- Longitude
    -8,                       !- Time Zone
    2;                        !- Elevation

SizingPeriod:DesignDay,
    DENVER_STAPLETON Ann Htg 99.6% Condns DB,    !- Name
    12,                       !- Month
    21,                       !- Day of Month
    WinterDesignDay,          !- Day Type
    -20,                      !- Maximum DryBulb Temperature
    0,                        !- Daily DryBulb Temperature Range
    ,                         !- DryBulb Temperature Range Modifier Type
    ,                         !- DryBulb Temperature Range Modifier Day Schedule Name
    Wetbulb,                  !- Humidity Condition Type
    -20,                      !- Wetbulb or DewPoint at Maximum DryBulb
    ,                         !- Humidity Condition Day Schedule Name
    ,                         !- Humidity Ratio at Maximum DryBulb
    ,                         !- Enthalpy at Maximum DryBulb
    ,                         !- Daily WetBulb Temperature Range
    100594,                   !- Barometric Pressure
    2.3,                      !- Wind Speed
    180,                      !- Wind Direction
    No,                       !- Rain Indicator
    No,                       !- Snow Indicator
    No,                       !- Daylight Saving Time Indicator
    ASHRAEClearSky,           !- Solar Model Indicator
    ,                         !- Beam Solar Day Schedule Name
    ,                         !- Diffuse Solar Day Schedule Name
    ,                         !- ASHRAE Clear Sky Optical Depth for Beam Irradiance taub
    ,                         !- ASHRAE Clear Sky Optical Depth for Diffuse Irradiance taud
    0;                        !- Sky Clearness

SizingPeriod:DesignDay,
    DENVER_STAPLETON Ann Clg .4% Condns DB=>MWB,    !- Name
    7,                        !- Month
    21,                       !- Day of Month
    SummerDesignDay,          !- Day Type
    34.1,                     !- Maximum DryBulb Temperature
    15.2,                     !- Daily DryBulb Temperature Range
    ,                         !- DryBulb Temperature Range Modifier Type
    ,                         !- DryBulb Temperature Range Modifier Day Schedule Name
    Wetbulb,                  !- Humidity Condition Type
    15.8,                     !- Wetbulb or DewPoint at Maximum DryBulb
    ,                         !- Humidity Condition Day Schedule Name
    ,                         !- Humidity Ratio at Maximum DryBulb
    ,                         !- Enthalpy at Maximum DryBulb
    ,                         !- Daily WetBulb Temperature Range
    100594,                   !- Barometric Pressure
    4,                        !- Wind Speed
    120,                      !- Wind Direction
    No,                       !- Rain Indicator
    No,                       !- Snow Indicator
    No,                       !- Daylight Saving Time Indicator
    ASHRAEClearSky,           !- Solar Model Indicator
    ,                         !- Beam Solar Day Schedule Name
    ,                         !- Diffuse Solar Day Schedule Name
    ,                         !- ASHRAE Clear Sky Optical Depth for Beam Irradiance taub
    ,                         !- ASHRAE Clear Sky Optical Depth for Diffuse Irradiance taud
    1;                        !- Sky Clearness

RunPeriod,
    Run Period 1,             !- Name
    1,                        !- Begin Month
    1,                        !- Begin Day of Month
    ,                         !- Begin Year
    12,                       !- End Month
    31,                       !- End Day of Month
    ,                         !- End Year
    Tuesday,                  !- Day of Week for Start Day
    Yes,                      !- Use Weather File Holidays and Special Days
    Yes,                      !- Use Weather File Daylight Saving Period
    No,                       !- Apply Weekend Holiday Rule
    Yes,                      !- Use Weather File Rain Indicators
    Yes;                      !- Use Weather File Snow Indicators

SITE:GROUNDTEMPERATURE:BUILDINGSURFACE,
    15,                       !- January Ground Temperature
    15,                       !- February Ground Temperature
    15,                       !- March Ground Temperature
    15,                       !- April Ground Temperature
    15,                       !- May Ground Temperature
    15,                       !- June Ground Temperature
    15,                       !- July Ground Temperature
    15,                       !- August Ground Temperature
    15,                       !- September Ground Temperature
    15,                       !- October Ground Temperature
    15,                       !- November Ground Temperature
    15;                       !- December Ground Temperature

SCHEDULETYPELIMITS,
    Any Number,               !- Name
    ,                         !- Lower Limit Value
    ,                         !- Upper Limit Value
    ,                         !- Numeric Type
    Dimensionless;            !- Unit Type

SCHEDULE:COMPACT,
    AlwaysON,                 !- Name
    Any Number,               !- Schedule Type Limits Name
    Through: 12/31,           !- Field 1
    For: AllDays,             !- Field 2
    Until: 24:00,             !- Field 3
    1;                        !- Field 4

SCHEDULE:COMPACT,
    OccupActivity,            !- Name
    Any Number,               !- Schedule Type Limits Name
    Through: 12/31,           !- Field 1
    For: AllDays,             !- Field 2
    Until: 24:00,             !- Field 3
    70;                       !- Field 4

SCHEDULE:COMPACT,
    HotWaterTemp,             !- Name
    Any Number,               !- Schedule Type Limits Name
    Through: 12/31,           !- Field 1
    For: AllDays,             !- Field 2
    Until: 24:00,             !- Field 3
    55;                       !- Field 4

SCHEDULE:COMPACT,
    TargetWaterTemp,          !- Name
    Any Number,               !- Schedule Type Limits Name
    Through: 12/31,           !- Field 1
    For: AllDays,             !- Field 2
    Until: 24:00,             !- Field 3
    37;                       !- Field 4

SCHEDULE:FILE,
    LoadSchedule,             !- Name
    Any Number,               !- Schedule Type Limits Name
    /Users/alizad/PycharmProjects/mubes-ubem/examples/ForTest/InputFiles/Building5_winter.txt,    !- File Name
    1,                        !- Column Number
    0,                        !- Rows to Skip at Top
    8760,                     !- Number of Hours of Data
    Comma,                    !- Column Separator
    No;                       !- Interpolate to Timestep

SCHEDULE:FILE,
    Watertaps,                !- Name
    Any Number,               !- Schedule Type Limits Name
    /Users/alizad/PycharmProjects/mubes-ubem/examples/ForTest/InputFiles/domestic_hot_water_40_apartments.txt,    !- File Name
    1,                        !- Column Number
    0,                        !- Rows to Skip at Top
    8760,                     !- Number of Hours of Data
    Comma,                    !- Column Separator
    No;                       !- Interpolate to Timestep

SCHEDULE:FILE,
    ColdWaterTemp,            !- Name
    Any Number,               !- Schedule Type Limits Name
    /Users/alizad/PycharmProjects/mubes-ubem/examples/ForTest/InputFiles/cold_water_temperature_stockholm.txt,    !- File Name
    1,                        !- Column Number
    0,                        !- Rows to Skip at Top
    8760,                     !- Number of Hours of Data
    Comma,                    !- Column Separator
    No;                       !- Interpolate to Timestep

MATERIAL,
    DefaultMaterial,          !- Name
    Rough,                    !- Roughness
    0.1,                      !- Thickness
    0.1,                      !- Conductivity
    1000,                     !- Density
    1000,                     !- Specific Heat
    0.9,                      !- Thermal Absorptance
    0.7,                      !- Solar Absorptance
    0.7;                      !- Visible Absorptance

MATERIAL,
    Basement Floor,           !- Name
    Rough,                    !- Roughness
    0.1,                      !- Thickness
    0.9,                      !- Conductivity
    2300,                     !- Density
    1000,                     !- Specific Heat
    0.9,                      !- Thermal Absorptance
    0.7,                      !- Solar Absorptance
    0.7;                      !- Visible Absorptance

MATERIAL,
    Heated1rstFloor Inertia,    !- Name
    Rough,                    !- Roughness
    0.1,                      !- Thickness
    0.9,                      !- Conductivity
    2300,                     !- Density
    1000,                     !- Specific Heat
    0.9,                      !- Thermal Absorptance
    0.7,                      !- Solar Absorptance
    0.7;                      !- Visible Absorptance

MATERIAL,
    Heated1rstFloor Insulation,    !- Name
    Rough,                    !- Roughness
    0.15,                     !- Thickness
    0.035,                    !- Conductivity
    150,                      !- Density
    1000,                     !- Specific Heat
    0.9,                      !- Thermal Absorptance
    0.7,                      !- Solar Absorptance
    0.7;                      !- Visible Absorptance

MATERIAL,
    Roof Insulation,          !- Name
    Rough,                    !- Roughness
    0.3,                      !- Thickness
    0.03,                     !- Conductivity
    150,                      !- Density
    1000,                     !- Specific Heat
    0.9,                      !- Thermal Absorptance
    0.7,                      !- Solar Absorptance
    0.7;                      !- Visible Absorptance

MATERIAL,
    Wall Inertia,             !- Name
    Rough,                    !- Roughness
    0.2,                      !- Thickness
    0.9,                      !- Conductivity
    2300,                     !- Density
    1000,                     !- Specific Heat
    0.9,                      !- Thermal Absorptance
    0.7,                      !- Solar Absorptance
    0.7;                      !- Visible Absorptance

MATERIAL,
    Wall Insulation,          !- Name
    Rough,                    !- Roughness
    0.2,                      !- Thickness
    0.03,                     !- Conductivity
    150,                      !- Density
    1000,                     !- Specific Heat
    0.9,                      !- Thermal Absorptance
    0.7,                      !- Solar Absorptance
    0.7;                      !- Visible Absorptance

MATERIAL,
    HeatedZoneIntMass,        !- Name
    Rough,                    !- Roughness
    0.1,                      !- Thickness
    0.3,                      !- Conductivity
    600,                      !- Density
    1400,                     !- Specific Heat
    0.9,                      !- Thermal Absorptance
    0.7,                      !- Solar Absorptance
    0.7;                      !- Visible Absorptance

MATERIAL,
    NonHeatedZoneIntMass,     !- Name
    Rough,                    !- Roughness
    0.1,                      !- Thickness
    0.3,                      !- Conductivity
    600,                      !- Density
    1400,                     !- Specific Heat
    0.9,                      !- Thermal Absorptance
    0.7,                      !- Solar Absorptance
    0.7;                      !- Visible Absorptance

MATERIAL,
    AirWallMaterial,          !- Name
    MediumSmooth,             !- Roughness
    0.01,                     !- Thickness
    0.6,                      !- Conductivity
    800,                      !- Density
    1000,                     !- Specific Heat
    0.95,                     !- Thermal Absorptance
    0.7,                      !- Solar Absorptance
    0.7;                      !- Visible Absorptance

WINDOWMATERIAL:SIMPLEGLAZINGSYSTEM,
    DefaultGlazing,           !- Name
    2.7,                      !- UFactor
    0.763,                    !- Solar Heat Gain Coefficient
    0.8;                      !- Visible Transmittance

WINDOWMATERIAL:SIMPLEGLAZINGSYSTEM,
    Window,                   !- Name
    1.9,                      !- UFactor
    0.7,                      !- Solar Heat Gain Coefficient
    0.8;                      !- Visible Transmittance

CONSTRUCTION,
    Project Wall,             !- Name
    Wall Inertia,             !- Outside Layer
    Wall Insulation;          !- Layer 2

CONSTRUCTION,
    Project Basement Wall,    !- Name
    Wall Inertia;             !- Outside Layer

CONSTRUCTION,
    Project Partition,        !- Name
    AirWallMaterial;          !- Outside Layer

CONSTRUCTION,
    Project Basement Floor,    !- Name
    Basement Floor;           !- Outside Layer

CONSTRUCTION,
    Project Flat Roof,        !- Name
    Roof Insulation;          !- Outside Layer

CONSTRUCTION,
    Project External Window,    !- Name
    Window;                   !- Outside Layer

CONSTRUCTION,
    Project Heated1rstFloor,    !- Name
    Heated1rstFloor Inertia,    !- Outside Layer
    Heated1rstFloor Insulation;    !- Layer 2

CONSTRUCTION,
    Project Heated1rstFloor Rev,    !- Name
    Heated1rstFloor Insulation,    !- Outside Layer
    Heated1rstFloor Inertia;    !- Layer 2

CONSTRUCTION,
    HeatedZoneIntMassObj,     !- Name
    HeatedZoneIntMass;        !- Outside Layer

CONSTRUCTION,
    NonHeatedZoneIntMassObj,    !- Name
    NonHeatedZoneIntMass;     !- Outside Layer

GlobalGeometryRules,
    UpperLeftCorner,          !- Starting Vertex Position
    CounterClockWise,         !- Vertex Entry Direction
    World;                    !- Coordinate System

ZONE,
    Block Build0_Alt0 Storey -1,    !- Name
    0,                        !- Direction of Relative North
    0,                        !- X Origin
    0,                        !- Y Origin
    0,                        !- Z Origin
    1,                        !- Type
    1,                        !- Multiplier
    autocalculate,            !- Ceiling Height
    autocalculate,            !- Volume
    autocalculate,            !- Floor Area
    ,                         !- Zone Inside Convection Algorithm
    ,                         !- Zone Outside Convection Algorithm
    Yes;                      !- Part of Total Floor Area

ZONE,
    Block Build0_Alt0 Storey 0,    !- Name
    0,                        !- Direction of Relative North
    0,                        !- X Origin
    0,                        !- Y Origin
    0,                        !- Z Origin
    1,                        !- Type
    1,                        !- Multiplier
    autocalculate,            !- Ceiling Height
    autocalculate,            !- Volume
    autocalculate,            !- Floor Area
    ,                         !- Zone Inside Convection Algorithm
    ,                         !- Zone Outside Convection Algorithm
    Yes;                      !- Part of Total Floor Area

ZONE,
    Block Build1_Alt0 Storey -1,    !- Name
    0,                        !- Direction of Relative North
    0,                        !- X Origin
    0,                        !- Y Origin
    0,                        !- Z Origin
    1,                        !- Type
    1,                        !- Multiplier
    autocalculate,            !- Ceiling Height
    autocalculate,            !- Volume
    autocalculate,            !- Floor Area
    ,                         !- Zone Inside Convection Algorithm
    ,                         !- Zone Outside Convection Algorithm
    Yes;                      !- Part of Total Floor Area

ZONE,
    Block Build1_Alt0 Storey 0,    !- Name
    0,                        !- Direction of Relative North
    0,                        !- X Origin
    0,                        !- Y Origin
    0,                        !- Z Origin
    1,                        !- Type
    1,                        !- Multiplier
    autocalculate,            !- Ceiling Height
    autocalculate,            !- Volume
    autocalculate,            !- Floor Area
    ,                         !- Zone Inside Convection Algorithm
    ,                         !- Zone Outside Convection Algorithm
    Yes;                      !- Part of Total Floor Area

ZONE,
    Block Build2_Alt0 Storey -1,    !- Name
    0,                        !- Direction of Relative North
    0,                        !- X Origin
    0,                        !- Y Origin
    0,                        !- Z Origin
    1,                        !- Type
    1,                        !- Multiplier
    autocalculate,            !- Ceiling Height
    autocalculate,            !- Volume
    autocalculate,            !- Floor Area
    ,                         !- Zone Inside Convection Algorithm
    ,                         !- Zone Outside Convection Algorithm
    Yes;                      !- Part of Total Floor Area

ZONE,
    Block Build2_Alt0 Storey 0,    !- Name
    0,                        !- Direction of Relative North
    0,                        !- X Origin
    0,                        !- Y Origin
    0,                        !- Z Origin
    1,                        !- Type
    1,                        !- Multiplier
    autocalculate,            !- Ceiling Height
    autocalculate,            !- Volume
    autocalculate,            !- Floor Area
    ,                         !- Zone Inside Convection Algorithm
    ,                         !- Zone Outside Convection Algorithm
    Yes;                      !- Part of Total Floor Area

BUILDINGSURFACE:DETAILED,
    Block Build0_Alt0 Storey -1 Wall 0001,    !- Name
    wall,                     !- Surface Type
    Project Basement Wall,    !- Construction Name
    Block Build0_Alt0 Storey -1,    !- Zone Name
    ground,                   !- Outside Boundary Condition
    ,                         !- Outside Boundary Condition Object
    NoSun,                    !- Sun Exposure
    NoWind,                   !- Wind Exposure
    autocalculate,            !- View Factor to Ground
    autocalculate,            !- Number of Vertices
    16.768,                   !- Vertex 1 Xcoordinate
    -3.2955,                  !- Vertex 1 Ycoordinate
    0,                        !- Vertex 1 Zcoordinate
    16.768,                   !- Vertex 2 Xcoordinate
    -3.2955,                  !- Vertex 2 Ycoordinate
    -2.5,                     !- Vertex 2 Zcoordinate
    17.4325,                  !- Vertex 3 Xcoordinate
    5.7474,                   !- Vertex 3 Ycoordinate
    -2.5,                     !- Vertex 3 Zcoordinate
    17.4325,                  !- Vertex 4 Xcoordinate
    5.7474,                   !- Vertex 4 Ycoordinate
    0;                        !- Vertex 4 Zcoordinate

BUILDINGSURFACE:DETAILED,
    Block Build0_Alt0 Storey -1 Wall 0002,    !- Name
    wall,                     !- Surface Type
    Project Basement Wall,    !- Construction Name
    Block Build0_Alt0 Storey -1,    !- Zone Name
    ground,                   !- Outside Boundary Condition
    ,                         !- Outside Boundary Condition Object
    NoSun,                    !- Sun Exposure
    NoWind,                   !- Wind Exposure
    autocalculate,            !- View Factor to Ground
    autocalculate,            !- Number of Vertices
    17.4325,                  !- Vertex 1 Xcoordinate
    5.7474,                   !- Vertex 1 Ycoordinate
    0,                        !- Vertex 1 Zcoordinate
    17.4325,                  !- Vertex 2 Xcoordinate
    5.7474,                   !- Vertex 2 Ycoordinate
    -2.5,                     !- Vertex 2 Zcoordinate
    21.4205,                  !- Vertex 3 Xcoordinate
    5.4444,                   !- Vertex 3 Ycoordinate
    -2.5,                     !- Vertex 3 Zcoordinate
    21.4205,                  !- Vertex 4 Xcoordinate
    5.4444,                   !- Vertex 4 Ycoordinate
    0;                        !- Vertex 4 Zcoordinate

BUILDINGSURFACE:DETAILED,
    Block Build0_Alt0 Storey -1 Wall 0003,    !- Name
    wall,                     !- Surface Type
    Project Basement Wall,    !- Construction Name
    Block Build0_Alt0 Storey -1,    !- Zone Name
    ground,                   !- Outside Boundary Condition
    ,                         !- Outside Boundary Condition Object
    NoSun,                    !- Sun Exposure
    NoWind,                   !- Wind Exposure
    autocalculate,            !- View Factor to Ground
    autocalculate,            !- Number of Vertices
    21.4205,                  !- Vertex 1 Xcoordinate
    5.4444,                   !- Vertex 1 Ycoordinate
    0,                        !- Vertex 1 Zcoordinate
    21.4205,                  !- Vertex 2 Xcoordinate
    5.4444,                   !- Vertex 2 Ycoordinate
    -2.5,                     !- Vertex 2 Zcoordinate
    21.9615,                  !- Vertex 3 Xcoordinate
    12.5754,                  !- Vertex 3 Ycoordinate
    -2.5,                     !- Vertex 3 Zcoordinate
    21.9615,                  !- Vertex 4 Xcoordinate
    12.5754,                  !- Vertex 4 Ycoordinate
    0;                        !- Vertex 4 Zcoordinate

BUILDINGSURFACE:DETAILED,
    Block Build0_Alt0 Storey -1 Wall 0004,    !- Name
    wall,                     !- Surface Type
    Project Basement Wall,    !- Construction Name
    Block Build0_Alt0 Storey -1,    !- Zone Name
    ground,                   !- Outside Boundary Condition
    ,                         !- Outside Boundary Condition Object
    NoSun,                    !- Sun Exposure
    NoWind,                   !- Wind Exposure
    autocalculate,            !- View Factor to Ground
    autocalculate,            !- Number of Vertices
    21.9615,                  !- Vertex 1 Xcoordinate
    12.5754,                  !- Vertex 1 Ycoordinate
    0,                        !- Vertex 1 Zcoordinate
    21.9615,                  !- Vertex 2 Xcoordinate
    12.5754,                  !- Vertex 2 Ycoordinate
    -2.5,                     !- Vertex 2 Zcoordinate
    17.0095,                  !- Vertex 3 Xcoordinate
    13.0144,                  !- Vertex 3 Ycoordinate
    -2.5,                     !- Vertex 3 Zcoordinate
    17.0095,                  !- Vertex 4 Xcoordinate
    13.0144,                  !- Vertex 4 Ycoordinate
    0;                        !- Vertex 4 Zcoordinate

BUILDINGSURFACE:DETAILED,
    Block Build0_Alt0 Storey -1 Wall 0005,    !- Name
    wall,                     !- Surface Type
    Project Basement Wall,    !- Construction Name
    Block Build0_Alt0 Storey -1,    !- Zone Name
    ground,                   !- Outside Boundary Condition
    ,                         !- Outside Boundary Condition Object
    NoSun,                    !- Sun Exposure
    NoWind,                   !- Wind Exposure
    autocalculate,            !- View Factor to Ground
    autocalculate,            !- Number of Vertices
    17.0095,                  !- Vertex 1 Xcoordinate
    13.0144,                  !- Vertex 1 Ycoordinate
    0,                        !- Vertex 1 Zcoordinate
    17.0095,                  !- Vertex 2 Xcoordinate
    13.0144,                  !- Vertex 2 Ycoordinate
    -2.5,                     !- Vertex 2 Zcoordinate
    10.4099,                  !- Vertex 3 Xcoordinate
    20.6738,                  !- Vertex 3 Ycoordinate
    -2.5,                     !- Vertex 3 Zcoordinate
    10.4099,                  !- Vertex 4 Xcoordinate
    20.6738,                  !- Vertex 4 Ycoordinate
    0;                        !- Vertex 4 Zcoordinate

BUILDINGSURFACE:DETAILED,
    Block Build0_Alt0 Storey -1 Wall 0007,    !- Name
    wall,                     !- Surface Type
    Project Basement Wall,    !- Construction Name
    Block Build0_Alt0 Storey -1,    !- Zone Name
    ground,                   !- Outside Boundary Condition
    ,                         !- Outside Boundary Condition Object
    NoSun,                    !- Sun Exposure
    NoWind,                   !- Wind Exposure
    autocalculate,            !- View Factor to Ground
    autocalculate,            !- Number of Vertices
    2.9659,                   !- Vertex 1 Xcoordinate
    13.7839,                  !- Vertex 1 Ycoordinate
    0,                        !- Vertex 1 Zcoordinate
    2.9659,                   !- Vertex 2 Xcoordinate
    13.7839,                  !- Vertex 2 Ycoordinate
    -2.5,                     !- Vertex 2 Zcoordinate
    7.9495,                   !- Vertex 3 Xcoordinate
    8.0374,                   !- Vertex 3 Ycoordinate
    -2.5,                     !- Vertex 3 Zcoordinate
    7.9495,                   !- Vertex 4 Xcoordinate
    8.0374,                   !- Vertex 4 Ycoordinate
    0;                        !- Vertex 4 Zcoordinate

BUILDINGSURFACE:DETAILED,
    Block Build0_Alt0 Storey -1 Wall 0008,    !- Name
    wall,                     !- Surface Type
    Project Basement Wall,    !- Construction Name
    Block Build0_Alt0 Storey -1,    !- Zone Name
    ground,                   !- Outside Boundary Condition
    ,                         !- Outside Boundary Condition Object
    NoSun,                    !- Sun Exposure
    NoWind,                   !- Wind Exposure
    autocalculate,            !- View Factor to Ground
    autocalculate,            !- Number of Vertices
    7.9495,                   !- Vertex 1 Xcoordinate
    8.0374,                   !- Vertex 1 Ycoordinate
    0,                        !- Vertex 1 Zcoordinate
    7.9495,                   !- Vertex 2 Xcoordinate
    8.0374,                   !- Vertex 2 Ycoordinate
    -2.5,                     !- Vertex 2 Zcoordinate
    7.1327,                   !- Vertex 3 Xcoordinate
    -2.6747,                  !- Vertex 3 Ycoordinate
    -2.5,                     !- Vertex 3 Zcoordinate
    7.1327,                   !- Vertex 4 Xcoordinate
    -2.6747,                  !- Vertex 4 Ycoordinate
    0;                        !- Vertex 4 Zcoordinate

BUILDINGSURFACE:DETAILED,
    Block Build0_Alt0 Storey -1 Floor 0001,    !- Name
    floor,                    !- Surface Type
    Project Basement Floor,    !- Construction Name
    Block Build0_Alt0 Storey -1,    !- Zone Name
    ground,                   !- Outside Boundary Condition
    ,                         !- Outside Boundary Condition Object
    NoSun,                    !- Sun Exposure
    NoWind,                   !- Wind Exposure
    autocalculate,            !- View Factor to Ground
    autocalculate,            !- Number of Vertices
    21.9615,                  !- Vertex 1 Xcoordinate
    12.5754,                  !- Vertex 1 Ycoordinate
    -2.5,                     !- Vertex 1 Zcoordinate
    21.4205,                  !- Vertex 2 Xcoordinate
    5.4444,                   !- Vertex 2 Ycoordinate
    -2.5,                     !- Vertex 2 Zcoordinate
    17.4325,                  !- Vertex 3 Xcoordinate
    5.7474,                   !- Vertex 3 Ycoordinate
    -2.5,                     !- Vertex 3 Zcoordinate
    16.768,                   !- Vertex 4 Xcoordinate
    -3.2955,                  !- Vertex 4 Ycoordinate
    -2.5,                     !- Vertex 4 Zcoordinate
    7.1327,                   !- Vertex 5 Xcoordinate
    -2.6747,                  !- Vertex 5 Ycoordinate
    -2.5,                     !- Vertex 5 Zcoordinate
    7.9495,                   !- Vertex 6 Xcoordinate
    8.0374,                   !- Vertex 6 Ycoordinate
    -2.5,                     !- Vertex 6 Zcoordinate
    2.9659,                   !- Vertex 7 Xcoordinate
    13.7839,                  !- Vertex 7 Ycoordinate
    -2.5,                     !- Vertex 7 Zcoordinate
    10.4099,                  !- Vertex 8 Xcoordinate
    20.6738,                  !- Vertex 8 Ycoordinate
    -2.5,                     !- Vertex 8 Zcoordinate
    17.0095,                  !- Vertex 9 Xcoordinate
    13.0144,                  !- Vertex 9 Ycoordinate
    -2.5;                     !- Vertex 9 Zcoordinate

BUILDINGSURFACE:DETAILED,
    Block Build0_Alt0 Storey 0 Wall 0001,    !- Name
    wall,                     !- Surface Type
    Project Wall,             !- Construction Name
    Block Build0_Alt0 Storey 0,    !- Zone Name
    outdoors,                 !- Outside Boundary Condition
    ,                         !- Outside Boundary Condition Object
    SunExposed,               !- Sun Exposure
    WindExposed,              !- Wind Exposure
    autocalculate,            !- View Factor to Ground
    autocalculate,            !- Number of Vertices
    16.768,                   !- Vertex 1 Xcoordinate
    -3.2955,                  !- Vertex 1 Ycoordinate
    12,                       !- Vertex 1 Zcoordinate
    16.768,                   !- Vertex 2 Xcoordinate
    -3.2955,                  !- Vertex 2 Ycoordinate
    0,                        !- Vertex 2 Zcoordinate
    17.4325,                  !- Vertex 3 Xcoordinate
    5.7474,                   !- Vertex 3 Ycoordinate
    0,                        !- Vertex 3 Zcoordinate
    17.4325,                  !- Vertex 4 Xcoordinate
    5.7474,                   !- Vertex 4 Ycoordinate
    12;                       !- Vertex 4 Zcoordinate

BUILDINGSURFACE:DETAILED,
    Block Build0_Alt0 Storey 0 Wall 0002,    !- Name
    wall,                     !- Surface Type
    Project Wall,             !- Construction Name
    Block Build0_Alt0 Storey 0,    !- Zone Name
    outdoors,                 !- Outside Boundary Condition
    ,                         !- Outside Boundary Condition Object
    SunExposed,               !- Sun Exposure
    WindExposed,              !- Wind Exposure
    autocalculate,            !- View Factor to Ground
    autocalculate,            !- Number of Vertices
    17.4325,                  !- Vertex 1 Xcoordinate
    5.7474,                   !- Vertex 1 Ycoordinate
    12,                       !- Vertex 1 Zcoordinate
    17.4325,                  !- Vertex 2 Xcoordinate
    5.7474,                   !- Vertex 2 Ycoordinate
    0,                        !- Vertex 2 Zcoordinate
    21.4205,                  !- Vertex 3 Xcoordinate
    5.4444,                   !- Vertex 3 Ycoordinate
    0,                        !- Vertex 3 Zcoordinate
    21.4205,                  !- Vertex 4 Xcoordinate
    5.4444,                   !- Vertex 4 Ycoordinate
    12;                       !- Vertex 4 Zcoordinate

BUILDINGSURFACE:DETAILED,
    Block Build0_Alt0 Storey 0 Wall 0003,    !- Name
    wall,                     !- Surface Type
    Project Wall,             !- Construction Name
    Block Build0_Alt0 Storey 0,    !- Zone Name
    outdoors,                 !- Outside Boundary Condition
    ,                         !- Outside Boundary Condition Object
    SunExposed,               !- Sun Exposure
    WindExposed,              !- Wind Exposure
    autocalculate,            !- View Factor to Ground
    autocalculate,            !- Number of Vertices
    21.4205,                  !- Vertex 1 Xcoordinate
    5.4444,                   !- Vertex 1 Ycoordinate
    12,                       !- Vertex 1 Zcoordinate
    21.4205,                  !- Vertex 2 Xcoordinate
    5.4444,                   !- Vertex 2 Ycoordinate
    0,                        !- Vertex 2 Zcoordinate
    21.9615,                  !- Vertex 3 Xcoordinate
    12.5754,                  !- Vertex 3 Ycoordinate
    0,                        !- Vertex 3 Zcoordinate
    21.9615,                  !- Vertex 4 Xcoordinate
    12.5754,                  !- Vertex 4 Ycoordinate
    12;                       !- Vertex 4 Zcoordinate

BUILDINGSURFACE:DETAILED,
    Block Build0_Alt0 Storey 0 Wall 0004,    !- Name
    wall,                     !- Surface Type
    Project Wall,             !- Construction Name
    Block Build0_Alt0 Storey 0,    !- Zone Name
    outdoors,                 !- Outside Boundary Condition
    ,                         !- Outside Boundary Condition Object
    SunExposed,               !- Sun Exposure
    WindExposed,              !- Wind Exposure
    autocalculate,            !- View Factor to Ground
    autocalculate,            !- Number of Vertices
    21.9615,                  !- Vertex 1 Xcoordinate
    12.5754,                  !- Vertex 1 Ycoordinate
    12,                       !- Vertex 1 Zcoordinate
    21.9615,                  !- Vertex 2 Xcoordinate
    12.5754,                  !- Vertex 2 Ycoordinate
    0,                        !- Vertex 2 Zcoordinate
    17.0095,                  !- Vertex 3 Xcoordinate
    13.0144,                  !- Vertex 3 Ycoordinate
    0,                        !- Vertex 3 Zcoordinate
    17.0095,                  !- Vertex 4 Xcoordinate
    13.0144,                  !- Vertex 4 Ycoordinate
    12;                       !- Vertex 4 Zcoordinate

BUILDINGSURFACE:DETAILED,
    Block Build0_Alt0 Storey 0 Wall 0005,    !- Name
    wall,                     !- Surface Type
    Project Wall,             !- Construction Name
    Block Build0_Alt0 Storey 0,    !- Zone Name
    outdoors,                 !- Outside Boundary Condition
    ,                         !- Outside Boundary Condition Object
    SunExposed,               !- Sun Exposure
    WindExposed,              !- Wind Exposure
    autocalculate,            !- View Factor to Ground
    autocalculate,            !- Number of Vertices
    17.0095,                  !- Vertex 1 Xcoordinate
    13.0144,                  !- Vertex 1 Ycoordinate
    12,                       !- Vertex 1 Zcoordinate
    17.0095,                  !- Vertex 2 Xcoordinate
    13.0144,                  !- Vertex 2 Ycoordinate
    0,                        !- Vertex 2 Zcoordinate
    10.4099,                  !- Vertex 3 Xcoordinate
    20.6738,                  !- Vertex 3 Ycoordinate
    0,                        !- Vertex 3 Zcoordinate
    10.4099,                  !- Vertex 4 Xcoordinate
    20.6738,                  !- Vertex 4 Ycoordinate
    12;                       !- Vertex 4 Zcoordinate

BUILDINGSURFACE:DETAILED,
    Block Build0_Alt0 Storey 0 Wall 0007,    !- Name
    wall,                     !- Surface Type
    Project Wall,             !- Construction Name
    Block Build0_Alt0 Storey 0,    !- Zone Name
    outdoors,                 !- Outside Boundary Condition
    ,                         !- Outside Boundary Condition Object
    SunExposed,               !- Sun Exposure
    WindExposed,              !- Wind Exposure
    autocalculate,            !- View Factor to Ground
    autocalculate,            !- Number of Vertices
    2.9659,                   !- Vertex 1 Xcoordinate
    13.7839,                  !- Vertex 1 Ycoordinate
    12,                       !- Vertex 1 Zcoordinate
    2.9659,                   !- Vertex 2 Xcoordinate
    13.7839,                  !- Vertex 2 Ycoordinate
    0,                        !- Vertex 2 Zcoordinate
    7.9495,                   !- Vertex 3 Xcoordinate
    8.0374,                   !- Vertex 3 Ycoordinate
    0,                        !- Vertex 3 Zcoordinate
    7.9495,                   !- Vertex 4 Xcoordinate
    8.0374,                   !- Vertex 4 Ycoordinate
    12;                       !- Vertex 4 Zcoordinate

BUILDINGSURFACE:DETAILED,
    Block Build0_Alt0 Storey 0 Wall 0008,    !- Name
    wall,                     !- Surface Type
    Project Wall,             !- Construction Name
    Block Build0_Alt0 Storey 0,    !- Zone Name
    outdoors,                 !- Outside Boundary Condition
    ,                         !- Outside Boundary Condition Object
    SunExposed,               !- Sun Exposure
    WindExposed,              !- Wind Exposure
    autocalculate,            !- View Factor to Ground
    autocalculate,            !- Number of Vertices
    7.9495,                   !- Vertex 1 Xcoordinate
    8.0374,                   !- Vertex 1 Ycoordinate
    12,                       !- Vertex 1 Zcoordinate
    7.9495,                   !- Vertex 2 Xcoordinate
    8.0374,                   !- Vertex 2 Ycoordinate
    0,                        !- Vertex 2 Zcoordinate
    7.1327,                   !- Vertex 3 Xcoordinate
    -2.6747,                  !- Vertex 3 Ycoordinate
    0,                        !- Vertex 3 Zcoordinate
    7.1327,                   !- Vertex 4 Xcoordinate
    -2.6747,                  !- Vertex 4 Ycoordinate
    12;                       !- Vertex 4 Zcoordinate

BUILDINGSURFACE:DETAILED,
    Block Build1_Alt0 Storey -1 Wall 0002,    !- Name
    wall,                     !- Surface Type
    Project Basement Wall,    !- Construction Name
    Block Build1_Alt0 Storey -1,    !- Zone Name
    ground,                   !- Outside Boundary Condition
    ,                         !- Outside Boundary Condition Object
    NoSun,                    !- Sun Exposure
    NoWind,                   !- Wind Exposure
    autocalculate,            !- View Factor to Ground
    autocalculate,            !- Number of Vertices
    7.1327,                   !- Vertex 1 Xcoordinate
    -2.6747,                  !- Vertex 1 Ycoordinate
    0,                        !- Vertex 1 Zcoordinate
    7.1327,                   !- Vertex 2 Xcoordinate
    -2.6747,                  !- Vertex 2 Ycoordinate
    -2.5,                     !- Vertex 2 Zcoordinate
    6.5345,                   !- Vertex 3 Xcoordinate
    -10.5196,                 !- Vertex 3 Ycoordinate
    -2.5,                     !- Vertex 3 Zcoordinate
    6.5345,                   !- Vertex 4 Xcoordinate
    -10.5196,                 !- Vertex 4 Ycoordinate
    0;                        !- Vertex 4 Zcoordinate

BUILDINGSURFACE:DETAILED,
    Block Build1_Alt0 Storey -1 Wall 0003,    !- Name
    wall,                     !- Surface Type
    Project Basement Wall,    !- Construction Name
    Block Build1_Alt0 Storey -1,    !- Zone Name
    ground,                   !- Outside Boundary Condition
    ,                         !- Outside Boundary Condition Object
    NoSun,                    !- Sun Exposure
    NoWind,                   !- Wind Exposure
    autocalculate,            !- View Factor to Ground
    autocalculate,            !- Number of Vertices
    6.5345,                   !- Vertex 1 Xcoordinate
    -10.5196,                 !- Vertex 1 Ycoordinate
    0,                        !- Vertex 1 Zcoordinate
    6.5345,                   !- Vertex 2 Xcoordinate
    -10.5196,                 !- Vertex 2 Ycoordinate
    -2.5,                     !- Vertex 2 Zcoordinate
    -2.8835,                  !- Vertex 3 Xcoordinate
    -9.8186,                  !- Vertex 3 Ycoordinate
    -2.5,                     !- Vertex 3 Zcoordinate
    -2.8835,                  !- Vertex 4 Xcoordinate
    -9.8186,                  !- Vertex 4 Ycoordinate
    0;                        !- Vertex 4 Zcoordinate

BUILDINGSURFACE:DETAILED,
    Block Build1_Alt0 Storey -1 Wall 0004,    !- Name
    wall,                     !- Surface Type
    Project Basement Wall,    !- Construction Name
    Block Build1_Alt0 Storey -1,    !- Zone Name
    ground,                   !- Outside Boundary Condition
    ,                         !- Outside Boundary Condition Object
    NoSun,                    !- Sun Exposure
    NoWind,                   !- Wind Exposure
    autocalculate,            !- View Factor to Ground
    autocalculate,            !- Number of Vertices
    -2.8835,                  !- Vertex 1 Xcoordinate
    -9.8186,                  !- Vertex 1 Ycoordinate
    0,                        !- Vertex 1 Zcoordinate
    -2.8835,                  !- Vertex 2 Xcoordinate
    -9.8186,                  !- Vertex 2 Ycoordinate
    -2.5,                     !- Vertex 2 Zcoordinate
    -3.8285,                  !- Vertex 3 Xcoordinate
    -22.4436,                 !- Vertex 3 Ycoordinate
    -2.5,                     !- Vertex 3 Zcoordinate
    -3.8285,                  !- Vertex 4 Xcoordinate
    -22.4436,                 !- Vertex 4 Ycoordinate
    0;                        !- Vertex 4 Zcoordinate

BUILDINGSURFACE:DETAILED,
    Block Build1_Alt0 Storey -1 Wall 0005,    !- Name
    wall,                     !- Surface Type
    Project Basement Wall,    !- Construction Name
    Block Build1_Alt0 Storey -1,    !- Zone Name
    ground,                   !- Outside Boundary Condition
    ,                         !- Outside Boundary Condition Object
    NoSun,                    !- Sun Exposure
    NoWind,                   !- Wind Exposure
    autocalculate,            !- View Factor to Ground
    autocalculate,            !- Number of Vertices
    -3.8285,                  !- Vertex 1 Xcoordinate
    -22.4436,                 !- Vertex 1 Ycoordinate
    0,                        !- Vertex 1 Zcoordinate
    -3.8285,                  !- Vertex 2 Xcoordinate
    -22.4436,                 !- Vertex 2 Ycoordinate
    -2.5,                     !- Vertex 2 Zcoordinate
    5.5635,                   !- Vertex 3 Xcoordinate
    -23.1576,                 !- Vertex 3 Ycoordinate
    -2.5,                     !- Vertex 3 Zcoordinate
    5.5635,                   !- Vertex 4 Xcoordinate
    -23.1576,                 !- Vertex 4 Ycoordinate
    0;                        !- Vertex 4 Zcoordinate

BUILDINGSURFACE:DETAILED,
    Block Build1_Alt0 Storey -1 Wall 0006,    !- Name
    wall,                     !- Surface Type
    Project Basement Wall,    !- Construction Name
    Block Build1_Alt0 Storey -1,    !- Zone Name
    ground,                   !- Outside Boundary Condition
    ,                         !- Outside Boundary Condition Object
    NoSun,                    !- Sun Exposure
    NoWind,                   !- Wind Exposure
    autocalculate,            !- View Factor to Ground
    autocalculate,            !- Number of Vertices
    5.5635,                   !- Vertex 1 Xcoordinate
    -23.1576,                 !- Vertex 1 Ycoordinate
    0,                        !- Vertex 1 Zcoordinate
    5.5635,                   !- Vertex 2 Xcoordinate
    -23.1576,                 !- Vertex 2 Ycoordinate
    -2.5,                     !- Vertex 2 Zcoordinate
    5.0475,                   !- Vertex 3 Xcoordinate
    -30.7896,                 !- Vertex 3 Ycoordinate
    -2.5,                     !- Vertex 3 Zcoordinate
    5.0475,                   !- Vertex 4 Xcoordinate
    -30.7896,                 !- Vertex 4 Ycoordinate
    0;                        !- Vertex 4 Zcoordinate

BUILDINGSURFACE:DETAILED,
    Block Build1_Alt0 Storey -1 Wall 0007,    !- Name
    wall,                     !- Surface Type
    Project Basement Wall,    !- Construction Name
    Block Build1_Alt0 Storey -1,    !- Zone Name
    ground,                   !- Outside Boundary Condition
    ,                         !- Outside Boundary Condition Object
    NoSun,                    !- Sun Exposure
    NoWind,                   !- Wind Exposure
    autocalculate,            !- View Factor to Ground
    autocalculate,            !- Number of Vertices
    5.0475,                   !- Vertex 1 Xcoordinate
    -30.7896,                 !- Vertex 1 Ycoordinate
    0,                        !- Vertex 1 Zcoordinate
    5.0475,                   !- Vertex 2 Xcoordinate
    -30.7896,                 !- Vertex 2 Ycoordinate
    -2.5,                     !- Vertex 2 Zcoordinate
    15.1115,                  !- Vertex 3 Xcoordinate
    -31.5626,                 !- Vertex 3 Ycoordinate
    -2.5,                     !- Vertex 3 Zcoordinate
    15.1115,                  !- Vertex 4 Xcoordinate
    -31.5626,                 !- Vertex 4 Ycoordinate
    0;                        !- Vertex 4 Zcoordinate

BUILDINGSURFACE:DETAILED,
    Block Build1_Alt0 Storey -1 Wall 0008,    !- Name
    wall,                     !- Surface Type
    Project Basement Wall,    !- Construction Name
    Block Build1_Alt0 Storey -1,    !- Zone Name
    ground,                   !- Outside Boundary Condition
    ,                         !- Outside Boundary Condition Object
    NoSun,                    !- Sun Exposure
    NoWind,                   !- Wind Exposure
    autocalculate,            !- View Factor to Ground
    autocalculate,            !- Number of Vertices
    15.1115,                  !- Vertex 1 Xcoordinate
    -31.5626,                 !- Vertex 1 Ycoordinate
    0,                        !- Vertex 1 Zcoordinate
    15.1115,                  !- Vertex 2 Xcoordinate
    -31.5626,                 !- Vertex 2 Ycoordinate
    -2.5,                     !- Vertex 2 Zcoordinate
    15.7135,                  !- Vertex 3 Xcoordinate
    -22.6236,                 !- Vertex 3 Ycoordinate
    -2.5,                     !- Vertex 3 Zcoordinate
    15.7135,                  !- Vertex 4 Xcoordinate
    -22.6236,                 !- Vertex 4 Ycoordinate
    0;                        !- Vertex 4 Zcoordinate

BUILDINGSURFACE:DETAILED,
    Block Build1_Alt0 Storey -1 Wall 0009,    !- Name
    wall,                     !- Surface Type
    Project Basement Wall,    !- Construction Name
    Block Build1_Alt0 Storey -1,    !- Zone Name
    ground,                   !- Outside Boundary Condition
    ,                         !- Outside Boundary Condition Object
    NoSun,                    !- Sun Exposure
    NoWind,                   !- Wind Exposure
    autocalculate,            !- View Factor to Ground
    autocalculate,            !- Number of Vertices
    15.7135,                  !- Vertex 1 Xcoordinate
    -22.6236,                 !- Vertex 1 Ycoordinate
    0,                        !- Vertex 1 Zcoordinate
    15.7135,                  !- Vertex 2 Xcoordinate
    -22.6236,                 !- Vertex 2 Ycoordinate
    -2.5,                     !- Vertex 2 Zcoordinate
    23.1685,                  !- Vertex 3 Xcoordinate
    -23.1946,                 !- Vertex 3 Ycoordinate
    -2.5,                     !- Vertex 3 Zcoordinate
    23.1685,                  !- Vertex 4 Xcoordinate
    -23.1946,                 !- Vertex 4 Ycoordinate
    0;                        !- Vertex 4 Zcoordinate

BUILDINGSURFACE:DETAILED,
    Block Build1_Alt0 Storey -1 Wall 0010,    !- Name
    wall,                     !- Surface Type
    Project Basement Wall,    !- Construction Name
    Block Build1_Alt0 Storey -1,    !- Zone Name
    ground,                   !- Outside Boundary Condition
    ,                         !- Outside Boundary Condition Object
    NoSun,                    !- Sun Exposure
    NoWind,                   !- Wind Exposure
    autocalculate,            !- View Factor to Ground
    autocalculate,            !- Number of Vertices
    23.1685,                  !- Vertex 1 Xcoordinate
    -23.1946,                 !- Vertex 1 Ycoordinate
    0,                        !- Vertex 1 Zcoordinate
    23.1685,                  !- Vertex 2 Xcoordinate
    -23.1946,                 !- Vertex 2 Ycoordinate
    -2.5,                     !- Vertex 2 Zcoordinate
    23.9515,                  !- Vertex 3 Xcoordinate
    -13.1056,                 !- Vertex 3 Ycoordinate
    -2.5,                     !- Vertex 3 Zcoordinate
    23.9515,                  !- Vertex 4 Xcoordinate
    -13.1056,                 !- Vertex 4 Ycoordinate
    0;                        !- Vertex 4 Zcoordinate

BUILDINGSURFACE:DETAILED,
    Block Build1_Alt0 Storey -1 Wall 0011,    !- Name
    wall,                     !- Surface Type
    Project Basement Wall,    !- Construction Name
    Block Build1_Alt0 Storey -1,    !- Zone Name
    ground,                   !- Outside Boundary Condition
    ,                         !- Outside Boundary Condition Object
    NoSun,                    !- Sun Exposure
    NoWind,                   !- Wind Exposure
    autocalculate,            !- View Factor to Ground
    autocalculate,            !- Number of Vertices
    23.9515,                  !- Vertex 1 Xcoordinate
    -13.1056,                 !- Vertex 1 Ycoordinate
    0,                        !- Vertex 1 Zcoordinate
    23.9515,                  !- Vertex 2 Xcoordinate
    -13.1056,                 !- Vertex 2 Ycoordinate
    -2.5,                     !- Vertex 2 Zcoordinate
    16.0845,                  !- Vertex 3 Xcoordinate
    -12.5976,                 !- Vertex 3 Ycoordinate
    -2.5,                     !- Vertex 3 Zcoordinate
    16.0845,                  !- Vertex 4 Xcoordinate
    -12.5976,                 !- Vertex 4 Ycoordinate
    0;                        !- Vertex 4 Zcoordinate

BUILDINGSURFACE:DETAILED,
    Block Build1_Alt0 Storey -1 Wall 0012,    !- Name
    wall,                     !- Surface Type
    Project Basement Wall,    !- Construction Name
    Block Build1_Alt0 Storey -1,    !- Zone Name
    ground,                   !- Outside Boundary Condition
    ,                         !- Outside Boundary Condition Object
    NoSun,                    !- Sun Exposure
    NoWind,                   !- Wind Exposure
    autocalculate,            !- View Factor to Ground
    autocalculate,            !- Number of Vertices
    16.0845,                  !- Vertex 1 Xcoordinate
    -12.5976,                 !- Vertex 1 Ycoordinate
    0,                        !- Vertex 1 Zcoordinate
    16.0845,                  !- Vertex 2 Xcoordinate
    -12.5976,                 !- Vertex 2 Ycoordinate
    -2.5,                     !- Vertex 2 Zcoordinate
    16.768,                   !- Vertex 3 Xcoordinate
    -3.2955,                  !- Vertex 3 Ycoordinate
    -2.5,                     !- Vertex 3 Zcoordinate
    16.768,                   !- Vertex 4 Xcoordinate
    -3.2955,                  !- Vertex 4 Ycoordinate
    0;                        !- Vertex 4 Zcoordinate

BUILDINGSURFACE:DETAILED,
    Block Build1_Alt0 Storey -1 Floor 0001,    !- Name
    floor,                    !- Surface Type
    Project Basement Floor,    !- Construction Name
    Block Build1_Alt0 Storey -1,    !- Zone Name
    ground,                   !- Outside Boundary Condition
    ,                         !- Outside Boundary Condition Object
    NoSun,                    !- Sun Exposure
    NoWind,                   !- Wind Exposure
    autocalculate,            !- View Factor to Ground
    autocalculate,            !- Number of Vertices
    16.768,                   !- Vertex 1 Xcoordinate
    -3.2955,                  !- Vertex 1 Ycoordinate
    -2.5,                     !- Vertex 1 Zcoordinate
    16.0845,                  !- Vertex 2 Xcoordinate
    -12.5976,                 !- Vertex 2 Ycoordinate
    -2.5,                     !- Vertex 2 Zcoordinate
    23.9515,                  !- Vertex 3 Xcoordinate
    -13.1056,                 !- Vertex 3 Ycoordinate
    -2.5,                     !- Vertex 3 Zcoordinate
    23.1685,                  !- Vertex 4 Xcoordinate
    -23.1946,                 !- Vertex 4 Ycoordinate
    -2.5,                     !- Vertex 4 Zcoordinate
    15.7135,                  !- Vertex 5 Xcoordinate
    -22.6236,                 !- Vertex 5 Ycoordinate
    -2.5,                     !- Vertex 5 Zcoordinate
    15.1115,                  !- Vertex 6 Xcoordinate
    -31.5626,                 !- Vertex 6 Ycoordinate
    -2.5,                     !- Vertex 6 Zcoordinate
    5.0475,                   !- Vertex 7 Xcoordinate
    -30.7896,                 !- Vertex 7 Ycoordinate
    -2.5,                     !- Vertex 7 Zcoordinate
    5.5635,                   !- Vertex 8 Xcoordinate
    -23.1576,                 !- Vertex 8 Ycoordinate
    -2.5,                     !- Vertex 8 Zcoordinate
    -3.8285,                  !- Vertex 9 Xcoordinate
    -22.4436,                 !- Vertex 9 Ycoordinate
    -2.5,                     !- Vertex 9 Zcoordinate
    -2.8835,                  !- Vertex 10 Xcoordinate
    -9.8186,                  !- Vertex 10 Ycoordinate
    -2.5,                     !- Vertex 10 Zcoordinate
    6.5345,                   !- Vertex 11 Xcoordinate
    -10.5196,                 !- Vertex 11 Ycoordinate
    -2.5,                     !- Vertex 11 Zcoordinate
    7.1327,                   !- Vertex 12 Xcoordinate
    -2.6747,                  !- Vertex 12 Ycoordinate
    -2.5;                     !- Vertex 12 Zcoordinate

BUILDINGSURFACE:DETAILED,
    Block Build1_Alt0 Storey 0 Wall 0002,    !- Name
    wall,                     !- Surface Type
    Project Wall,             !- Construction Name
    Block Build1_Alt0 Storey 0,    !- Zone Name
    outdoors,                 !- Outside Boundary Condition
    ,                         !- Outside Boundary Condition Object
    SunExposed,               !- Sun Exposure
    WindExposed,              !- Wind Exposure
    autocalculate,            !- View Factor to Ground
    autocalculate,            !- Number of Vertices
    7.1327,                   !- Vertex 1 Xcoordinate
    -2.6747,                  !- Vertex 1 Ycoordinate
    21,                       !- Vertex 1 Zcoordinate
    7.1327,                   !- Vertex 2 Xcoordinate
    -2.6747,                  !- Vertex 2 Ycoordinate
    0,                        !- Vertex 2 Zcoordinate
    6.5345,                   !- Vertex 3 Xcoordinate
    -10.5196,                 !- Vertex 3 Ycoordinate
    0,                        !- Vertex 3 Zcoordinate
    6.5345,                   !- Vertex 4 Xcoordinate
    -10.5196,                 !- Vertex 4 Ycoordinate
    21;                       !- Vertex 4 Zcoordinate

BUILDINGSURFACE:DETAILED,
    Block Build1_Alt0 Storey 0 Wall 0003,    !- Name
    wall,                     !- Surface Type
    Project Wall,             !- Construction Name
    Block Build1_Alt0 Storey 0,    !- Zone Name
    outdoors,                 !- Outside Boundary Condition
    ,                         !- Outside Boundary Condition Object
    SunExposed,               !- Sun Exposure
    WindExposed,              !- Wind Exposure
    autocalculate,            !- View Factor to Ground
    autocalculate,            !- Number of Vertices
    6.5345,                   !- Vertex 1 Xcoordinate
    -10.5196,                 !- Vertex 1 Ycoordinate
    21,                       !- Vertex 1 Zcoordinate
    6.5345,                   !- Vertex 2 Xcoordinate
    -10.5196,                 !- Vertex 2 Ycoordinate
    0,                        !- Vertex 2 Zcoordinate
    -2.8835,                  !- Vertex 3 Xcoordinate
    -9.8186,                  !- Vertex 3 Ycoordinate
    0,                        !- Vertex 3 Zcoordinate
    -2.8835,                  !- Vertex 4 Xcoordinate
    -9.8186,                  !- Vertex 4 Ycoordinate
    21;                       !- Vertex 4 Zcoordinate

BUILDINGSURFACE:DETAILED,
    Block Build1_Alt0 Storey 0 Wall 0004,    !- Name
    wall,                     !- Surface Type
    Project Wall,             !- Construction Name
    Block Build1_Alt0 Storey 0,    !- Zone Name
    outdoors,                 !- Outside Boundary Condition
    ,                         !- Outside Boundary Condition Object
    SunExposed,               !- Sun Exposure
    WindExposed,              !- Wind Exposure
    autocalculate,            !- View Factor to Ground
    autocalculate,            !- Number of Vertices
    -2.8835,                  !- Vertex 1 Xcoordinate
    -9.8186,                  !- Vertex 1 Ycoordinate
    21,                       !- Vertex 1 Zcoordinate
    -2.8835,                  !- Vertex 2 Xcoordinate
    -9.8186,                  !- Vertex 2 Ycoordinate
    0,                        !- Vertex 2 Zcoordinate
    -3.8285,                  !- Vertex 3 Xcoordinate
    -22.4436,                 !- Vertex 3 Ycoordinate
    0,                        !- Vertex 3 Zcoordinate
    -3.8285,                  !- Vertex 4 Xcoordinate
    -22.4436,                 !- Vertex 4 Ycoordinate
    21;                       !- Vertex 4 Zcoordinate

BUILDINGSURFACE:DETAILED,
    Block Build1_Alt0 Storey 0 Wall 0005,    !- Name
    wall,                     !- Surface Type
    Project Wall,             !- Construction Name
    Block Build1_Alt0 Storey 0,    !- Zone Name
    outdoors,                 !- Outside Boundary Condition
    ,                         !- Outside Boundary Condition Object
    SunExposed,               !- Sun Exposure
    WindExposed,              !- Wind Exposure
    autocalculate,            !- View Factor to Ground
    autocalculate,            !- Number of Vertices
    -3.8285,                  !- Vertex 1 Xcoordinate
    -22.4436,                 !- Vertex 1 Ycoordinate
    21,                       !- Vertex 1 Zcoordinate
    -3.8285,                  !- Vertex 2 Xcoordinate
    -22.4436,                 !- Vertex 2 Ycoordinate
    0,                        !- Vertex 2 Zcoordinate
    5.5635,                   !- Vertex 3 Xcoordinate
    -23.1576,                 !- Vertex 3 Ycoordinate
    0,                        !- Vertex 3 Zcoordinate
    5.5635,                   !- Vertex 4 Xcoordinate
    -23.1576,                 !- Vertex 4 Ycoordinate
    21;                       !- Vertex 4 Zcoordinate

BUILDINGSURFACE:DETAILED,
    Block Build1_Alt0 Storey 0 Wall 0006,    !- Name
    wall,                     !- Surface Type
    Project Wall,             !- Construction Name
    Block Build1_Alt0 Storey 0,    !- Zone Name
    outdoors,                 !- Outside Boundary Condition
    ,                         !- Outside Boundary Condition Object
    SunExposed,               !- Sun Exposure
    WindExposed,              !- Wind Exposure
    autocalculate,            !- View Factor to Ground
    autocalculate,            !- Number of Vertices
    5.5635,                   !- Vertex 1 Xcoordinate
    -23.1576,                 !- Vertex 1 Ycoordinate
    21,                       !- Vertex 1 Zcoordinate
    5.5635,                   !- Vertex 2 Xcoordinate
    -23.1576,                 !- Vertex 2 Ycoordinate
    0,                        !- Vertex 2 Zcoordinate
    5.0475,                   !- Vertex 3 Xcoordinate
    -30.7896,                 !- Vertex 3 Ycoordinate
    0,                        !- Vertex 3 Zcoordinate
    5.0475,                   !- Vertex 4 Xcoordinate
    -30.7896,                 !- Vertex 4 Ycoordinate
    21;                       !- Vertex 4 Zcoordinate

BUILDINGSURFACE:DETAILED,
    Block Build1_Alt0 Storey 0 Wall 0007,    !- Name
    wall,                     !- Surface Type
    Project Wall,             !- Construction Name
    Block Build1_Alt0 Storey 0,    !- Zone Name
    outdoors,                 !- Outside Boundary Condition
    ,                         !- Outside Boundary Condition Object
    SunExposed,               !- Sun Exposure
    WindExposed,              !- Wind Exposure
    autocalculate,            !- View Factor to Ground
    autocalculate,            !- Number of Vertices
    5.0475,                   !- Vertex 1 Xcoordinate
    -30.7896,                 !- Vertex 1 Ycoordinate
    21,                       !- Vertex 1 Zcoordinate
    5.0475,                   !- Vertex 2 Xcoordinate
    -30.7896,                 !- Vertex 2 Ycoordinate
    0,                        !- Vertex 2 Zcoordinate
    15.1115,                  !- Vertex 3 Xcoordinate
    -31.5626,                 !- Vertex 3 Ycoordinate
    0,                        !- Vertex 3 Zcoordinate
    15.1115,                  !- Vertex 4 Xcoordinate
    -31.5626,                 !- Vertex 4 Ycoordinate
    21;                       !- Vertex 4 Zcoordinate

BUILDINGSURFACE:DETAILED,
    Block Build1_Alt0 Storey 0 Wall 0008,    !- Name
    wall,                     !- Surface Type
    Project Wall,             !- Construction Name
    Block Build1_Alt0 Storey 0,    !- Zone Name
    outdoors,                 !- Outside Boundary Condition
    ,                         !- Outside Boundary Condition Object
    SunExposed,               !- Sun Exposure
    WindExposed,              !- Wind Exposure
    autocalculate,            !- View Factor to Ground
    autocalculate,            !- Number of Vertices
    15.1115,                  !- Vertex 1 Xcoordinate
    -31.5626,                 !- Vertex 1 Ycoordinate
    21,                       !- Vertex 1 Zcoordinate
    15.1115,                  !- Vertex 2 Xcoordinate
    -31.5626,                 !- Vertex 2 Ycoordinate
    0,                        !- Vertex 2 Zcoordinate
    15.7135,                  !- Vertex 3 Xcoordinate
    -22.6236,                 !- Vertex 3 Ycoordinate
    0,                        !- Vertex 3 Zcoordinate
    15.7135,                  !- Vertex 4 Xcoordinate
    -22.6236,                 !- Vertex 4 Ycoordinate
    21;                       !- Vertex 4 Zcoordinate

BUILDINGSURFACE:DETAILED,
    Block Build1_Alt0 Storey 0 Wall 0009,    !- Name
    wall,                     !- Surface Type
    Project Wall,             !- Construction Name
    Block Build1_Alt0 Storey 0,    !- Zone Name
    outdoors,                 !- Outside Boundary Condition
    ,                         !- Outside Boundary Condition Object
    SunExposed,               !- Sun Exposure
    WindExposed,              !- Wind Exposure
    autocalculate,            !- View Factor to Ground
    autocalculate,            !- Number of Vertices
    15.7135,                  !- Vertex 1 Xcoordinate
    -22.6236,                 !- Vertex 1 Ycoordinate
    21,                       !- Vertex 1 Zcoordinate
    15.7135,                  !- Vertex 2 Xcoordinate
    -22.6236,                 !- Vertex 2 Ycoordinate
    0,                        !- Vertex 2 Zcoordinate
    23.1685,                  !- Vertex 3 Xcoordinate
    -23.1946,                 !- Vertex 3 Ycoordinate
    0,                        !- Vertex 3 Zcoordinate
    23.1685,                  !- Vertex 4 Xcoordinate
    -23.1946,                 !- Vertex 4 Ycoordinate
    21;                       !- Vertex 4 Zcoordinate

BUILDINGSURFACE:DETAILED,
    Block Build1_Alt0 Storey 0 Wall 0010,    !- Name
    wall,                     !- Surface Type
    Project Wall,             !- Construction Name
    Block Build1_Alt0 Storey 0,    !- Zone Name
    outdoors,                 !- Outside Boundary Condition
    ,                         !- Outside Boundary Condition Object
    SunExposed,               !- Sun Exposure
    WindExposed,              !- Wind Exposure
    autocalculate,            !- View Factor to Ground
    autocalculate,            !- Number of Vertices
    23.1685,                  !- Vertex 1 Xcoordinate
    -23.1946,                 !- Vertex 1 Ycoordinate
    21,                       !- Vertex 1 Zcoordinate
    23.1685,                  !- Vertex 2 Xcoordinate
    -23.1946,                 !- Vertex 2 Ycoordinate
    0,                        !- Vertex 2 Zcoordinate
    23.9515,                  !- Vertex 3 Xcoordinate
    -13.1056,                 !- Vertex 3 Ycoordinate
    0,                        !- Vertex 3 Zcoordinate
    23.9515,                  !- Vertex 4 Xcoordinate
    -13.1056,                 !- Vertex 4 Ycoordinate
    21;                       !- Vertex 4 Zcoordinate

BUILDINGSURFACE:DETAILED,
    Block Build1_Alt0 Storey 0 Wall 0011,    !- Name
    wall,                     !- Surface Type
    Project Wall,             !- Construction Name
    Block Build1_Alt0 Storey 0,    !- Zone Name
    outdoors,                 !- Outside Boundary Condition
    ,                         !- Outside Boundary Condition Object
    SunExposed,               !- Sun Exposure
    WindExposed,              !- Wind Exposure
    autocalculate,            !- View Factor to Ground
    autocalculate,            !- Number of Vertices
    23.9515,                  !- Vertex 1 Xcoordinate
    -13.1056,                 !- Vertex 1 Ycoordinate
    21,                       !- Vertex 1 Zcoordinate
    23.9515,                  !- Vertex 2 Xcoordinate
    -13.1056,                 !- Vertex 2 Ycoordinate
    0,                        !- Vertex 2 Zcoordinate
    16.0845,                  !- Vertex 3 Xcoordinate
    -12.5976,                 !- Vertex 3 Ycoordinate
    0,                        !- Vertex 3 Zcoordinate
    16.0845,                  !- Vertex 4 Xcoordinate
    -12.5976,                 !- Vertex 4 Ycoordinate
    21;                       !- Vertex 4 Zcoordinate

BUILDINGSURFACE:DETAILED,
    Block Build1_Alt0 Storey 0 Wall 0012,    !- Name
    wall,                     !- Surface Type
    Project Wall,             !- Construction Name
    Block Build1_Alt0 Storey 0,    !- Zone Name
    outdoors,                 !- Outside Boundary Condition
    ,                         !- Outside Boundary Condition Object
    SunExposed,               !- Sun Exposure
    WindExposed,              !- Wind Exposure
    autocalculate,            !- View Factor to Ground
    autocalculate,            !- Number of Vertices
    16.0845,                  !- Vertex 1 Xcoordinate
    -12.5976,                 !- Vertex 1 Ycoordinate
    21,                       !- Vertex 1 Zcoordinate
    16.0845,                  !- Vertex 2 Xcoordinate
    -12.5976,                 !- Vertex 2 Ycoordinate
    0,                        !- Vertex 2 Zcoordinate
    16.768,                   !- Vertex 3 Xcoordinate
    -3.2955,                  !- Vertex 3 Ycoordinate
    0,                        !- Vertex 3 Zcoordinate
    16.768,                   !- Vertex 4 Xcoordinate
    -3.2955,                  !- Vertex 4 Ycoordinate
    21;                       !- Vertex 4 Zcoordinate

BUILDINGSURFACE:DETAILED,
    Block Build2_Alt0 Storey -1 Wall 0001,    !- Name
    wall,                     !- Surface Type
    Project Basement Wall,    !- Construction Name
    Block Build2_Alt0 Storey -1,    !- Zone Name
    ground,                   !- Outside Boundary Condition
    ,                         !- Outside Boundary Condition Object
    NoSun,                    !- Sun Exposure
    NoWind,                   !- Wind Exposure
    autocalculate,            !- View Factor to Ground
    autocalculate,            !- Number of Vertices
    10.4099,                  !- Vertex 1 Xcoordinate
    20.6738,                  !- Vertex 1 Ycoordinate
    0,                        !- Vertex 1 Zcoordinate
    10.4099,                  !- Vertex 2 Xcoordinate
    20.6738,                  !- Vertex 2 Ycoordinate
    -2.5,                     !- Vertex 2 Zcoordinate
    3.4705,                   !- Vertex 3 Xcoordinate
    28.7274,                  !- Vertex 3 Ycoordinate
    -2.5,                     !- Vertex 3 Zcoordinate
    3.4705,                   !- Vertex 4 Xcoordinate
    28.7274,                  !- Vertex 4 Ycoordinate
    0;                        !- Vertex 4 Zcoordinate

BUILDINGSURFACE:DETAILED,
    Block Build2_Alt0 Storey -1 Wall 0002,    !- Name
    wall,                     !- Surface Type
    Project Basement Wall,    !- Construction Name
    Block Build2_Alt0 Storey -1,    !- Zone Name
    ground,                   !- Outside Boundary Condition
    ,                         !- Outside Boundary Condition Object
    NoSun,                    !- Sun Exposure
    NoWind,                   !- Wind Exposure
    autocalculate,            !- View Factor to Ground
    autocalculate,            !- Number of Vertices
    3.4705,                   !- Vertex 1 Xcoordinate
    28.7274,                  !- Vertex 1 Ycoordinate
    0,                        !- Vertex 1 Zcoordinate
    3.4705,                   !- Vertex 2 Xcoordinate
    28.7274,                  !- Vertex 2 Ycoordinate
    -2.5,                     !- Vertex 2 Zcoordinate
    7.6315,                   !- Vertex 3 Xcoordinate
    32.3124,                  !- Vertex 3 Ycoordinate
    -2.5,                     !- Vertex 3 Zcoordinate
    7.6315,                   !- Vertex 4 Xcoordinate
    32.3124,                  !- Vertex 4 Ycoordinate
    0;                        !- Vertex 4 Zcoordinate

BUILDINGSURFACE:DETAILED,
    Block Build2_Alt0 Storey -1 Wall 0003,    !- Name
    wall,                     !- Surface Type
    Project Basement Wall,    !- Construction Name
    Block Build2_Alt0 Storey -1,    !- Zone Name
    ground,                   !- Outside Boundary Condition
    ,                         !- Outside Boundary Condition Object
    NoSun,                    !- Sun Exposure
    NoWind,                   !- Wind Exposure
    autocalculate,            !- View Factor to Ground
    autocalculate,            !- Number of Vertices
    7.6315,                   !- Vertex 1 Xcoordinate
    32.3124,                  !- Vertex 1 Ycoordinate
    0,                        !- Vertex 1 Zcoordinate
    7.6315,                   !- Vertex 2 Xcoordinate
    32.3124,                  !- Vertex 2 Ycoordinate
    -2.5,                     !- Vertex 2 Zcoordinate
    1.5995,                   !- Vertex 3 Xcoordinate
    39.3114,                  !- Vertex 3 Ycoordinate
    -2.5,                     !- Vertex 3 Zcoordinate
    1.5995,                   !- Vertex 4 Xcoordinate
    39.3114,                  !- Vertex 4 Ycoordinate
    0;                        !- Vertex 4 Zcoordinate

BUILDINGSURFACE:DETAILED,
    Block Build2_Alt0 Storey -1 Wall 0004,    !- Name
    wall,                     !- Surface Type
    Project Basement Wall,    !- Construction Name
    Block Build2_Alt0 Storey -1,    !- Zone Name
    ground,                   !- Outside Boundary Condition
    ,                         !- Outside Boundary Condition Object
    NoSun,                    !- Sun Exposure
    NoWind,                   !- Wind Exposure
    autocalculate,            !- View Factor to Ground
    autocalculate,            !- Number of Vertices
    1.5995,                   !- Vertex 1 Xcoordinate
    39.3114,                  !- Vertex 1 Ycoordinate
    0,                        !- Vertex 1 Zcoordinate
    1.5995,                   !- Vertex 2 Xcoordinate
    39.3114,                  !- Vertex 2 Ycoordinate
    -2.5,                     !- Vertex 2 Zcoordinate
    -2.5605,                  !- Vertex 3 Xcoordinate
    35.7264,                  !- Vertex 3 Ycoordinate
    -2.5,                     !- Vertex 3 Zcoordinate
    -2.5605,                  !- Vertex 4 Xcoordinate
    35.7264,                  !- Vertex 4 Ycoordinate
    0;                        !- Vertex 4 Zcoordinate

BUILDINGSURFACE:DETAILED,
    Block Build2_Alt0 Storey -1 Wall 0005,    !- Name
    wall,                     !- Surface Type
    Project Basement Wall,    !- Construction Name
    Block Build2_Alt0 Storey -1,    !- Zone Name
    ground,                   !- Outside Boundary Condition
    ,                         !- Outside Boundary Condition Object
    NoSun,                    !- Sun Exposure
    NoWind,                   !- Wind Exposure
    autocalculate,            !- View Factor to Ground
    autocalculate,            !- Number of Vertices
    -2.5605,                  !- Vertex 1 Xcoordinate
    35.7264,                  !- Vertex 1 Ycoordinate
    0,                        !- Vertex 1 Zcoordinate
    -2.5605,                  !- Vertex 2 Xcoordinate
    35.7264,                  !- Vertex 2 Ycoordinate
    -2.5,                     !- Vertex 2 Zcoordinate
    -8.3775,                  !- Vertex 3 Xcoordinate
    42.5524,                  !- Vertex 3 Ycoordinate
    -2.5,                     !- Vertex 3 Zcoordinate
    -8.3775,                  !- Vertex 4 Xcoordinate
    42.5524,                  !- Vertex 4 Ycoordinate
    0;                        !- Vertex 4 Zcoordinate

BUILDINGSURFACE:DETAILED,
    Block Build2_Alt0 Storey -1 Wall 0006,    !- Name
    wall,                     !- Surface Type
    Project Basement Wall,    !- Construction Name
    Block Build2_Alt0 Storey -1,    !- Zone Name
    ground,                   !- Outside Boundary Condition
    ,                         !- Outside Boundary Condition Object
    NoSun,                    !- Sun Exposure
    NoWind,                   !- Wind Exposure
    autocalculate,            !- View Factor to Ground
    autocalculate,            !- Number of Vertices
    -8.3775,                  !- Vertex 1 Xcoordinate
    42.5524,                  !- Vertex 1 Ycoordinate
    0,                        !- Vertex 1 Zcoordinate
    -8.3775,                  !- Vertex 2 Xcoordinate
    42.5524,                  !- Vertex 2 Ycoordinate
    -2.5,                     !- Vertex 2 Zcoordinate
    -16.0495,                 !- Vertex 3 Xcoordinate
    35.9484,                  !- Vertex 3 Ycoordinate
    -2.5,                     !- Vertex 3 Zcoordinate
    -16.0495,                 !- Vertex 4 Xcoordinate
    35.9484,                  !- Vertex 4 Ycoordinate
    0;                        !- Vertex 4 Zcoordinate

BUILDINGSURFACE:DETAILED,
    Block Build2_Alt0 Storey -1 Wall 0007,    !- Name
    wall,                     !- Surface Type
    Project Basement Wall,    !- Construction Name
    Block Build2_Alt0 Storey -1,    !- Zone Name
    ground,                   !- Outside Boundary Condition
    ,                         !- Outside Boundary Condition Object
    NoSun,                    !- Sun Exposure
    NoWind,                   !- Wind Exposure
    autocalculate,            !- View Factor to Ground
    autocalculate,            !- Number of Vertices
    -16.0495,                 !- Vertex 1 Xcoordinate
    35.9484,                  !- Vertex 1 Ycoordinate
    0,                        !- Vertex 1 Zcoordinate
    -16.0495,                 !- Vertex 2 Xcoordinate
    35.9484,                  !- Vertex 2 Ycoordinate
    -2.5,                     !- Vertex 2 Zcoordinate
    -11.0405,                 !- Vertex 3 Xcoordinate
    30.1804,                  !- Vertex 3 Ycoordinate
    -2.5,                     !- Vertex 3 Zcoordinate
    -11.0405,                 !- Vertex 4 Xcoordinate
    30.1804,                  !- Vertex 4 Ycoordinate
    0;                        !- Vertex 4 Zcoordinate

BUILDINGSURFACE:DETAILED,
    Block Build2_Alt0 Storey -1 Wall 0008,    !- Name
    wall,                     !- Surface Type
    Project Basement Wall,    !- Construction Name
    Block Build2_Alt0 Storey -1,    !- Zone Name
    ground,                   !- Outside Boundary Condition
    ,                         !- Outside Boundary Condition Object
    NoSun,                    !- Sun Exposure
    NoWind,                   !- Wind Exposure
    autocalculate,            !- View Factor to Ground
    autocalculate,            !- Number of Vertices
    -11.0405,                 !- Vertex 1 Xcoordinate
    30.1804,                  !- Vertex 1 Ycoordinate
    0,                        !- Vertex 1 Zcoordinate
    -11.0405,                 !- Vertex 2 Xcoordinate
    30.1804,                  !- Vertex 2 Ycoordinate
    -2.5,                     !- Vertex 2 Zcoordinate
    -18.2655,                 !- Vertex 3 Xcoordinate
    23.9864,                  !- Vertex 3 Ycoordinate
    -2.5,                     !- Vertex 3 Zcoordinate
    -18.2655,                 !- Vertex 4 Xcoordinate
    23.9864,                  !- Vertex 4 Ycoordinate
    0;                        !- Vertex 4 Zcoordinate

BUILDINGSURFACE:DETAILED,
    Block Build2_Alt0 Storey -1 Wall 0009,    !- Name
    wall,                     !- Surface Type
    Project Basement Wall,    !- Construction Name
    Block Build2_Alt0 Storey -1,    !- Zone Name
    ground,                   !- Outside Boundary Condition
    ,                         !- Outside Boundary Condition Object
    NoSun,                    !- Sun Exposure
    NoWind,                   !- Wind Exposure
    autocalculate,            !- View Factor to Ground
    autocalculate,            !- Number of Vertices
    -18.2655,                 !- Vertex 1 Xcoordinate
    23.9864,                  !- Vertex 1 Ycoordinate
    0,                        !- Vertex 1 Zcoordinate
    -18.2655,                 !- Vertex 2 Xcoordinate
    23.9864,                  !- Vertex 2 Ycoordinate
    -2.5,                     !- Vertex 2 Zcoordinate
    -9.9505,                  !- Vertex 3 Xcoordinate
    14.3164,                  !- Vertex 3 Ycoordinate
    -2.5,                     !- Vertex 3 Zcoordinate
    -9.9505,                  !- Vertex 4 Xcoordinate
    14.3164,                  !- Vertex 4 Ycoordinate
    0;                        !- Vertex 4 Zcoordinate

BUILDINGSURFACE:DETAILED,
    Block Build2_Alt0 Storey -1 Wall 0010,    !- Name
    wall,                     !- Surface Type
    Project Basement Wall,    !- Construction Name
    Block Build2_Alt0 Storey -1,    !- Zone Name
    ground,                   !- Outside Boundary Condition
    ,                         !- Outside Boundary Condition Object
    NoSun,                    !- Sun Exposure
    NoWind,                   !- Wind Exposure
    autocalculate,            !- View Factor to Ground
    autocalculate,            !- Number of Vertices
    -9.9505,                  !- Vertex 1 Xcoordinate
    14.3164,                  !- Vertex 1 Ycoordinate
    0,                        !- Vertex 1 Zcoordinate
    -9.9505,                  !- Vertex 2 Xcoordinate
    14.3164,                  !- Vertex 2 Ycoordinate
    -2.5,                     !- Vertex 2 Zcoordinate
    -2.8155,                  !- Vertex 3 Xcoordinate
    20.4504,                  !- Vertex 3 Ycoordinate
    -2.5,                     !- Vertex 3 Zcoordinate
    -2.8155,                  !- Vertex 4 Xcoordinate
    20.4504,                  !- Vertex 4 Ycoordinate
    0;                        !- Vertex 4 Zcoordinate

BUILDINGSURFACE:DETAILED,
    Block Build2_Alt0 Storey -1 Wall 0011,    !- Name
    wall,                     !- Surface Type
    Project Basement Wall,    !- Construction Name
    Block Build2_Alt0 Storey -1,    !- Zone Name
    ground,                   !- Outside Boundary Condition
    ,                         !- Outside Boundary Condition Object
    NoSun,                    !- Sun Exposure
    NoWind,                   !- Wind Exposure
    autocalculate,            !- View Factor to Ground
    autocalculate,            !- Number of Vertices
    -2.8155,                  !- Vertex 1 Xcoordinate
    20.4504,                  !- Vertex 1 Ycoordinate
    0,                        !- Vertex 1 Zcoordinate
    -2.8155,                  !- Vertex 2 Xcoordinate
    20.4504,                  !- Vertex 2 Ycoordinate
    -2.5,                     !- Vertex 2 Zcoordinate
    2.9659,                   !- Vertex 3 Xcoordinate
    13.7839,                  !- Vertex 3 Ycoordinate
    -2.5,                     !- Vertex 3 Zcoordinate
    2.9659,                   !- Vertex 4 Xcoordinate
    13.7839,                  !- Vertex 4 Ycoordinate
    0;                        !- Vertex 4 Zcoordinate

BUILDINGSURFACE:DETAILED,
    Block Build2_Alt0 Storey -1 Floor 0001,    !- Name
    floor,                    !- Surface Type
    Project Basement Floor,    !- Construction Name
    Block Build2_Alt0 Storey -1,    !- Zone Name
    ground,                   !- Outside Boundary Condition
    ,                         !- Outside Boundary Condition Object
    NoSun,                    !- Sun Exposure
    NoWind,                   !- Wind Exposure
    autocalculate,            !- View Factor to Ground
    autocalculate,            !- Number of Vertices
    1.5995,                   !- Vertex 1 Xcoordinate
    39.3114,                  !- Vertex 1 Ycoordinate
    -2.5,                     !- Vertex 1 Zcoordinate
    7.6315,                   !- Vertex 2 Xcoordinate
    32.3124,                  !- Vertex 2 Ycoordinate
    -2.5,                     !- Vertex 2 Zcoordinate
    3.4705,                   !- Vertex 3 Xcoordinate
    28.7274,                  !- Vertex 3 Ycoordinate
    -2.5,                     !- Vertex 3 Zcoordinate
    10.4099,                  !- Vertex 4 Xcoordinate
    20.6738,                  !- Vertex 4 Ycoordinate
    -2.5,                     !- Vertex 4 Zcoordinate
    2.9659,                   !- Vertex 5 Xcoordinate
    13.7839,                  !- Vertex 5 Ycoordinate
    -2.5,                     !- Vertex 5 Zcoordinate
    -2.8155,                  !- Vertex 6 Xcoordinate
    20.4504,                  !- Vertex 6 Ycoordinate
    -2.5,                     !- Vertex 6 Zcoordinate
    -9.9505,                  !- Vertex 7 Xcoordinate
    14.3164,                  !- Vertex 7 Ycoordinate
    -2.5,                     !- Vertex 7 Zcoordinate
    -18.2655,                 !- Vertex 8 Xcoordinate
    23.9864,                  !- Vertex 8 Ycoordinate
    -2.5,                     !- Vertex 8 Zcoordinate
    -11.0405,                 !- Vertex 9 Xcoordinate
    30.1804,                  !- Vertex 9 Ycoordinate
    -2.5,                     !- Vertex 9 Zcoordinate
    -16.0495,                 !- Vertex 10 Xcoordinate
    35.9484,                  !- Vertex 10 Ycoordinate
    -2.5,                     !- Vertex 10 Zcoordinate
    -8.3775,                  !- Vertex 11 Xcoordinate
    42.5524,                  !- Vertex 11 Ycoordinate
    -2.5,                     !- Vertex 11 Zcoordinate
    -2.5605,                  !- Vertex 12 Xcoordinate
    35.7264,                  !- Vertex 12 Ycoordinate
    -2.5;                     !- Vertex 12 Zcoordinate

BUILDINGSURFACE:DETAILED,
    Block Build2_Alt0 Storey 0 Wall 0001,    !- Name
    wall,                     !- Surface Type
    Project Wall,             !- Construction Name
    Block Build2_Alt0 Storey 0,    !- Zone Name
    outdoors,                 !- Outside Boundary Condition
    ,                         !- Outside Boundary Condition Object
    SunExposed,               !- Sun Exposure
    WindExposed,              !- Wind Exposure
    autocalculate,            !- View Factor to Ground
    autocalculate,            !- Number of Vertices
    10.4099,                  !- Vertex 1 Xcoordinate
    20.6738,                  !- Vertex 1 Ycoordinate
    21,                       !- Vertex 1 Zcoordinate
    10.4099,                  !- Vertex 2 Xcoordinate
    20.6738,                  !- Vertex 2 Ycoordinate
    0,                        !- Vertex 2 Zcoordinate
    3.4705,                   !- Vertex 3 Xcoordinate
    28.7274,                  !- Vertex 3 Ycoordinate
    0,                        !- Vertex 3 Zcoordinate
    3.4705,                   !- Vertex 4 Xcoordinate
    28.7274,                  !- Vertex 4 Ycoordinate
    21;                       !- Vertex 4 Zcoordinate

BUILDINGSURFACE:DETAILED,
    Block Build2_Alt0 Storey 0 Wall 0002,    !- Name
    wall,                     !- Surface Type
    Project Wall,             !- Construction Name
    Block Build2_Alt0 Storey 0,    !- Zone Name
    outdoors,                 !- Outside Boundary Condition
    ,                         !- Outside Boundary Condition Object
    SunExposed,               !- Sun Exposure
    WindExposed,              !- Wind Exposure
    autocalculate,            !- View Factor to Ground
    autocalculate,            !- Number of Vertices
    3.4705,                   !- Vertex 1 Xcoordinate
    28.7274,                  !- Vertex 1 Ycoordinate
    21,                       !- Vertex 1 Zcoordinate
    3.4705,                   !- Vertex 2 Xcoordinate
    28.7274,                  !- Vertex 2 Ycoordinate
    0,                        !- Vertex 2 Zcoordinate
    7.6315,                   !- Vertex 3 Xcoordinate
    32.3124,                  !- Vertex 3 Ycoordinate
    0,                        !- Vertex 3 Zcoordinate
    7.6315,                   !- Vertex 4 Xcoordinate
    32.3124,                  !- Vertex 4 Ycoordinate
    21;                       !- Vertex 4 Zcoordinate

BUILDINGSURFACE:DETAILED,
    Block Build2_Alt0 Storey 0 Wall 0003,    !- Name
    wall,                     !- Surface Type
    Project Wall,             !- Construction Name
    Block Build2_Alt0 Storey 0,    !- Zone Name
    outdoors,                 !- Outside Boundary Condition
    ,                         !- Outside Boundary Condition Object
    SunExposed,               !- Sun Exposure
    WindExposed,              !- Wind Exposure
    autocalculate,            !- View Factor to Ground
    autocalculate,            !- Number of Vertices
    7.6315,                   !- Vertex 1 Xcoordinate
    32.3124,                  !- Vertex 1 Ycoordinate
    21,                       !- Vertex 1 Zcoordinate
    7.6315,                   !- Vertex 2 Xcoordinate
    32.3124,                  !- Vertex 2 Ycoordinate
    0,                        !- Vertex 2 Zcoordinate
    1.5995,                   !- Vertex 3 Xcoordinate
    39.3114,                  !- Vertex 3 Ycoordinate
    0,                        !- Vertex 3 Zcoordinate
    1.5995,                   !- Vertex 4 Xcoordinate
    39.3114,                  !- Vertex 4 Ycoordinate
    21;                       !- Vertex 4 Zcoordinate

BUILDINGSURFACE:DETAILED,
    Block Build2_Alt0 Storey 0 Wall 0004,    !- Name
    wall,                     !- Surface Type
    Project Wall,             !- Construction Name
    Block Build2_Alt0 Storey 0,    !- Zone Name
    outdoors,                 !- Outside Boundary Condition
    ,                         !- Outside Boundary Condition Object
    SunExposed,               !- Sun Exposure
    WindExposed,              !- Wind Exposure
    autocalculate,            !- View Factor to Ground
    autocalculate,            !- Number of Vertices
    1.5995,                   !- Vertex 1 Xcoordinate
    39.3114,                  !- Vertex 1 Ycoordinate
    21,                       !- Vertex 1 Zcoordinate
    1.5995,                   !- Vertex 2 Xcoordinate
    39.3114,                  !- Vertex 2 Ycoordinate
    0,                        !- Vertex 2 Zcoordinate
    -2.5605,                  !- Vertex 3 Xcoordinate
    35.7264,                  !- Vertex 3 Ycoordinate
    0,                        !- Vertex 3 Zcoordinate
    -2.5605,                  !- Vertex 4 Xcoordinate
    35.7264,                  !- Vertex 4 Ycoordinate
    21;                       !- Vertex 4 Zcoordinate

BUILDINGSURFACE:DETAILED,
    Block Build2_Alt0 Storey 0 Wall 0005,    !- Name
    wall,                     !- Surface Type
    Project Wall,             !- Construction Name
    Block Build2_Alt0 Storey 0,    !- Zone Name
    outdoors,                 !- Outside Boundary Condition
    ,                         !- Outside Boundary Condition Object
    SunExposed,               !- Sun Exposure
    WindExposed,              !- Wind Exposure
    autocalculate,            !- View Factor to Ground
    autocalculate,            !- Number of Vertices
    -2.5605,                  !- Vertex 1 Xcoordinate
    35.7264,                  !- Vertex 1 Ycoordinate
    21,                       !- Vertex 1 Zcoordinate
    -2.5605,                  !- Vertex 2 Xcoordinate
    35.7264,                  !- Vertex 2 Ycoordinate
    0,                        !- Vertex 2 Zcoordinate
    -8.3775,                  !- Vertex 3 Xcoordinate
    42.5524,                  !- Vertex 3 Ycoordinate
    0,                        !- Vertex 3 Zcoordinate
    -8.3775,                  !- Vertex 4 Xcoordinate
    42.5524,                  !- Vertex 4 Ycoordinate
    21;                       !- Vertex 4 Zcoordinate

BUILDINGSURFACE:DETAILED,
    Block Build2_Alt0 Storey 0 Wall 0006,    !- Name
    wall,                     !- Surface Type
    Project Wall,             !- Construction Name
    Block Build2_Alt0 Storey 0,    !- Zone Name
    outdoors,                 !- Outside Boundary Condition
    ,                         !- Outside Boundary Condition Object
    SunExposed,               !- Sun Exposure
    WindExposed,              !- Wind Exposure
    autocalculate,            !- View Factor to Ground
    autocalculate,            !- Number of Vertices
    -8.3775,                  !- Vertex 1 Xcoordinate
    42.5524,                  !- Vertex 1 Ycoordinate
    21,                       !- Vertex 1 Zcoordinate
    -8.3775,                  !- Vertex 2 Xcoordinate
    42.5524,                  !- Vertex 2 Ycoordinate
    0,                        !- Vertex 2 Zcoordinate
    -16.0495,                 !- Vertex 3 Xcoordinate
    35.9484,                  !- Vertex 3 Ycoordinate
    0,                        !- Vertex 3 Zcoordinate
    -16.0495,                 !- Vertex 4 Xcoordinate
    35.9484,                  !- Vertex 4 Ycoordinate
    21;                       !- Vertex 4 Zcoordinate

BUILDINGSURFACE:DETAILED,
    Block Build2_Alt0 Storey 0 Wall 0007,    !- Name
    wall,                     !- Surface Type
    Project Wall,             !- Construction Name
    Block Build2_Alt0 Storey 0,    !- Zone Name
    outdoors,                 !- Outside Boundary Condition
    ,                         !- Outside Boundary Condition Object
    SunExposed,               !- Sun Exposure
    WindExposed,              !- Wind Exposure
    autocalculate,            !- View Factor to Ground
    autocalculate,            !- Number of Vertices
    -16.0495,                 !- Vertex 1 Xcoordinate
    35.9484,                  !- Vertex 1 Ycoordinate
    21,                       !- Vertex 1 Zcoordinate
    -16.0495,                 !- Vertex 2 Xcoordinate
    35.9484,                  !- Vertex 2 Ycoordinate
    0,                        !- Vertex 2 Zcoordinate
    -11.0405,                 !- Vertex 3 Xcoordinate
    30.1804,                  !- Vertex 3 Ycoordinate
    0,                        !- Vertex 3 Zcoordinate
    -11.0405,                 !- Vertex 4 Xcoordinate
    30.1804,                  !- Vertex 4 Ycoordinate
    21;                       !- Vertex 4 Zcoordinate

BUILDINGSURFACE:DETAILED,
    Block Build2_Alt0 Storey 0 Wall 0008,    !- Name
    wall,                     !- Surface Type
    Project Wall,             !- Construction Name
    Block Build2_Alt0 Storey 0,    !- Zone Name
    outdoors,                 !- Outside Boundary Condition
    ,                         !- Outside Boundary Condition Object
    SunExposed,               !- Sun Exposure
    WindExposed,              !- Wind Exposure
    autocalculate,            !- View Factor to Ground
    autocalculate,            !- Number of Vertices
    -11.0405,                 !- Vertex 1 Xcoordinate
    30.1804,                  !- Vertex 1 Ycoordinate
    21,                       !- Vertex 1 Zcoordinate
    -11.0405,                 !- Vertex 2 Xcoordinate
    30.1804,                  !- Vertex 2 Ycoordinate
    0,                        !- Vertex 2 Zcoordinate
    -18.2655,                 !- Vertex 3 Xcoordinate
    23.9864,                  !- Vertex 3 Ycoordinate
    0,                        !- Vertex 3 Zcoordinate
    -18.2655,                 !- Vertex 4 Xcoordinate
    23.9864,                  !- Vertex 4 Ycoordinate
    21;                       !- Vertex 4 Zcoordinate

BUILDINGSURFACE:DETAILED,
    Block Build2_Alt0 Storey 0 Wall 0009,    !- Name
    wall,                     !- Surface Type
    Project Wall,             !- Construction Name
    Block Build2_Alt0 Storey 0,    !- Zone Name
    outdoors,                 !- Outside Boundary Condition
    ,                         !- Outside Boundary Condition Object
    SunExposed,               !- Sun Exposure
    WindExposed,              !- Wind Exposure
    autocalculate,            !- View Factor to Ground
    autocalculate,            !- Number of Vertices
    -18.2655,                 !- Vertex 1 Xcoordinate
    23.9864,                  !- Vertex 1 Ycoordinate
    21,                       !- Vertex 1 Zcoordinate
    -18.2655,                 !- Vertex 2 Xcoordinate
    23.9864,                  !- Vertex 2 Ycoordinate
    0,                        !- Vertex 2 Zcoordinate
    -9.9505,                  !- Vertex 3 Xcoordinate
    14.3164,                  !- Vertex 3 Ycoordinate
    0,                        !- Vertex 3 Zcoordinate
    -9.9505,                  !- Vertex 4 Xcoordinate
    14.3164,                  !- Vertex 4 Ycoordinate
    21;                       !- Vertex 4 Zcoordinate

BUILDINGSURFACE:DETAILED,
    Block Build2_Alt0 Storey 0 Wall 0010,    !- Name
    wall,                     !- Surface Type
    Project Wall,             !- Construction Name
    Block Build2_Alt0 Storey 0,    !- Zone Name
    outdoors,                 !- Outside Boundary Condition
    ,                         !- Outside Boundary Condition Object
    SunExposed,               !- Sun Exposure
    WindExposed,              !- Wind Exposure
    autocalculate,            !- View Factor to Ground
    autocalculate,            !- Number of Vertices
    -9.9505,                  !- Vertex 1 Xcoordinate
    14.3164,                  !- Vertex 1 Ycoordinate
    21,                       !- Vertex 1 Zcoordinate
    -9.9505,                  !- Vertex 2 Xcoordinate
    14.3164,                  !- Vertex 2 Ycoordinate
    0,                        !- Vertex 2 Zcoordinate
    -2.8155,                  !- Vertex 3 Xcoordinate
    20.4504,                  !- Vertex 3 Ycoordinate
    0,                        !- Vertex 3 Zcoordinate
    -2.8155,                  !- Vertex 4 Xcoordinate
    20.4504,                  !- Vertex 4 Ycoordinate
    21;                       !- Vertex 4 Zcoordinate

BUILDINGSURFACE:DETAILED,
    Block Build2_Alt0 Storey 0 Wall 0011,    !- Name
    wall,                     !- Surface Type
    Project Wall,             !- Construction Name
    Block Build2_Alt0 Storey 0,    !- Zone Name
    outdoors,                 !- Outside Boundary Condition
    ,                         !- Outside Boundary Condition Object
    SunExposed,               !- Sun Exposure
    WindExposed,              !- Wind Exposure
    autocalculate,            !- View Factor to Ground
    autocalculate,            !- Number of Vertices
    -2.8155,                  !- Vertex 1 Xcoordinate
    20.4504,                  !- Vertex 1 Ycoordinate
    21,                       !- Vertex 1 Zcoordinate
    -2.8155,                  !- Vertex 2 Xcoordinate
    20.4504,                  !- Vertex 2 Ycoordinate
    0,                        !- Vertex 2 Zcoordinate
    2.9659,                   !- Vertex 3 Xcoordinate
    13.7839,                  !- Vertex 3 Ycoordinate
    0,                        !- Vertex 3 Zcoordinate
    2.9659,                   !- Vertex 4 Xcoordinate
    13.7839,                  !- Vertex 4 Ycoordinate
    21;                       !- Vertex 4 Zcoordinate

BUILDINGSURFACE:DETAILED,
    Block Build0_Alt0 Storey -1 Wall 0006_1,    !- Name
    wall,                     !- Surface Type
    Project Partition,        !- Construction Name
    Block Build0_Alt0 Storey -1,    !- Zone Name
    surface,                  !- Outside Boundary Condition
    Block Build2_Alt0 Storey -1 Wall 0012_1,    !- Outside Boundary Condition Object
    NoSun,                    !- Sun Exposure
    NoWind,                   !- Wind Exposure
    autocalculate,            !- View Factor to Ground
    autocalculate,            !- Number of Vertices
    10.409899999853224,       !- Vertex 1 Xcoordinate
    20.673799999864148,       !- Vertex 1 Ycoordinate
    0,                        !- Vertex 1 Zcoordinate
    10.409899999853224,       !- Vertex 2 Xcoordinate
    20.673799999864148,       !- Vertex 2 Ycoordinate
    -2.5,                     !- Vertex 2 Zcoordinate
    2.965899999719113,        !- Vertex 3 Xcoordinate
    13.78389999974002,        !- Vertex 3 Ycoordinate
    -2.5,                     !- Vertex 3 Zcoordinate
    2.965899999719113,        !- Vertex 4 Xcoordinate
    13.78389999974002,        !- Vertex 4 Ycoordinate
    0;                        !- Vertex 4 Zcoordinate

BUILDINGSURFACE:DETAILED,
    Block Build2_Alt0 Storey -1 Wall 0012_1,    !- Name
    wall,                     !- Surface Type
    Project Partition,        !- Construction Name
    Block Build2_Alt0 Storey -1,    !- Zone Name
    surface,                  !- Outside Boundary Condition
    Block Build0_Alt0 Storey -1 Wall 0006_1,    !- Outside Boundary Condition Object
    NoSun,                    !- Sun Exposure
    NoWind,                   !- Wind Exposure
    autocalculate,            !- View Factor to Ground
    autocalculate,            !- Number of Vertices
    2.965899999719113,        !- Vertex 1 Xcoordinate
    13.78389999974002,        !- Vertex 1 Ycoordinate
    0,                        !- Vertex 1 Zcoordinate
    2.965899999719113,        !- Vertex 2 Xcoordinate
    13.78389999974002,        !- Vertex 2 Ycoordinate
    -2.5,                     !- Vertex 2 Zcoordinate
    10.409899999853224,       !- Vertex 3 Xcoordinate
    20.673799999864148,       !- Vertex 3 Ycoordinate
    -2.5,                     !- Vertex 3 Zcoordinate
    10.409899999853224,       !- Vertex 4 Xcoordinate
    20.673799999864148,       !- Vertex 4 Ycoordinate
    0;                        !- Vertex 4 Zcoordinate

BUILDINGSURFACE:DETAILED,
    Block Build0_Alt0 Storey -1 Wall 0009_1,    !- Name
    wall,                     !- Surface Type
    Project Partition,        !- Construction Name
    Block Build0_Alt0 Storey -1,    !- Zone Name
    surface,                  !- Outside Boundary Condition
    Block Build1_Alt0 Storey -1 Wall 0001_1,    !- Outside Boundary Condition Object
    NoSun,                    !- Sun Exposure
    NoWind,                   !- Wind Exposure
    autocalculate,            !- View Factor to Ground
    autocalculate,            !- Number of Vertices
    7.132699999958277,        !- Vertex 1 Xcoordinate
    -2.674699999997312,       !- Vertex 1 Ycoordinate
    0,                        !- Vertex 1 Zcoordinate
    7.132699999958277,        !- Vertex 2 Xcoordinate
    -2.674699999997312,       !- Vertex 2 Ycoordinate
    -2.5,                     !- Vertex 2 Zcoordinate
    16.7679999996908,         !- Vertex 3 Xcoordinate
    -3.295500e+00,            !- Vertex 3 Ycoordinate
    -2.5,                     !- Vertex 3 Zcoordinate
    16.7679999996908,         !- Vertex 4 Xcoordinate
    -3.295500e+00,            !- Vertex 4 Ycoordinate
    0;                        !- Vertex 4 Zcoordinate

BUILDINGSURFACE:DETAILED,
    Block Build1_Alt0 Storey -1 Wall 0001_1,    !- Name
    wall,                     !- Surface Type
    Project Partition,        !- Construction Name
    Block Build1_Alt0 Storey -1,    !- Zone Name
    surface,                  !- Outside Boundary Condition
    Block Build0_Alt0 Storey -1 Wall 0009_1,    !- Outside Boundary Condition Object
    NoSun,                    !- Sun Exposure
    NoWind,                   !- Wind Exposure
    autocalculate,            !- View Factor to Ground
    autocalculate,            !- Number of Vertices
    16.7679999996908,         !- Vertex 1 Xcoordinate
    -3.295500e+00,            !- Vertex 1 Ycoordinate
    0,                        !- Vertex 1 Zcoordinate
    16.7679999996908,         !- Vertex 2 Xcoordinate
    -3.295500e+00,            !- Vertex 2 Ycoordinate
    -2.5,                     !- Vertex 2 Zcoordinate
    7.132699999958277,        !- Vertex 3 Xcoordinate
    -2.674699999997312,       !- Vertex 3 Ycoordinate
    -2.5,                     !- Vertex 3 Zcoordinate
    7.132699999958277,        !- Vertex 4 Xcoordinate
    -2.674699999997312,       !- Vertex 4 Ycoordinate
    0;                        !- Vertex 4 Zcoordinate

BUILDINGSURFACE:DETAILED,
    Block Build0_Alt0 Storey -1 Ceiling 0001_1,    !- Name
    ceiling,                  !- Surface Type
    Project Heated1rstFloor Rev,    !- Construction Name
    Block Build0_Alt0 Storey -1,    !- Zone Name
    surface,                  !- Outside Boundary Condition
    Block Build0_Alt0 Storey 0 Floor 0001_1,    !- Outside Boundary Condition Object
    NoSun,                    !- Sun Exposure
    NoWind,                   !- Wind Exposure
    autocalculate,            !- View Factor to Ground
    autocalculate,            !- Number of Vertices
    16.7679999996908,         !- Vertex 1 Xcoordinate
    -3.295500e+00,            !- Vertex 1 Ycoordinate
    0,                        !- Vertex 1 Zcoordinate
    17.432499999646097,       !- Vertex 2 Xcoordinate
    5.747399999760091,        !- Vertex 2 Ycoordinate
    0,                        !- Vertex 2 Zcoordinate
    21.42049999954179,        !- Vertex 3 Xcoordinate
    5.444399999920279,        !- Vertex 3 Ycoordinate
    0,                        !- Vertex 3 Zcoordinate
    21.961499999742955,       !- Vertex 4 Xcoordinate
    12.575399999972433,       !- Vertex 4 Ycoordinate
    0,                        !- Vertex 4 Zcoordinate
    17.009499999694526,       !- Vertex 5 Xcoordinate
    13.01439999975264,        !- Vertex 5 Ycoordinate
    0,                        !- Vertex 5 Zcoordinate
    10.409899999853224,       !- Vertex 6 Xcoordinate
    20.67379999998957,        !- Vertex 6 Ycoordinate
    0,                        !- Vertex 6 Zcoordinate
    2.965899999719113,        !- Vertex 7 Xcoordinate
    13.78389999968931,        !- Vertex 7 Ycoordinate
    0,                        !- Vertex 7 Zcoordinate
    7.949499999638647,        !- Vertex 8 Xcoordinate
    8.037399999797344,        !- Vertex 8 Ycoordinate
    0,                        !- Vertex 8 Zcoordinate
    7.132699999958277,        !- Vertex 9 Xcoordinate
    -2.674699999857694,       !- Vertex 9 Ycoordinate
    0;                        !- Vertex 9 Zcoordinate

BUILDINGSURFACE:DETAILED,
    Block Build0_Alt0 Storey 0 Floor 0001_1,    !- Name
    floor,                    !- Surface Type
    Project Heated1rstFloor,    !- Construction Name
    Block Build0_Alt0 Storey 0,    !- Zone Name
    surface,                  !- Outside Boundary Condition
    Block Build0_Alt0 Storey -1 Ceiling 0001_1,    !- Outside Boundary Condition Object
    NoSun,                    !- Sun Exposure
    NoWind,                   !- Wind Exposure
    autocalculate,            !- View Factor to Ground
    autocalculate,            !- Number of Vertices
    21.961499999742955,       !- Vertex 1 Xcoordinate
    12.575399999972433,       !- Vertex 1 Ycoordinate
    0,                        !- Vertex 1 Zcoordinate
    21.42049999954179,        !- Vertex 2 Xcoordinate
    5.444399999920279,        !- Vertex 2 Ycoordinate
    0,                        !- Vertex 2 Zcoordinate
    17.432499999646097,       !- Vertex 3 Xcoordinate
    5.747399999760091,        !- Vertex 3 Ycoordinate
    0,                        !- Vertex 3 Zcoordinate
    16.7679999996908,         !- Vertex 4 Xcoordinate
    -3.295500e+00,            !- Vertex 4 Ycoordinate
    0,                        !- Vertex 4 Zcoordinate
    7.132699999958277,        !- Vertex 5 Xcoordinate
    -2.674699999857694,       !- Vertex 5 Ycoordinate
    0,                        !- Vertex 5 Zcoordinate
    7.949499999638647,        !- Vertex 6 Xcoordinate
    8.037399999797344,        !- Vertex 6 Ycoordinate
    0,                        !- Vertex 6 Zcoordinate
    2.965899999719113,        !- Vertex 7 Xcoordinate
    13.78389999968931,        !- Vertex 7 Ycoordinate
    0,                        !- Vertex 7 Zcoordinate
    10.409899999853224,       !- Vertex 8 Xcoordinate
    20.67379999998957,        !- Vertex 8 Ycoordinate
    0,                        !- Vertex 8 Zcoordinate
    17.009499999694526,       !- Vertex 9 Xcoordinate
    13.01439999975264,        !- Vertex 9 Ycoordinate
    0;                        !- Vertex 9 Zcoordinate

BUILDINGSURFACE:DETAILED,
    Block Build0_Alt0 Storey 0 Wall 0006_1,    !- Name
    wall,                     !- Surface Type
    Project Partition,        !- Construction Name
    Block Build0_Alt0 Storey 0,    !- Zone Name
    surface,                  !- Outside Boundary Condition
    Block Build2_Alt0 Storey 0 Wall 0012_2,    !- Outside Boundary Condition Object
    NoSun,                    !- Sun Exposure
    NoWind,                   !- Wind Exposure
    autocalculate,            !- View Factor to Ground
    autocalculate,            !- Number of Vertices
    10.409899999853224,       !- Vertex 1 Xcoordinate
    20.673799999864148,       !- Vertex 1 Ycoordinate
    12,                       !- Vertex 1 Zcoordinate
    10.409899999853224,       !- Vertex 2 Xcoordinate
    20.673799999864148,       !- Vertex 2 Ycoordinate
    0,                        !- Vertex 2 Zcoordinate
    2.965899999719113,        !- Vertex 3 Xcoordinate
    13.78389999974002,        !- Vertex 3 Ycoordinate
    0,                        !- Vertex 3 Zcoordinate
    2.965899999719113,        !- Vertex 4 Xcoordinate
    13.78389999974002,        !- Vertex 4 Ycoordinate
    12;                       !- Vertex 4 Zcoordinate

BUILDINGSURFACE:DETAILED,
    Block Build2_Alt0 Storey 0 Wall 0012_1,    !- Name
    wall,                     !- Surface Type
    Project Wall,             !- Construction Name
    Block Build2_Alt0 Storey 0,    !- Zone Name
    outdoors,                 !- Outside Boundary Condition
    ,                         !- Outside Boundary Condition Object
    SunExposed,               !- Sun Exposure
    WindExposed,              !- Wind Exposure
    autocalculate,            !- View Factor to Ground
    autocalculate,            !- Number of Vertices
    2.965899999719113,        !- Vertex 1 Xcoordinate
    13.78389999974002,        !- Vertex 1 Ycoordinate
    21,                       !- Vertex 1 Zcoordinate
    2.965899999719113,        !- Vertex 2 Xcoordinate
    13.78389999974002,        !- Vertex 2 Ycoordinate
    12,                       !- Vertex 2 Zcoordinate
    10.409899999853224,       !- Vertex 3 Xcoordinate
    20.673799999864148,       !- Vertex 3 Ycoordinate
    12,                       !- Vertex 3 Zcoordinate
    10.409899999853224,       !- Vertex 4 Xcoordinate
    20.673799999864148,       !- Vertex 4 Ycoordinate
    21;                       !- Vertex 4 Zcoordinate

BUILDINGSURFACE:DETAILED,
    Block Build2_Alt0 Storey 0 Wall 0012_2,    !- Name
    wall,                     !- Surface Type
    Project Partition,        !- Construction Name
    Block Build2_Alt0 Storey 0,    !- Zone Name
    surface,                  !- Outside Boundary Condition
    Block Build0_Alt0 Storey 0 Wall 0006_1,    !- Outside Boundary Condition Object
    NoSun,                    !- Sun Exposure
    NoWind,                   !- Wind Exposure
    autocalculate,            !- View Factor to Ground
    autocalculate,            !- Number of Vertices
    2.965899999719113,        !- Vertex 1 Xcoordinate
    13.78389999974002,        !- Vertex 1 Ycoordinate
    12,                       !- Vertex 1 Zcoordinate
    2.965899999719113,        !- Vertex 2 Xcoordinate
    13.78389999974002,        !- Vertex 2 Ycoordinate
    0,                        !- Vertex 2 Zcoordinate
    10.409899999853224,       !- Vertex 3 Xcoordinate
    20.673799999864148,       !- Vertex 3 Ycoordinate
    0,                        !- Vertex 3 Zcoordinate
    10.409899999853224,       !- Vertex 4 Xcoordinate
    20.673799999864148,       !- Vertex 4 Ycoordinate
    12;                       !- Vertex 4 Zcoordinate

BUILDINGSURFACE:DETAILED,
    Block Build0_Alt0 Storey 0 Wall 0009_1,    !- Name
    wall,                     !- Surface Type
    Project Partition,        !- Construction Name
    Block Build0_Alt0 Storey 0,    !- Zone Name
    surface,                  !- Outside Boundary Condition
    Block Build1_Alt0 Storey 0 Wall 0001_1,    !- Outside Boundary Condition Object
    NoSun,                    !- Sun Exposure
    NoWind,                   !- Wind Exposure
    autocalculate,            !- View Factor to Ground
    autocalculate,            !- Number of Vertices
    7.132699999958277,        !- Vertex 1 Xcoordinate
    -2.674700e+00,            !- Vertex 1 Ycoordinate
    12,                       !- Vertex 1 Zcoordinate
    7.132699999958277,        !- Vertex 2 Xcoordinate
    -2.674700e+00,            !- Vertex 2 Ycoordinate
    0,                        !- Vertex 2 Zcoordinate
    16.7679999996908,         !- Vertex 3 Xcoordinate
    -3.295500e+00,            !- Vertex 3 Ycoordinate
    0,                        !- Vertex 3 Zcoordinate
    16.7679999996908,         !- Vertex 4 Xcoordinate
    -3.295500e+00,            !- Vertex 4 Ycoordinate
    12;                       !- Vertex 4 Zcoordinate

BUILDINGSURFACE:DETAILED,
    Block Build1_Alt0 Storey 0 Wall 0001_1,    !- Name
    wall,                     !- Surface Type
    Project Partition,        !- Construction Name
    Block Build1_Alt0 Storey 0,    !- Zone Name
    surface,                  !- Outside Boundary Condition
    Block Build0_Alt0 Storey 0 Wall 0009_1,    !- Outside Boundary Condition Object
    NoSun,                    !- Sun Exposure
    NoWind,                   !- Wind Exposure
    autocalculate,            !- View Factor to Ground
    autocalculate,            !- Number of Vertices
    16.7679999996908,         !- Vertex 1 Xcoordinate
    -3.295500e+00,            !- Vertex 1 Ycoordinate
    12,                       !- Vertex 1 Zcoordinate
    16.7679999996908,         !- Vertex 2 Xcoordinate
    -3.295500e+00,            !- Vertex 2 Ycoordinate
    0,                        !- Vertex 2 Zcoordinate
    7.132699999958277,        !- Vertex 3 Xcoordinate
    -2.674699999997312,       !- Vertex 3 Ycoordinate
    0,                        !- Vertex 3 Zcoordinate
    7.132699999958277,        !- Vertex 4 Xcoordinate
    -2.674699999997312,       !- Vertex 4 Ycoordinate
    12;                       !- Vertex 4 Zcoordinate

BUILDINGSURFACE:DETAILED,
    Block Build1_Alt0 Storey 0 Wall 0001_2,    !- Name
    wall,                     !- Surface Type
    Project Wall,             !- Construction Name
    Block Build1_Alt0 Storey 0,    !- Zone Name
    outdoors,                 !- Outside Boundary Condition
    ,                         !- Outside Boundary Condition Object
    SunExposed,               !- Sun Exposure
    WindExposed,              !- Wind Exposure
    autocalculate,            !- View Factor to Ground
    autocalculate,            !- Number of Vertices
    16.7679999996908,         !- Vertex 1 Xcoordinate
    -3.295500e+00,            !- Vertex 1 Ycoordinate
    21,                       !- Vertex 1 Zcoordinate
    16.7679999996908,         !- Vertex 2 Xcoordinate
    -3.295500e+00,            !- Vertex 2 Ycoordinate
    12,                       !- Vertex 2 Zcoordinate
    7.132699999958277,        !- Vertex 3 Xcoordinate
    -2.674699999997312,       !- Vertex 3 Ycoordinate
    12,                       !- Vertex 3 Zcoordinate
    7.132699999958277,        !- Vertex 4 Xcoordinate
    -2.674699999997312,       !- Vertex 4 Ycoordinate
    21;                       !- Vertex 4 Zcoordinate

BUILDINGSURFACE:DETAILED,
    Block Build1_Alt0 Storey -1 Ceiling 0001_1,    !- Name
    ceiling,                  !- Surface Type
    Project Heated1rstFloor Rev,    !- Construction Name
    Block Build1_Alt0 Storey -1,    !- Zone Name
    surface,                  !- Outside Boundary Condition
    Block Build1_Alt0 Storey 0 Floor 0001_1,    !- Outside Boundary Condition Object
    NoSun,                    !- Sun Exposure
    NoWind,                   !- Wind Exposure
    autocalculate,            !- View Factor to Ground
    autocalculate,            !- Number of Vertices
    23.168499999679625,       !- Vertex 1 Xcoordinate
    -2.319460e+01,            !- Vertex 1 Ycoordinate
    0,                        !- Vertex 1 Zcoordinate
    23.951499999966472,       !- Vertex 2 Xcoordinate
    -1.310560e+01,            !- Vertex 2 Ycoordinate
    0,                        !- Vertex 2 Zcoordinate
    16.08449999988079,        !- Vertex 3 Xcoordinate
    -1.259760e+01,            !- Vertex 3 Ycoordinate
    0,                        !- Vertex 3 Zcoordinate
    16.7679999996908,         !- Vertex 4 Xcoordinate
    -3.295500e+00,            !- Vertex 4 Ycoordinate
    0,                        !- Vertex 4 Zcoordinate
    7.132699999958277,        !- Vertex 5 Xcoordinate
    -2.674699999857694,       !- Vertex 5 Ycoordinate
    0,                        !- Vertex 5 Zcoordinate
    6.534499999601394,        !- Vertex 6 Xcoordinate
    -1.051960e+01,            !- Vertex 6 Ycoordinate
    0,                        !- Vertex 6 Zcoordinate
    -2.883500e+00,            !- Vertex 7 Xcoordinate
    -9.81859999988228,        !- Vertex 7 Ycoordinate
    0,                        !- Vertex 7 Zcoordinate
    -3.828500e+00,            !- Vertex 8 Xcoordinate
    -22.44359999988228,       !- Vertex 8 Ycoordinate
    0,                        !- Vertex 8 Zcoordinate
    5.5634999996982515,       !- Vertex 9 Xcoordinate
    -2.315760e+01,            !- Vertex 9 Ycoordinate
    0,                        !- Vertex 9 Zcoordinate
    5.047499999869615,        !- Vertex 10 Xcoordinate
    -3.078960e+01,            !- Vertex 10 Ycoordinate
    0,                        !- Vertex 10 Zcoordinate
    15.111499999649823,       !- Vertex 11 Xcoordinate
    -3.156260e+01,            !- Vertex 11 Ycoordinate
    0,                        !- Vertex 11 Zcoordinate
    15.71349999960512,        !- Vertex 12 Xcoordinate
    -2.262360e+01,            !- Vertex 12 Ycoordinate
    0;                        !- Vertex 12 Zcoordinate

BUILDINGSURFACE:DETAILED,
    Block Build1_Alt0 Storey 0 Floor 0001_1,    !- Name
    floor,                    !- Surface Type
    Project Heated1rstFloor,    !- Construction Name
    Block Build1_Alt0 Storey 0,    !- Zone Name
    surface,                  !- Outside Boundary Condition
    Block Build1_Alt0 Storey -1 Ceiling 0001_1,    !- Outside Boundary Condition Object
    NoSun,                    !- Sun Exposure
    NoWind,                   !- Wind Exposure
    autocalculate,            !- View Factor to Ground
    autocalculate,            !- Number of Vertices
    16.7679999996908,         !- Vertex 1 Xcoordinate
    -3.295500e+00,            !- Vertex 1 Ycoordinate
    0,                        !- Vertex 1 Zcoordinate
    16.08449999988079,        !- Vertex 2 Xcoordinate
    -1.259760e+01,            !- Vertex 2 Ycoordinate
    0,                        !- Vertex 2 Zcoordinate
    23.951499999966472,       !- Vertex 3 Xcoordinate
    -1.310560e+01,            !- Vertex 3 Ycoordinate
    0,                        !- Vertex 3 Zcoordinate
    23.168499999679625,       !- Vertex 4 Xcoordinate
    -2.319460e+01,            !- Vertex 4 Ycoordinate
    0,                        !- Vertex 4 Zcoordinate
    15.71349999960512,        !- Vertex 5 Xcoordinate
    -2.262360e+01,            !- Vertex 5 Ycoordinate
    0,                        !- Vertex 5 Zcoordinate
    15.111499999649823,       !- Vertex 6 Xcoordinate
    -3.156260e+01,            !- Vertex 6 Ycoordinate
    0,                        !- Vertex 6 Zcoordinate
    5.047499999869615,        !- Vertex 7 Xcoordinate
    -3.078960e+01,            !- Vertex 7 Ycoordinate
    0,                        !- Vertex 7 Zcoordinate
    5.5634999996982515,       !- Vertex 8 Xcoordinate
    -2.315760e+01,            !- Vertex 8 Ycoordinate
    0,                        !- Vertex 8 Zcoordinate
    -3.828500e+00,            !- Vertex 9 Xcoordinate
    -22.44359999988228,       !- Vertex 9 Ycoordinate
    0,                        !- Vertex 9 Zcoordinate
    -2.883500e+00,            !- Vertex 10 Xcoordinate
    -9.81859999988228,        !- Vertex 10 Ycoordinate
    0,                        !- Vertex 10 Zcoordinate
    6.534499999601394,        !- Vertex 11 Xcoordinate
    -1.051960e+01,            !- Vertex 11 Ycoordinate
    0,                        !- Vertex 11 Zcoordinate
    7.132699999958277,        !- Vertex 12 Xcoordinate
    -2.674699999857694,       !- Vertex 12 Ycoordinate
    0;                        !- Vertex 12 Zcoordinate

BUILDINGSURFACE:DETAILED,
    Block Build2_Alt0 Storey -1 Ceiling 0001_1,    !- Name
    ceiling,                  !- Surface Type
    Project Heated1rstFloor Rev,    !- Construction Name
    Block Build2_Alt0 Storey -1,    !- Zone Name
    surface,                  !- Outside Boundary Condition
    Block Build2_Alt0 Storey 0 Floor 0001_1,    !- Outside Boundary Condition Object
    NoSun,                    !- Sun Exposure
    NoWind,                   !- Wind Exposure
    autocalculate,            !- View Factor to Ground
    autocalculate,            !- Number of Vertices
    10.409899999853224,       !- Vertex 1 Xcoordinate
    20.67379999998957,        !- Vertex 1 Ycoordinate
    0,                        !- Vertex 1 Zcoordinate
    3.470499999821186,        !- Vertex 2 Xcoordinate
    28.727399999741465,       !- Vertex 2 Ycoordinate
    0,                        !- Vertex 2 Zcoordinate
    7.631499999668449,        !- Vertex 3 Xcoordinate
    32.31239999970421,        !- Vertex 3 Ycoordinate
    0,                        !- Vertex 3 Zcoordinate
    1.5994999995455146,       !- Vertex 4 Xcoordinate
    39.3113999995403,         !- Vertex 4 Ycoordinate
    0,                        !- Vertex 4 Zcoordinate
    -2.560500e+00,            !- Vertex 5 Xcoordinate
    35.72639999957755,        !- Vertex 5 Ycoordinate
    0,                        !- Vertex 5 Zcoordinate
    -8.37749999994412,        !- Vertex 6 Xcoordinate
    42.55239999992773,        !- Vertex 6 Ycoordinate
    0,                        !- Vertex 6 Zcoordinate
    -16.04949999973178,       !- Vertex 7 Xcoordinate
    35.94839999964461,        !- Vertex 7 Ycoordinate
    0,                        !- Vertex 7 Zcoordinate
    -1.104050e+01,            !- Vertex 8 Xcoordinate
    30.180399999953806,       !- Vertex 8 Ycoordinate
    0,                        !- Vertex 8 Zcoordinate
    -18.26549999974668,       !- Vertex 9 Xcoordinate
    23.986399999819696,       !- Vertex 9 Ycoordinate
    0,                        !- Vertex 9 Zcoordinate
    -9.95049999980256,        !- Vertex 10 Xcoordinate
    14.316399999894202,       !- Vertex 10 Ycoordinate
    0,                        !- Vertex 10 Zcoordinate
    -2.815500e+00,            !- Vertex 11 Xcoordinate
    20.450399999972433,       !- Vertex 11 Ycoordinate
    0,                        !- Vertex 11 Zcoordinate
    2.965899999719113,        !- Vertex 12 Xcoordinate
    13.78389999968931,        !- Vertex 12 Ycoordinate
    0;                        !- Vertex 12 Zcoordinate

BUILDINGSURFACE:DETAILED,
    Block Build2_Alt0 Storey 0 Floor 0001_1,    !- Name
    floor,                    !- Surface Type
    Project Heated1rstFloor,    !- Construction Name
    Block Build2_Alt0 Storey 0,    !- Zone Name
    surface,                  !- Outside Boundary Condition
    Block Build2_Alt0 Storey -1 Ceiling 0001_1,    !- Outside Boundary Condition Object
    NoSun,                    !- Sun Exposure
    NoWind,                   !- Wind Exposure
    autocalculate,            !- View Factor to Ground
    autocalculate,            !- Number of Vertices
    1.5994999995455146,       !- Vertex 1 Xcoordinate
    39.3113999995403,         !- Vertex 1 Ycoordinate
    0,                        !- Vertex 1 Zcoordinate
    7.631499999668449,        !- Vertex 2 Xcoordinate
    32.31239999970421,        !- Vertex 2 Ycoordinate
    0,                        !- Vertex 2 Zcoordinate
    3.470499999821186,        !- Vertex 3 Xcoordinate
    28.727399999741465,       !- Vertex 3 Ycoordinate
    0,                        !- Vertex 3 Zcoordinate
    10.409899999853224,       !- Vertex 4 Xcoordinate
    20.67379999998957,        !- Vertex 4 Ycoordinate
    0,                        !- Vertex 4 Zcoordinate
    2.965899999719113,        !- Vertex 5 Xcoordinate
    13.78389999968931,        !- Vertex 5 Ycoordinate
    0,                        !- Vertex 5 Zcoordinate
    -2.815500e+00,            !- Vertex 6 Xcoordinate
    20.450399999972433,       !- Vertex 6 Ycoordinate
    0,                        !- Vertex 6 Zcoordinate
    -9.95049999980256,        !- Vertex 7 Xcoordinate
    14.316399999894202,       !- Vertex 7 Ycoordinate
    0,                        !- Vertex 7 Zcoordinate
    -18.26549999974668,       !- Vertex 8 Xcoordinate
    23.986399999819696,       !- Vertex 8 Ycoordinate
    0,                        !- Vertex 8 Zcoordinate
    -1.104050e+01,            !- Vertex 9 Xcoordinate
    30.180399999953806,       !- Vertex 9 Ycoordinate
    0,                        !- Vertex 9 Zcoordinate
    -16.04949999973178,       !- Vertex 10 Xcoordinate
    35.94839999964461,        !- Vertex 10 Ycoordinate
    0,                        !- Vertex 10 Zcoordinate
    -8.37749999994412,        !- Vertex 11 Xcoordinate
    42.55239999992773,        !- Vertex 11 Ycoordinate
    0,                        !- Vertex 11 Zcoordinate
    -2.560500e+00,            !- Vertex 12 Xcoordinate
    35.72639999957755,        !- Vertex 12 Ycoordinate
    0;                        !- Vertex 12 Zcoordinate

BUILDINGSURFACE:DETAILED,
    Block Build0_Alt0 Storey 0 Roof 0001_0,    !- Name
    roof,                     !- Surface Type
    Project Flat Roof,        !- Construction Name
    Block Build0_Alt0 Storey 0,    !- Zone Name
    outdoors,                 !- Outside Boundary Condition
    ,                         !- Outside Boundary Condition Object
    SunExposed,               !- Sun Exposure
    WindExposed,              !- Wind Exposure
    autocalculate,            !- View Factor to Ground
    autocalculate,            !- Number of Vertices
    21.4205,                  !- Vertex 1 Xcoordinate
    5.4444,                   !- Vertex 1 Ycoordinate
    12,                       !- Vertex 1 Zcoordinate
    21.9615,                  !- Vertex 2 Xcoordinate
    12.5754,                  !- Vertex 2 Ycoordinate
    12,                       !- Vertex 2 Zcoordinate
    17.0095,                  !- Vertex 3 Xcoordinate
    13.0144,                  !- Vertex 3 Ycoordinate
    12,                       !- Vertex 3 Zcoordinate
    7.9495,                   !- Vertex 4 Xcoordinate
    8.0374,                   !- Vertex 4 Ycoordinate
    12,                       !- Vertex 4 Zcoordinate
    17.4325,                  !- Vertex 5 Xcoordinate
    5.7474,                   !- Vertex 5 Ycoordinate
    12;                       !- Vertex 5 Zcoordinate

BUILDINGSURFACE:DETAILED,
    Block Build0_Alt0 Storey 0 Roof 0001_1,    !- Name
    roof,                     !- Surface Type
    Project Flat Roof,        !- Construction Name
    Block Build0_Alt0 Storey 0,    !- Zone Name
    outdoors,                 !- Outside Boundary Condition
    ,                         !- Outside Boundary Condition Object
    SunExposed,               !- Sun Exposure
    WindExposed,              !- Wind Exposure
    autocalculate,            !- View Factor to Ground
    autocalculate,            !- Number of Vertices
    17.0095,                  !- Vertex 1 Xcoordinate
    13.0144,                  !- Vertex 1 Ycoordinate
    12,                       !- Vertex 1 Zcoordinate
    10.4099,                  !- Vertex 2 Xcoordinate
    20.6738,                  !- Vertex 2 Ycoordinate
    12,                       !- Vertex 2 Zcoordinate
    2.9659,                   !- Vertex 3 Xcoordinate
    13.7839,                  !- Vertex 3 Ycoordinate
    12,                       !- Vertex 3 Zcoordinate
    7.9495,                   !- Vertex 4 Xcoordinate
    8.0374,                   !- Vertex 4 Ycoordinate
    12;                       !- Vertex 4 Zcoordinate

BUILDINGSURFACE:DETAILED,
    Block Build0_Alt0 Storey 0 Roof 0001_2,    !- Name
    roof,                     !- Surface Type
    Project Flat Roof,        !- Construction Name
    Block Build0_Alt0 Storey 0,    !- Zone Name
    outdoors,                 !- Outside Boundary Condition
    ,                         !- Outside Boundary Condition Object
    SunExposed,               !- Sun Exposure
    WindExposed,              !- Wind Exposure
    autocalculate,            !- View Factor to Ground
    autocalculate,            !- Number of Vertices
    16.768,                   !- Vertex 1 Xcoordinate
    -3.2955,                  !- Vertex 1 Ycoordinate
    12,                       !- Vertex 1 Zcoordinate
    17.4325,                  !- Vertex 2 Xcoordinate
    5.7474,                   !- Vertex 2 Ycoordinate
    12,                       !- Vertex 2 Zcoordinate
    7.9495,                   !- Vertex 3 Xcoordinate
    8.0374,                   !- Vertex 3 Ycoordinate
    12,                       !- Vertex 3 Zcoordinate
    7.1327,                   !- Vertex 4 Xcoordinate
    -2.6747,                  !- Vertex 4 Ycoordinate
    12;                       !- Vertex 4 Zcoordinate

BUILDINGSURFACE:DETAILED,
    Block Build1_Alt0 Storey 0 Roof 0001_0,    !- Name
    roof,                     !- Surface Type
    Project Flat Roof,        !- Construction Name
    Block Build1_Alt0 Storey 0,    !- Zone Name
    outdoors,                 !- Outside Boundary Condition
    ,                         !- Outside Boundary Condition Object
    SunExposed,               !- Sun Exposure
    WindExposed,              !- Wind Exposure
    autocalculate,            !- View Factor to Ground
    autocalculate,            !- Number of Vertices
    23.1685,                  !- Vertex 1 Xcoordinate
    -23.1946,                 !- Vertex 1 Ycoordinate
    21,                       !- Vertex 1 Zcoordinate
    23.9515,                  !- Vertex 2 Xcoordinate
    -13.1056,                 !- Vertex 2 Ycoordinate
    21,                       !- Vertex 2 Zcoordinate
    16.0845,                  !- Vertex 3 Xcoordinate
    -12.5976,                 !- Vertex 3 Ycoordinate
    21,                       !- Vertex 3 Zcoordinate
    15.7135,                  !- Vertex 4 Xcoordinate
    -22.6236,                 !- Vertex 4 Ycoordinate
    21;                       !- Vertex 4 Zcoordinate

BUILDINGSURFACE:DETAILED,
    Block Build1_Alt0 Storey 0 Roof 0001_1,    !- Name
    roof,                     !- Surface Type
    Project Flat Roof,        !- Construction Name
    Block Build1_Alt0 Storey 0,    !- Zone Name
    outdoors,                 !- Outside Boundary Condition
    ,                         !- Outside Boundary Condition Object
    SunExposed,               !- Sun Exposure
    WindExposed,              !- Wind Exposure
    autocalculate,            !- View Factor to Ground
    autocalculate,            !- Number of Vertices
    16.0845,                  !- Vertex 1 Xcoordinate
    -12.5976,                 !- Vertex 1 Ycoordinate
    21,                       !- Vertex 1 Zcoordinate
    16.768,                   !- Vertex 2 Xcoordinate
    -3.2955,                  !- Vertex 2 Ycoordinate
    21,                       !- Vertex 2 Zcoordinate
    7.1327,                   !- Vertex 3 Xcoordinate
    -2.6747,                  !- Vertex 3 Ycoordinate
    21,                       !- Vertex 3 Zcoordinate
    6.5345,                   !- Vertex 4 Xcoordinate
    -10.5196,                 !- Vertex 4 Ycoordinate
    21;                       !- Vertex 4 Zcoordinate

BUILDINGSURFACE:DETAILED,
    Block Build1_Alt0 Storey 0 Roof 0001_2,    !- Name
    roof,                     !- Surface Type
    Project Flat Roof,        !- Construction Name
    Block Build1_Alt0 Storey 0,    !- Zone Name
    outdoors,                 !- Outside Boundary Condition
    ,                         !- Outside Boundary Condition Object
    SunExposed,               !- Sun Exposure
    WindExposed,              !- Wind Exposure
    autocalculate,            !- View Factor to Ground
    autocalculate,            !- Number of Vertices
    5.5635,                   !- Vertex 1 Xcoordinate
    -23.1576,                 !- Vertex 1 Ycoordinate
    21,                       !- Vertex 1 Zcoordinate
    6.5345,                   !- Vertex 2 Xcoordinate
    -10.5196,                 !- Vertex 2 Ycoordinate
    21,                       !- Vertex 2 Zcoordinate
    -2.8835,                  !- Vertex 3 Xcoordinate
    -9.8186,                  !- Vertex 3 Ycoordinate
    21,                       !- Vertex 3 Zcoordinate
    -3.8285,                  !- Vertex 4 Xcoordinate
    -22.4436,                 !- Vertex 4 Ycoordinate
    21;                       !- Vertex 4 Zcoordinate

BUILDINGSURFACE:DETAILED,
    Block Build1_Alt0 Storey 0 Roof 0001_3,    !- Name
    roof,                     !- Surface Type
    Project Flat Roof,        !- Construction Name
    Block Build1_Alt0 Storey 0,    !- Zone Name
    outdoors,                 !- Outside Boundary Condition
    ,                         !- Outside Boundary Condition Object
    SunExposed,               !- Sun Exposure
    WindExposed,              !- Wind Exposure
    autocalculate,            !- View Factor to Ground
    autocalculate,            !- Number of Vertices
    15.1115,                  !- Vertex 1 Xcoordinate
    -31.5626,                 !- Vertex 1 Ycoordinate
    21,                       !- Vertex 1 Zcoordinate
    15.7135,                  !- Vertex 2 Xcoordinate
    -22.6236,                 !- Vertex 2 Ycoordinate
    21,                       !- Vertex 2 Zcoordinate
    16.0845,                  !- Vertex 3 Xcoordinate
    -12.5976,                 !- Vertex 3 Ycoordinate
    21,                       !- Vertex 3 Zcoordinate
    6.5345,                   !- Vertex 4 Xcoordinate
    -10.5196,                 !- Vertex 4 Ycoordinate
    21,                       !- Vertex 4 Zcoordinate
    5.5635,                   !- Vertex 5 Xcoordinate
    -23.1576,                 !- Vertex 5 Ycoordinate
    21,                       !- Vertex 5 Zcoordinate
    5.0475,                   !- Vertex 6 Xcoordinate
    -30.7896,                 !- Vertex 6 Ycoordinate
    21;                       !- Vertex 6 Zcoordinate

BUILDINGSURFACE:DETAILED,
    Block Build2_Alt0 Storey 0 Roof 0001_0,    !- Name
    roof,                     !- Surface Type
    Project Flat Roof,        !- Construction Name
    Block Build2_Alt0 Storey 0,    !- Zone Name
    outdoors,                 !- Outside Boundary Condition
    ,                         !- Outside Boundary Condition Object
    SunExposed,               !- Sun Exposure
    WindExposed,              !- Wind Exposure
    autocalculate,            !- View Factor to Ground
    autocalculate,            !- Number of Vertices
    7.6315,                   !- Vertex 1 Xcoordinate
    32.3124,                  !- Vertex 1 Ycoordinate
    21,                       !- Vertex 1 Zcoordinate
    1.5995,                   !- Vertex 2 Xcoordinate
    39.3114,                  !- Vertex 2 Ycoordinate
    21,                       !- Vertex 2 Zcoordinate
    -2.5605,                  !- Vertex 3 Xcoordinate
    35.7264,                  !- Vertex 3 Ycoordinate
    21,                       !- Vertex 3 Zcoordinate
    3.4705,                   !- Vertex 4 Xcoordinate
    28.7274,                  !- Vertex 4 Ycoordinate
    21;                       !- Vertex 4 Zcoordinate

BUILDINGSURFACE:DETAILED,
    Block Build2_Alt0 Storey 0 Roof 0001_1,    !- Name
    roof,                     !- Surface Type
    Project Flat Roof,        !- Construction Name
    Block Build2_Alt0 Storey 0,    !- Zone Name
    outdoors,                 !- Outside Boundary Condition
    ,                         !- Outside Boundary Condition Object
    SunExposed,               !- Sun Exposure
    WindExposed,              !- Wind Exposure
    autocalculate,            !- View Factor to Ground
    autocalculate,            !- Number of Vertices
    -2.5605,                  !- Vertex 1 Xcoordinate
    35.7264,                  !- Vertex 1 Ycoordinate
    21,                       !- Vertex 1 Zcoordinate
    -8.3775,                  !- Vertex 2 Xcoordinate
    42.5524,                  !- Vertex 2 Ycoordinate
    21,                       !- Vertex 2 Zcoordinate
    -16.0495,                 !- Vertex 3 Xcoordinate
    35.9484,                  !- Vertex 3 Ycoordinate
    21,                       !- Vertex 3 Zcoordinate
    -11.0405,                 !- Vertex 4 Xcoordinate
    30.1804,                  !- Vertex 4 Ycoordinate
    21;                       !- Vertex 4 Zcoordinate

BUILDINGSURFACE:DETAILED,
    Block Build2_Alt0 Storey 0 Roof 0001_2,    !- Name
    roof,                     !- Surface Type
    Project Flat Roof,        !- Construction Name
    Block Build2_Alt0 Storey 0,    !- Zone Name
    outdoors,                 !- Outside Boundary Condition
    ,                         !- Outside Boundary Condition Object
    SunExposed,               !- Sun Exposure
    WindExposed,              !- Wind Exposure
    autocalculate,            !- View Factor to Ground
    autocalculate,            !- Number of Vertices
    10.4099,                  !- Vertex 1 Xcoordinate
    20.6738,                  !- Vertex 1 Ycoordinate
    21,                       !- Vertex 1 Zcoordinate
    3.4705,                   !- Vertex 2 Xcoordinate
    28.7274,                  !- Vertex 2 Ycoordinate
    21,                       !- Vertex 2 Zcoordinate
    -2.5605,                  !- Vertex 3 Xcoordinate
    35.7264,                  !- Vertex 3 Ycoordinate
    21,                       !- Vertex 3 Zcoordinate
    -2.8155,                  !- Vertex 4 Xcoordinate
    20.4504,                  !- Vertex 4 Ycoordinate
    21,                       !- Vertex 4 Zcoordinate
    2.9659,                   !- Vertex 5 Xcoordinate
    13.7839,                  !- Vertex 5 Ycoordinate
    21;                       !- Vertex 5 Zcoordinate

BUILDINGSURFACE:DETAILED,
    Block Build2_Alt0 Storey 0 Roof 0001_3,    !- Name
    roof,                     !- Surface Type
    Project Flat Roof,        !- Construction Name
    Block Build2_Alt0 Storey 0,    !- Zone Name
    outdoors,                 !- Outside Boundary Condition
    ,                         !- Outside Boundary Condition Object
    SunExposed,               !- Sun Exposure
    WindExposed,              !- Wind Exposure
    autocalculate,            !- View Factor to Ground
    autocalculate,            !- Number of Vertices
    -2.8155,                  !- Vertex 1 Xcoordinate
    20.4504,                  !- Vertex 1 Ycoordinate
    21,                       !- Vertex 1 Zcoordinate
    -2.5605,                  !- Vertex 2 Xcoordinate
    35.7264,                  !- Vertex 2 Ycoordinate
    21,                       !- Vertex 2 Zcoordinate
    -11.0405,                 !- Vertex 3 Xcoordinate
    30.1804,                  !- Vertex 3 Ycoordinate
    21,                       !- Vertex 3 Zcoordinate
    -18.2655,                 !- Vertex 4 Xcoordinate
    23.9864,                  !- Vertex 4 Ycoordinate
    21,                       !- Vertex 4 Zcoordinate
    -9.9505,                  !- Vertex 5 Xcoordinate
    14.3164,                  !- Vertex 5 Ycoordinate
    21;                       !- Vertex 5 Zcoordinate

FENESTRATIONSURFACE:DETAILED,
    Block Build0_Alt0 Storey 0 Wall 0001 window,    !- Name
    Window,                   !- Surface Type
    Project External Window,    !- Construction Name
    Block Build0_Alt0 Storey 0 Wall 0001,    !- Building Surface Name
    ,                         !- Outside Boundary Condition Object
    autocalculate,            !- View Factor to Ground
    ,                         !- Frame and Divider Name
    1.0,                      !- Multiplier
    autocalculate,            !- Number of Vertices
    16.76833225,              !- Vertex 1 Xcoordinate
    -3.290979e+00,            !- Vertex 1 Ycoordinate
    7.8,                      !- Vertex 1 Zcoordinate
    16.76833225,              !- Vertex 2 Xcoordinate
    -3.290979e+00,            !- Vertex 2 Ycoordinate
    4.2,                      !- Vertex 2 Zcoordinate
    17.43216775,              !- Vertex 3 Xcoordinate
    5.7428785499999995,       !- Vertex 3 Ycoordinate
    4.2,                      !- Vertex 3 Zcoordinate
    17.43216775,              !- Vertex 4 Xcoordinate
    5.7428785499999995,       !- Vertex 4 Ycoordinate
    7.8;                      !- Vertex 4 Zcoordinate

FENESTRATIONSURFACE:DETAILED,
    Block Build0_Alt0 Storey 0 Wall 0002 window,    !- Name
    Window,                   !- Surface Type
    Project External Window,    !- Construction Name
    Block Build0_Alt0 Storey 0 Wall 0002,    !- Building Surface Name
    ,                         !- Outside Boundary Condition Object
    autocalculate,            !- View Factor to Ground
    ,                         !- Frame and Divider Name
    1.0,                      !- Multiplier
    autocalculate,            !- Number of Vertices
    17.434494,                !- Vertex 1 Xcoordinate
    5.7472484999999995,       !- Vertex 1 Ycoordinate
    7.8,                      !- Vertex 1 Zcoordinate
    17.434494,                !- Vertex 2 Xcoordinate
    5.7472484999999995,       !- Vertex 2 Ycoordinate
    4.2,                      !- Vertex 2 Zcoordinate
    21.418506,                !- Vertex 3 Xcoordinate
    5.4445515,                !- Vertex 3 Ycoordinate
    4.2,                      !- Vertex 3 Zcoordinate
    21.418506,                !- Vertex 4 Xcoordinate
    5.4445515,                !- Vertex 4 Ycoordinate
    7.8;                      !- Vertex 4 Zcoordinate

FENESTRATIONSURFACE:DETAILED,
    Block Build0_Alt0 Storey 0 Wall 0003 window,    !- Name
    Window,                   !- Surface Type
    Project External Window,    !- Construction Name
    Block Build0_Alt0 Storey 0 Wall 0003,    !- Building Surface Name
    ,                         !- Outside Boundary Condition Object
    autocalculate,            !- View Factor to Ground
    ,                         !- Frame and Divider Name
    1.0,                      !- Multiplier
    autocalculate,            !- Number of Vertices
    21.4207705,               !- Vertex 1 Xcoordinate
    5.4479655000000005,       !- Vertex 1 Ycoordinate
    7.8,                      !- Vertex 1 Zcoordinate
    21.4207705,               !- Vertex 2 Xcoordinate
    5.4479655000000005,       !- Vertex 2 Ycoordinate
    4.2,                      !- Vertex 2 Zcoordinate
    21.9612295,               !- Vertex 3 Xcoordinate
    12.5718345,               !- Vertex 3 Ycoordinate
    4.2,                      !- Vertex 3 Zcoordinate
    21.9612295,               !- Vertex 4 Xcoordinate
    12.5718345,               !- Vertex 4 Ycoordinate
    7.8;                      !- Vertex 4 Zcoordinate

FENESTRATIONSURFACE:DETAILED,
    Block Build0_Alt0 Storey 0 Wall 0004 window,    !- Name
    Window,                   !- Surface Type
    Project External Window,    !- Construction Name
    Block Build0_Alt0 Storey 0 Wall 0004,    !- Building Surface Name
    ,                         !- Outside Boundary Condition Object
    autocalculate,            !- View Factor to Ground
    ,                         !- Frame and Divider Name
    1.0,                      !- Multiplier
    autocalculate,            !- Number of Vertices
    21.959024,                !- Vertex 1 Xcoordinate
    12.5756195,               !- Vertex 1 Ycoordinate
    7.8,                      !- Vertex 1 Zcoordinate
    21.959024,                !- Vertex 2 Xcoordinate
    12.5756195,               !- Vertex 2 Ycoordinate
    4.2,                      !- Vertex 2 Zcoordinate
    17.011976,                !- Vertex 3 Xcoordinate
    13.0141805,               !- Vertex 3 Ycoordinate
    4.2,                      !- Vertex 3 Zcoordinate
    17.011976,                !- Vertex 4 Xcoordinate
    13.0141805,               !- Vertex 4 Ycoordinate
    7.8;                      !- Vertex 4 Zcoordinate

FENESTRATIONSURFACE:DETAILED,
    Block Build0_Alt0 Storey 0 Wall 0005 window,    !- Name
    Window,                   !- Surface Type
    Project External Window,    !- Construction Name
    Block Build0_Alt0 Storey 0 Wall 0005,    !- Building Surface Name
    ,                         !- Outside Boundary Condition Object
    autocalculate,            !- View Factor to Ground
    ,                         !- Frame and Divider Name
    1.0,                      !- Multiplier
    autocalculate,            !- Number of Vertices
    17.0062002,               !- Vertex 1 Xcoordinate
    13.0182297,               !- Vertex 1 Ycoordinate
    7.8,                      !- Vertex 1 Zcoordinate
    17.0062002,               !- Vertex 2 Xcoordinate
    13.0182297,               !- Vertex 2 Ycoordinate
    4.2,                      !- Vertex 2 Zcoordinate
    10.413199800000001,       !- Vertex 3 Xcoordinate
    20.6699703,               !- Vertex 3 Ycoordinate
    4.2,                      !- Vertex 3 Zcoordinate
    10.413199800000001,       !- Vertex 4 Xcoordinate
    20.6699703,               !- Vertex 4 Ycoordinate
    7.8;                      !- Vertex 4 Zcoordinate

FENESTRATIONSURFACE:DETAILED,
    Block Build0_Alt0 Storey 0 Wall 0007 window,    !- Name
    Window,                   !- Surface Type
    Project External Window,    !- Construction Name
    Block Build0_Alt0 Storey 0 Wall 0007,    !- Building Surface Name
    ,                         !- Outside Boundary Condition Object
    autocalculate,            !- View Factor to Ground
    ,                         !- Frame and Divider Name
    1.0,                      !- Multiplier
    autocalculate,            !- Number of Vertices
    2.9683918,                !- Vertex 1 Xcoordinate
    13.781026749999999,       !- Vertex 1 Ycoordinate
    7.8,                      !- Vertex 1 Zcoordinate
    2.9683918,                !- Vertex 2 Xcoordinate
    13.781026749999999,       !- Vertex 2 Ycoordinate
    4.2,                      !- Vertex 2 Zcoordinate
    7.947008199999999,        !- Vertex 3 Xcoordinate
    8.04027325,               !- Vertex 3 Ycoordinate
    4.2,                      !- Vertex 3 Zcoordinate
    7.947008199999999,        !- Vertex 4 Xcoordinate
    8.04027325,               !- Vertex 4 Ycoordinate
    7.8;                      !- Vertex 4 Zcoordinate

FENESTRATIONSURFACE:DETAILED,
    Block Build0_Alt0 Storey 0 Wall 0008 window,    !- Name
    Window,                   !- Surface Type
    Project External Window,    !- Construction Name
    Block Build0_Alt0 Storey 0 Wall 0008,    !- Building Surface Name
    ,                         !- Outside Boundary Condition Object
    autocalculate,            !- View Factor to Ground
    ,                         !- Frame and Divider Name
    1.0,                      !- Multiplier
    autocalculate,            !- Number of Vertices
    7.949091599999999,        !- Vertex 1 Xcoordinate
    8.03204395,               !- Vertex 1 Ycoordinate
    7.8,                      !- Vertex 1 Zcoordinate
    7.949091599999999,        !- Vertex 2 Xcoordinate
    8.03204395,               !- Vertex 2 Ycoordinate
    4.2,                      !- Vertex 2 Zcoordinate
    7.133108399999999,        !- Vertex 3 Xcoordinate
    -2.66934395,              !- Vertex 3 Ycoordinate
    4.2,                      !- Vertex 3 Zcoordinate
    7.133108399999999,        !- Vertex 4 Xcoordinate
    -2.66934395,              !- Vertex 4 Ycoordinate
    7.8;                      !- Vertex 4 Zcoordinate

FENESTRATIONSURFACE:DETAILED,
    Block Build1_Alt0 Storey 0 Wall 0002 window,    !- Name
    Window,                   !- Surface Type
    Project External Window,    !- Construction Name
    Block Build1_Alt0 Storey 0 Wall 0002,    !- Building Surface Name
    ,                         !- Outside Boundary Condition Object
    autocalculate,            !- View Factor to Ground
    ,                         !- Frame and Divider Name
    1.0,                      !- Multiplier
    autocalculate,            !- Number of Vertices
    7.1324008999999995,       !- Vertex 1 Xcoordinate
    -2.67862245,              !- Vertex 1 Ycoordinate
    13.65,                    !- Vertex 1 Zcoordinate
    7.1324008999999995,       !- Vertex 2 Xcoordinate
    -2.67862245,              !- Vertex 2 Ycoordinate
    7.35,                     !- Vertex 2 Zcoordinate
    6.534799100000001,        !- Vertex 3 Xcoordinate
    -10.51567755,             !- Vertex 3 Ycoordinate
    7.35,                     !- Vertex 3 Zcoordinate
    6.534799100000001,        !- Vertex 4 Xcoordinate
    -10.51567755,             !- Vertex 4 Ycoordinate
    13.65;                    !- Vertex 4 Zcoordinate

FENESTRATIONSURFACE:DETAILED,
    Block Build1_Alt0 Storey 0 Wall 0003 window,    !- Name
    Window,                   !- Surface Type
    Project External Window,    !- Construction Name
    Block Build1_Alt0 Storey 0 Wall 0003,    !- Building Surface Name
    ,                         !- Outside Boundary Condition Object
    autocalculate,            !- View Factor to Ground
    ,                         !- Frame and Divider Name
    1.0,                      !- Multiplier
    autocalculate,            !- Number of Vertices
    6.5297909999999995,       !- Vertex 1 Xcoordinate
    -10.5192495,              !- Vertex 1 Ycoordinate
    13.65,                    !- Vertex 1 Zcoordinate
    6.5297909999999995,       !- Vertex 2 Xcoordinate
    -10.5192495,              !- Vertex 2 Ycoordinate
    7.35,                     !- Vertex 2 Zcoordinate
    -2.878791,                !- Vertex 3 Xcoordinate
    -9.8189505,               !- Vertex 3 Ycoordinate
    7.35,                     !- Vertex 3 Zcoordinate
    -2.878791,                !- Vertex 4 Xcoordinate
    -9.8189505,               !- Vertex 4 Ycoordinate
    13.65;                    !- Vertex 4 Zcoordinate

FENESTRATIONSURFACE:DETAILED,
    Block Build1_Alt0 Storey 0 Wall 0004 window,    !- Name
    Window,                   !- Surface Type
    Project External Window,    !- Construction Name
    Block Build1_Alt0 Storey 0 Wall 0004,    !- Building Surface Name
    ,                         !- Outside Boundary Condition Object
    autocalculate,            !- View Factor to Ground
    ,                         !- Frame and Divider Name
    1.0,                      !- Multiplier
    autocalculate,            !- Number of Vertices
    -2.8839725,               !- Vertex 1 Xcoordinate
    -9.8249125,               !- Vertex 1 Ycoordinate
    13.65,                    !- Vertex 1 Zcoordinate
    -2.8839725,               !- Vertex 2 Xcoordinate
    -9.8249125,               !- Vertex 2 Ycoordinate
    7.35,                     !- Vertex 2 Zcoordinate
    -3.8280275,               !- Vertex 3 Xcoordinate
    -22.4372875,              !- Vertex 3 Ycoordinate
    7.35,                     !- Vertex 3 Zcoordinate
    -3.8280275,               !- Vertex 4 Xcoordinate
    -22.4372875,              !- Vertex 4 Ycoordinate
    13.65;                    !- Vertex 4 Zcoordinate

FENESTRATIONSURFACE:DETAILED,
    Block Build1_Alt0 Storey 0 Wall 0005 window,    !- Name
    Window,                   !- Surface Type
    Project External Window,    !- Construction Name
    Block Build1_Alt0 Storey 0 Wall 0005,    !- Building Surface Name
    ,                         !- Outside Boundary Condition Object
    autocalculate,            !- View Factor to Ground
    ,                         !- Frame and Divider Name
    1.0,                      !- Multiplier
    autocalculate,            !- Number of Vertices
    -3.823804e+00,            !- Vertex 1 Xcoordinate
    -22.443957,               !- Vertex 1 Ycoordinate
    13.65,                    !- Vertex 1 Zcoordinate
    -3.823804e+00,            !- Vertex 2 Xcoordinate
    -22.443957,               !- Vertex 2 Ycoordinate
    7.35,                     !- Vertex 2 Zcoordinate
    5.558804,                 !- Vertex 3 Xcoordinate
    -2.315724e+01,            !- Vertex 3 Ycoordinate
    7.35,                     !- Vertex 3 Zcoordinate
    5.558804,                 !- Vertex 4 Xcoordinate
    -2.315724e+01,            !- Vertex 4 Ycoordinate
    13.65;                    !- Vertex 4 Zcoordinate

FENESTRATIONSURFACE:DETAILED,
    Block Build1_Alt0 Storey 0 Wall 0006 window,    !- Name
    Window,                   !- Surface Type
    Project External Window,    !- Construction Name
    Block Build1_Alt0 Storey 0 Wall 0006,    !- Building Surface Name
    ,                         !- Outside Boundary Condition Object
    autocalculate,            !- View Factor to Ground
    ,                         !- Frame and Divider Name
    1.0,                      !- Multiplier
    autocalculate,            !- Number of Vertices
    5.563242000000001,        !- Vertex 1 Xcoordinate
    -23.161416,               !- Vertex 1 Ycoordinate
    13.65,                    !- Vertex 1 Zcoordinate
    5.563242000000001,        !- Vertex 2 Xcoordinate
    -23.161416,               !- Vertex 2 Ycoordinate
    7.35,                     !- Vertex 2 Zcoordinate
    5.047758,                 !- Vertex 3 Xcoordinate
    -30.785784,               !- Vertex 3 Ycoordinate
    7.35,                     !- Vertex 3 Zcoordinate
    5.047758,                 !- Vertex 4 Xcoordinate
    -30.785784,               !- Vertex 4 Ycoordinate
    13.65;                    !- Vertex 4 Zcoordinate

FENESTRATIONSURFACE:DETAILED,
    Block Build1_Alt0 Storey 0 Wall 0007 window,    !- Name
    Window,                   !- Surface Type
    Project External Window,    !- Construction Name
    Block Build1_Alt0 Storey 0 Wall 0007,    !- Building Surface Name
    ,                         !- Outside Boundary Condition Object
    autocalculate,            !- View Factor to Ground
    ,                         !- Frame and Divider Name
    1.0,                      !- Multiplier
    autocalculate,            !- Number of Vertices
    5.052532,                 !- Vertex 1 Xcoordinate
    -30.7899865,              !- Vertex 1 Ycoordinate
    13.65,                    !- Vertex 1 Zcoordinate
    5.052532,                 !- Vertex 2 Xcoordinate
    -30.7899865,              !- Vertex 2 Ycoordinate
    7.35,                     !- Vertex 2 Zcoordinate
    15.106468,                !- Vertex 3 Xcoordinate
    -31.5622135,              !- Vertex 3 Ycoordinate
    7.35,                     !- Vertex 3 Zcoordinate
    15.106468,                !- Vertex 4 Xcoordinate
    -31.5622135,              !- Vertex 4 Ycoordinate
    13.65;                    !- Vertex 4 Zcoordinate

FENESTRATIONSURFACE:DETAILED,
    Block Build1_Alt0 Storey 0 Wall 0008 window,    !- Name
    Window,                   !- Surface Type
    Project External Window,    !- Construction Name
    Block Build1_Alt0 Storey 0 Wall 0008,    !- Building Surface Name
    ,                         !- Outside Boundary Condition Object
    autocalculate,            !- View Factor to Ground
    ,                         !- Frame and Divider Name
    1.0,                      !- Multiplier
    autocalculate,            !- Number of Vertices
    15.111801,                !- Vertex 1 Xcoordinate
    -31.5581305,              !- Vertex 1 Ycoordinate
    13.65,                    !- Vertex 1 Zcoordinate
    15.111801,                !- Vertex 2 Xcoordinate
    -31.5581305,              !- Vertex 2 Ycoordinate
    7.35,                     !- Vertex 2 Zcoordinate
    15.713199,                !- Vertex 3 Xcoordinate
    -22.6280695,              !- Vertex 3 Ycoordinate
    7.35,                     !- Vertex 3 Zcoordinate
    15.713199,                !- Vertex 4 Xcoordinate
    -22.6280695,              !- Vertex 4 Ycoordinate
    13.65;                    !- Vertex 4 Zcoordinate

FENESTRATIONSURFACE:DETAILED,
    Block Build1_Alt0 Storey 0 Wall 0009 window,    !- Name
    Window,                   !- Surface Type
    Project External Window,    !- Construction Name
    Block Build1_Alt0 Storey 0 Wall 0009,    !- Building Surface Name
    ,                         !- Outside Boundary Condition Object
    autocalculate,            !- View Factor to Ground
    ,                         !- Frame and Divider Name
    1.0,                      !- Multiplier
    autocalculate,            !- Number of Vertices
    15.7172275,               !- Vertex 1 Xcoordinate
    -22.6238855,              !- Vertex 1 Ycoordinate
    13.65,                    !- Vertex 1 Zcoordinate
    15.7172275,               !- Vertex 2 Xcoordinate
    -22.6238855,              !- Vertex 2 Ycoordinate
    7.35,                     !- Vertex 2 Zcoordinate
    23.1647725,               !- Vertex 3 Xcoordinate
    -23.1943145,              !- Vertex 3 Ycoordinate
    7.35,                     !- Vertex 3 Zcoordinate
    23.1647725,               !- Vertex 4 Xcoordinate
    -23.1943145,              !- Vertex 4 Ycoordinate
    13.65;                    !- Vertex 4 Zcoordinate

FENESTRATIONSURFACE:DETAILED,
    Block Build1_Alt0 Storey 0 Wall 0010 window,    !- Name
    Window,                   !- Surface Type
    Project External Window,    !- Construction Name
    Block Build1_Alt0 Storey 0 Wall 0010,    !- Building Surface Name
    ,                         !- Outside Boundary Condition Object
    autocalculate,            !- View Factor to Ground
    ,                         !- Frame and Divider Name
    1.0,                      !- Multiplier
    autocalculate,            !- Number of Vertices
    23.1688915,               !- Vertex 1 Xcoordinate
    -23.1895555,              !- Vertex 1 Ycoordinate
    13.65,                    !- Vertex 1 Zcoordinate
    23.1688915,               !- Vertex 2 Xcoordinate
    -23.1895555,              !- Vertex 2 Ycoordinate
    7.35,                     !- Vertex 2 Zcoordinate
    23.9511085,               !- Vertex 3 Xcoordinate
    -1.311064e+01,            !- Vertex 3 Ycoordinate
    7.35,                     !- Vertex 3 Zcoordinate
    23.9511085,               !- Vertex 4 Xcoordinate
    -1.311064e+01,            !- Vertex 4 Ycoordinate
    13.65;                    !- Vertex 4 Zcoordinate

FENESTRATIONSURFACE:DETAILED,
    Block Build1_Alt0 Storey 0 Wall 0011 window,    !- Name
    Window,                   !- Surface Type
    Project External Window,    !- Construction Name
    Block Build1_Alt0 Storey 0 Wall 0011,    !- Building Surface Name
    ,                         !- Outside Boundary Condition Object
    autocalculate,            !- View Factor to Ground
    ,                         !- Frame and Divider Name
    1.0,                      !- Multiplier
    autocalculate,            !- Number of Vertices
    23.9475665,               !- Vertex 1 Xcoordinate
    -13.105346,               !- Vertex 1 Ycoordinate
    13.65,                    !- Vertex 1 Zcoordinate
    23.9475665,               !- Vertex 2 Xcoordinate
    -13.105346,               !- Vertex 2 Ycoordinate
    7.35,                     !- Vertex 2 Zcoordinate
    16.088433499999997,       !- Vertex 3 Xcoordinate
    -12.597854,               !- Vertex 3 Ycoordinate
    7.35,                     !- Vertex 3 Zcoordinate
    16.088433499999997,       !- Vertex 4 Xcoordinate
    -12.597854,               !- Vertex 4 Ycoordinate
    13.65;                    !- Vertex 4 Zcoordinate

FENESTRATIONSURFACE:DETAILED,
    Block Build1_Alt0 Storey 0 Wall 0012 window,    !- Name
    Window,                   !- Surface Type
    Project External Window,    !- Construction Name
    Block Build1_Alt0 Storey 0 Wall 0012,    !- Building Surface Name
    ,                         !- Outside Boundary Condition Object
    autocalculate,            !- View Factor to Ground
    ,                         !- Frame and Divider Name
    1.0,                      !- Multiplier
    autocalculate,            !- Number of Vertices
    16.08484175,              !- Vertex 1 Xcoordinate
    -12.59294895,             !- Vertex 1 Ycoordinate
    13.65,                    !- Vertex 1 Zcoordinate
    16.08484175,              !- Vertex 2 Xcoordinate
    -12.59294895,             !- Vertex 2 Ycoordinate
    7.35,                     !- Vertex 2 Zcoordinate
    16.76765825,              !- Vertex 3 Xcoordinate
    -3.30015105,              !- Vertex 3 Ycoordinate
    7.35,                     !- Vertex 3 Zcoordinate
    16.76765825,              !- Vertex 4 Xcoordinate
    -3.30015105,              !- Vertex 4 Ycoordinate
    13.65;                    !- Vertex 4 Zcoordinate

FENESTRATIONSURFACE:DETAILED,
    Block Build2_Alt0 Storey 0 Wall 0001 window,    !- Name
    Window,                   !- Surface Type
    Project External Window,    !- Construction Name
    Block Build2_Alt0 Storey 0 Wall 0001,    !- Building Surface Name
    ,                         !- Outside Boundary Condition Object
    autocalculate,            !- View Factor to Ground
    ,                         !- Frame and Divider Name
    1.0,                      !- Multiplier
    autocalculate,            !- Number of Vertices
    10.4064303,               !- Vertex 1 Xcoordinate
    20.6778268,               !- Vertex 1 Ycoordinate
    13.65,                    !- Vertex 1 Zcoordinate
    10.4064303,               !- Vertex 2 Xcoordinate
    20.6778268,               !- Vertex 2 Ycoordinate
    7.35,                     !- Vertex 2 Zcoordinate
    3.4739697,                !- Vertex 3 Xcoordinate
    28.723373199999997,       !- Vertex 3 Ycoordinate
    7.35,                     !- Vertex 3 Zcoordinate
    3.4739697,                !- Vertex 4 Xcoordinate
    28.723373199999997,       !- Vertex 4 Ycoordinate
    13.65;                    !- Vertex 4 Zcoordinate

FENESTRATIONSURFACE:DETAILED,
    Block Build2_Alt0 Storey 0 Wall 0002 window,    !- Name
    Window,                   !- Surface Type
    Project External Window,    !- Construction Name
    Block Build2_Alt0 Storey 0 Wall 0002,    !- Building Surface Name
    ,                         !- Outside Boundary Condition Object
    autocalculate,            !- View Factor to Ground
    ,                         !- Frame and Divider Name
    1.0,                      !- Multiplier
    autocalculate,            !- Number of Vertices
    3.4725805,                !- Vertex 1 Xcoordinate
    28.7291925,               !- Vertex 1 Ycoordinate
    13.65,                    !- Vertex 1 Zcoordinate
    3.4725805,                !- Vertex 2 Xcoordinate
    28.7291925,               !- Vertex 2 Ycoordinate
    7.35,                     !- Vertex 2 Zcoordinate
    7.6294195,                !- Vertex 3 Xcoordinate
    32.310607499999996,       !- Vertex 3 Ycoordinate
    7.35,                     !- Vertex 3 Zcoordinate
    7.6294195,                !- Vertex 4 Xcoordinate
    32.310607499999996,       !- Vertex 4 Ycoordinate
    13.65;                    !- Vertex 4 Zcoordinate

FENESTRATIONSURFACE:DETAILED,
    Block Build2_Alt0 Storey 0 Wall 0003 window,    !- Name
    Window,                   !- Surface Type
    Project External Window,    !- Construction Name
    Block Build2_Alt0 Storey 0 Wall 0003,    !- Building Surface Name
    ,                         !- Outside Boundary Condition Object
    autocalculate,            !- View Factor to Ground
    ,                         !- Frame and Divider Name
    1.0,                      !- Multiplier
    autocalculate,            !- Number of Vertices
    7.628484,                 !- Vertex 1 Xcoordinate
    32.3158995,               !- Vertex 1 Ycoordinate
    13.65,                    !- Vertex 1 Zcoordinate
    7.628484,                 !- Vertex 2 Xcoordinate
    32.3158995,               !- Vertex 2 Ycoordinate
    7.35,                     !- Vertex 2 Zcoordinate
    1.602516,                 !- Vertex 3 Xcoordinate
    39.3079005,               !- Vertex 3 Ycoordinate
    7.35,                     !- Vertex 3 Zcoordinate
    1.602516,                 !- Vertex 4 Xcoordinate
    39.3079005,               !- Vertex 4 Ycoordinate
    13.65;                    !- Vertex 4 Zcoordinate

FENESTRATIONSURFACE:DETAILED,
    Block Build2_Alt0 Storey 0 Wall 0004 window,    !- Name
    Window,                   !- Surface Type
    Project External Window,    !- Construction Name
    Block Build2_Alt0 Storey 0 Wall 0004,    !- Building Surface Name
    ,                         !- Outside Boundary Condition Object
    autocalculate,            !- View Factor to Ground
    ,                         !- Frame and Divider Name
    1.0,                      !- Multiplier
    autocalculate,            !- Number of Vertices
    1.59742,                  !- Vertex 1 Xcoordinate
    39.3096075,               !- Vertex 1 Ycoordinate
    13.65,                    !- Vertex 1 Zcoordinate
    1.59742,                  !- Vertex 2 Xcoordinate
    39.3096075,               !- Vertex 2 Ycoordinate
    7.35,                     !- Vertex 2 Zcoordinate
    -2.558420e+00,            !- Vertex 3 Xcoordinate
    35.7281925,               !- Vertex 3 Ycoordinate
    7.35,                     !- Vertex 3 Zcoordinate
    -2.558420e+00,            !- Vertex 4 Xcoordinate
    35.7281925,               !- Vertex 4 Ycoordinate
    13.65;                    !- Vertex 4 Zcoordinate

FENESTRATIONSURFACE:DETAILED,
    Block Build2_Alt0 Storey 0 Wall 0005 window,    !- Name
    Window,                   !- Surface Type
    Project External Window,    !- Construction Name
    Block Build2_Alt0 Storey 0 Wall 0005,    !- Building Surface Name
    ,                         !- Outside Boundary Condition Object
    autocalculate,            !- View Factor to Ground
    ,                         !- Frame and Divider Name
    1.0,                      !- Multiplier
    autocalculate,            !- Number of Vertices
    -2.563409e+00,            !- Vertex 1 Xcoordinate
    35.729813,                !- Vertex 1 Ycoordinate
    13.65,                    !- Vertex 1 Zcoordinate
    -2.563409e+00,            !- Vertex 2 Xcoordinate
    35.729813,                !- Vertex 2 Ycoordinate
    7.35,                     !- Vertex 2 Zcoordinate
    -8.3745915,               !- Vertex 3 Xcoordinate
    42.548987,                !- Vertex 3 Ycoordinate
    7.35,                     !- Vertex 3 Zcoordinate
    -8.3745915,               !- Vertex 4 Xcoordinate
    42.548987,                !- Vertex 4 Ycoordinate
    13.65;                    !- Vertex 4 Zcoordinate

FENESTRATIONSURFACE:DETAILED,
    Block Build2_Alt0 Storey 0 Wall 0006 window,    !- Name
    Window,                   !- Surface Type
    Project External Window,    !- Construction Name
    Block Build2_Alt0 Storey 0 Wall 0006,    !- Building Surface Name
    ,                         !- Outside Boundary Condition Object
    autocalculate,            !- View Factor to Ground
    ,                         !- Frame and Divider Name
    1.0,                      !- Multiplier
    autocalculate,            !- Number of Vertices
    -8.381336,                !- Vertex 1 Xcoordinate
    42.549098,                !- Vertex 1 Ycoordinate
    13.65,                    !- Vertex 1 Zcoordinate
    -8.381336,                !- Vertex 2 Xcoordinate
    42.549098,                !- Vertex 2 Ycoordinate
    7.35,                     !- Vertex 2 Zcoordinate
    -16.045664,               !- Vertex 3 Xcoordinate
    35.951702,                !- Vertex 3 Ycoordinate
    7.35,                     !- Vertex 3 Zcoordinate
    -16.045664,               !- Vertex 4 Xcoordinate
    35.951702,                !- Vertex 4 Ycoordinate
    13.65;                    !- Vertex 4 Zcoordinate

FENESTRATIONSURFACE:DETAILED,
    Block Build2_Alt0 Storey 0 Wall 0007 window,    !- Name
    Window,                   !- Surface Type
    Project External Window,    !- Construction Name
    Block Build2_Alt0 Storey 0 Wall 0007,    !- Building Surface Name
    ,                         !- Outside Boundary Condition Object
    autocalculate,            !- View Factor to Ground
    ,                         !- Frame and Divider Name
    1.0,                      !- Multiplier
    autocalculate,            !- Number of Vertices
    -1.604700e+01,            !- Vertex 1 Xcoordinate
    35.945516,                !- Vertex 1 Ycoordinate
    13.65,                    !- Vertex 1 Zcoordinate
    -1.604700e+01,            !- Vertex 2 Xcoordinate
    35.945516,                !- Vertex 2 Ycoordinate
    7.35,                     !- Vertex 2 Zcoordinate
    -11.0430045,              !- Vertex 3 Xcoordinate
    30.183284,                !- Vertex 3 Ycoordinate
    7.35,                     !- Vertex 3 Zcoordinate
    -11.0430045,              !- Vertex 4 Xcoordinate
    30.183284,                !- Vertex 4 Ycoordinate
    13.65;                    !- Vertex 4 Zcoordinate

FENESTRATIONSURFACE:DETAILED,
    Block Build2_Alt0 Storey 0 Wall 0008 window,    !- Name
    Window,                   !- Surface Type
    Project External Window,    !- Construction Name
    Block Build2_Alt0 Storey 0 Wall 0008,    !- Building Surface Name
    ,                         !- Outside Boundary Condition Object
    autocalculate,            !- View Factor to Ground
    ,                         !- Frame and Divider Name
    1.0,                      !- Multiplier
    autocalculate,            !- Number of Vertices
    -11.0441125,              !- Vertex 1 Xcoordinate
    30.177303,                !- Vertex 1 Ycoordinate
    13.65,                    !- Vertex 1 Zcoordinate
    -11.0441125,              !- Vertex 2 Xcoordinate
    30.177303,                !- Vertex 2 Ycoordinate
    7.35,                     !- Vertex 2 Zcoordinate
    -18.2618875,              !- Vertex 3 Xcoordinate
    23.989497,                !- Vertex 3 Ycoordinate
    7.35,                     !- Vertex 3 Zcoordinate
    -18.2618875,              !- Vertex 4 Xcoordinate
    23.989497,                !- Vertex 4 Ycoordinate
    13.65;                    !- Vertex 4 Zcoordinate

FENESTRATIONSURFACE:DETAILED,
    Block Build2_Alt0 Storey 0 Wall 0009 window,    !- Name
    Window,                   !- Surface Type
    Project External Window,    !- Construction Name
    Block Build2_Alt0 Storey 0 Wall 0009,    !- Building Surface Name
    ,                         !- Outside Boundary Condition Object
    autocalculate,            !- View Factor to Ground
    ,                         !- Frame and Divider Name
    1.0,                      !- Multiplier
    autocalculate,            !- Number of Vertices
    -1.826134e+01,            !- Vertex 1 Xcoordinate
    23.981565,                !- Vertex 1 Ycoordinate
    13.65,                    !- Vertex 1 Zcoordinate
    -1.826134e+01,            !- Vertex 2 Xcoordinate
    23.981565,                !- Vertex 2 Ycoordinate
    7.35,                     !- Vertex 2 Zcoordinate
    -9.9546575,               !- Vertex 3 Xcoordinate
    14.321235,                !- Vertex 3 Ycoordinate
    7.35,                     !- Vertex 3 Zcoordinate
    -9.9546575,               !- Vertex 4 Xcoordinate
    14.321235,                !- Vertex 4 Ycoordinate
    13.65;                    !- Vertex 4 Zcoordinate

FENESTRATIONSURFACE:DETAILED,
    Block Build2_Alt0 Storey 0 Wall 0010 window,    !- Name
    Window,                   !- Surface Type
    Project External Window,    !- Construction Name
    Block Build2_Alt0 Storey 0 Wall 0010,    !- Building Surface Name
    ,                         !- Outside Boundary Condition Object
    autocalculate,            !- View Factor to Ground
    ,                         !- Frame and Divider Name
    1.0,                      !- Multiplier
    autocalculate,            !- Number of Vertices
    -9.946932499999999,       !- Vertex 1 Xcoordinate
    14.319467,                !- Vertex 1 Ycoordinate
    13.65,                    !- Vertex 1 Zcoordinate
    -9.946932499999999,       !- Vertex 2 Xcoordinate
    14.319467,                !- Vertex 2 Ycoordinate
    7.35,                     !- Vertex 2 Zcoordinate
    -2.8190675,               !- Vertex 3 Xcoordinate
    20.447332999999997,       !- Vertex 3 Ycoordinate
    7.35,                     !- Vertex 3 Zcoordinate
    -2.8190675,               !- Vertex 4 Xcoordinate
    20.447332999999997,       !- Vertex 4 Ycoordinate
    13.65;                    !- Vertex 4 Zcoordinate

FENESTRATIONSURFACE:DETAILED,
    Block Build2_Alt0 Storey 0 Wall 0011 window,    !- Name
    Window,                   !- Surface Type
    Project External Window,    !- Construction Name
    Block Build2_Alt0 Storey 0 Wall 0011,    !- Building Surface Name
    ,                         !- Outside Boundary Condition Object
    autocalculate,            !- View Factor to Ground
    ,                         !- Frame and Divider Name
    1.0,                      !- Multiplier
    autocalculate,            !- Number of Vertices
    -2.8126093,               !- Vertex 1 Xcoordinate
    20.447066749999998,       !- Vertex 1 Ycoordinate
    13.65,                    !- Vertex 1 Zcoordinate
    -2.8126093,               !- Vertex 2 Xcoordinate
    20.447066749999998,       !- Vertex 2 Ycoordinate
    7.35,                     !- Vertex 2 Zcoordinate
    2.9630092999999995,       !- Vertex 3 Xcoordinate
    13.78723325,              !- Vertex 3 Ycoordinate
    7.35,                     !- Vertex 3 Zcoordinate
    2.9630092999999995,       !- Vertex 4 Xcoordinate
    13.78723325,              !- Vertex 4 Ycoordinate
    13.65;                    !- Vertex 4 Zcoordinate

FENESTRATIONSURFACE:DETAILED,
    Block Build2_Alt0 Storey 0 Wall 0012_1 window,    !- Name
    Window,                   !- Surface Type
    Project External Window,    !- Construction Name
    Block Build2_Alt0 Storey 0 Wall 0012_1,    !- Building Surface Name
    ,                         !- Outside Boundary Condition Object
    autocalculate,            !- View Factor to Ground
    ,                         !- Frame and Divider Name
    1.0,                      !- Multiplier
    autocalculate,            !- Number of Vertices
    2.96962199971918,         !- Vertex 1 Xcoordinate
    13.787344949740083,       !- Vertex 1 Ycoordinate
    17.85,                    !- Vertex 1 Zcoordinate
    2.96962199971918,         !- Vertex 2 Xcoordinate
    13.787344949740083,       !- Vertex 2 Ycoordinate
    15.15,                    !- Vertex 2 Zcoordinate
    10.406177999853156,       !- Vertex 3 Xcoordinate
    20.670355049864085,       !- Vertex 3 Ycoordinate
    15.15,                    !- Vertex 3 Zcoordinate
    10.406177999853156,       !- Vertex 4 Xcoordinate
    20.670355049864085,       !- Vertex 4 Ycoordinate
    17.85;                    !- Vertex 4 Zcoordinate

FENESTRATIONSURFACE:DETAILED,
    Block Build1_Alt0 Storey 0 Wall 0001_2 window,    !- Name
    Window,                   !- Surface Type
    Project External Window,    !- Construction Name
    Block Build1_Alt0 Storey 0 Wall 0001_2,    !- Building Surface Name
    ,                         !- Outside Boundary Condition Object
    autocalculate,            !- View Factor to Ground
    ,                         !- Frame and Divider Name
    1.0,                      !- Multiplier
    autocalculate,            !- Number of Vertices
    16.763182349690936,       !- Vertex 1 Xcoordinate
    -3.295190e+00,            !- Vertex 1 Ycoordinate
    17.85,                    !- Vertex 1 Zcoordinate
    16.763182349690936,       !- Vertex 2 Xcoordinate
    -3.295190e+00,            !- Vertex 2 Ycoordinate
    15.15,                    !- Vertex 2 Zcoordinate
    7.137517649958143,        !- Vertex 3 Xcoordinate
    -2.675010399997303,       !- Vertex 3 Ycoordinate
    15.15,                    !- Vertex 3 Zcoordinate
    7.137517649958143,        !- Vertex 4 Xcoordinate
    -2.675010399997303,       !- Vertex 4 Ycoordinate
    17.85;                    !- Vertex 4 Zcoordinate

INTERNALMASS,
    Block Build0_Alt0 Storey -1IntMass,    !- Name
    NonHeatedZoneIntMassObj,    !- Construction Name
    Block Build0_Alt0 Storey -1,    !- Zone or ZoneList Name
    503;                      !- Surface Area

INTERNALMASS,
    Block Build1_Alt0 Storey -1IntMass,    !- Name
    NonHeatedZoneIntMassObj,    !- Construction Name
    Block Build1_Alt0 Storey -1,    !- Zone or ZoneList Name
    952;                      !- Surface Area

INTERNALMASS,
    Block Build2_Alt0 Storey -1IntMass,    !- Name
    NonHeatedZoneIntMassObj,    !- Construction Name
    Block Build2_Alt0 Storey -1,    !- Zone or ZoneList Name
    930;                      !- Surface Area

INTERNALMASS,
    Block Build0_Alt0 Storey 0IntMass,    !- Name
    HeatedZoneIntMassObj,     !- Construction Name
    Block Build0_Alt0 Storey 0,    !- Zone or ZoneList Name
    2011;                     !- Surface Area

INTERNALMASS,
    Block Build1_Alt0 Storey 0IntMass,    !- Name
    HeatedZoneIntMassObj,     !- Construction Name
    Block Build1_Alt0 Storey 0,    !- Zone or ZoneList Name
    6662;                     !- Surface Area

INTERNALMASS,
    Block Build2_Alt0 Storey 0IntMass,    !- Name
    HeatedZoneIntMassObj,     !- Construction Name
    Block Build2_Alt0 Storey 0,    !- Zone or ZoneList Name
    6508;                     !- Surface Area

SHADING:SITE:DETAILED,
    Shading_V108_1,           !- Name
    ,                         !- Transmittance Schedule Name
    autocalculate,            !- Number of Vertices
    -62.8665,                 !- Vertex 1 Xcoordinate
    149.2394,                 !- Vertex 1 Ycoordinate
    15.5,                     !- Vertex 1 Zcoordinate
    -62.8665,                 !- Vertex 2 Xcoordinate
    149.2394,                 !- Vertex 2 Ycoordinate
    0,                        !- Vertex 2 Zcoordinate
    -54.6125,                 !- Vertex 3 Xcoordinate
    156.3204,                 !- Vertex 3 Ycoordinate
    0,                        !- Vertex 3 Zcoordinate
    -54.6125,                 !- Vertex 4 Xcoordinate
    156.3204,                 !- Vertex 4 Ycoordinate
    15.5;                     !- Vertex 4 Zcoordinate

SHADING:SITE:DETAILED,
    Shading_V132_1,           !- Name
    ,                         !- Transmittance Schedule Name
    autocalculate,            !- Number of Vertices
    13.8735,                  !- Vertex 1 Xcoordinate
    53.3684,                  !- Vertex 1 Ycoordinate
    15.5,                     !- Vertex 1 Zcoordinate
    13.8735,                  !- Vertex 2 Xcoordinate
    53.3684,                  !- Vertex 2 Ycoordinate
    0,                        !- Vertex 2 Zcoordinate
    19.9555,                  !- Vertex 3 Xcoordinate
    46.2904,                  !- Vertex 3 Ycoordinate
    0,                        !- Vertex 3 Zcoordinate
    19.9555,                  !- Vertex 4 Xcoordinate
    46.2904,                  !- Vertex 4 Ycoordinate
    15.5;                     !- Vertex 4 Zcoordinate

SHADING:SITE:DETAILED,
    Shading_V133_1,           !- Name
    ,                         !- Transmittance Schedule Name
    autocalculate,            !- Number of Vertices
    19.9555,                  !- Vertex 1 Xcoordinate
    46.2904,                  !- Vertex 1 Ycoordinate
    15.5,                     !- Vertex 1 Zcoordinate
    19.9555,                  !- Vertex 2 Xcoordinate
    46.2904,                  !- Vertex 2 Ycoordinate
    0,                        !- Vertex 2 Zcoordinate
    23.0395,                  !- Vertex 3 Xcoordinate
    48.8844,                  !- Vertex 3 Ycoordinate
    0,                        !- Vertex 3 Zcoordinate
    23.0395,                  !- Vertex 4 Xcoordinate
    48.8844,                  !- Vertex 4 Ycoordinate
    15.5;                     !- Vertex 4 Zcoordinate

SHADING:SITE:DETAILED,
    Shading_V134_1,           !- Name
    ,                         !- Transmittance Schedule Name
    autocalculate,            !- Number of Vertices
    23.0395,                  !- Vertex 1 Xcoordinate
    48.8844,                  !- Vertex 1 Ycoordinate
    15.5,                     !- Vertex 1 Zcoordinate
    23.0395,                  !- Vertex 2 Xcoordinate
    48.8844,                  !- Vertex 2 Ycoordinate
    0,                        !- Vertex 2 Zcoordinate
    33.6745,                  !- Vertex 3 Xcoordinate
    36.4104,                  !- Vertex 3 Ycoordinate
    0,                        !- Vertex 3 Zcoordinate
    33.6745,                  !- Vertex 4 Xcoordinate
    36.4104,                  !- Vertex 4 Ycoordinate
    15.5;                     !- Vertex 4 Zcoordinate

SHADING:SITE:DETAILED,
    Shading_V136_1,           !- Name
    ,                         !- Transmittance Schedule Name
    autocalculate,            !- Number of Vertices
    30.5905,                  !- Vertex 1 Xcoordinate
    33.8164,                  !- Vertex 1 Ycoordinate
    15.5,                     !- Vertex 1 Zcoordinate
    30.5905,                  !- Vertex 2 Xcoordinate
    33.8164,                  !- Vertex 2 Ycoordinate
    0,                        !- Vertex 2 Zcoordinate
    35.0295,                  !- Vertex 3 Xcoordinate
    28.7154,                  !- Vertex 3 Ycoordinate
    0,                        !- Vertex 3 Zcoordinate
    35.0295,                  !- Vertex 4 Xcoordinate
    28.7154,                  !- Vertex 4 Ycoordinate
    15.5;                     !- Vertex 4 Zcoordinate

SHADING:SITE:DETAILED,
    Shading_V137_1,           !- Name
    ,                         !- Transmittance Schedule Name
    autocalculate,            !- Number of Vertices
    35.0295,                  !- Vertex 1 Xcoordinate
    28.7154,                  !- Vertex 1 Ycoordinate
    15.5,                     !- Vertex 1 Zcoordinate
    35.0295,                  !- Vertex 2 Xcoordinate
    28.7154,                  !- Vertex 2 Ycoordinate
    0,                        !- Vertex 2 Zcoordinate
    38.0635,                  !- Vertex 3 Xcoordinate
    31.3064,                  !- Vertex 3 Ycoordinate
    0,                        !- Vertex 3 Zcoordinate
    38.0635,                  !- Vertex 4 Xcoordinate
    31.3064,                  !- Vertex 4 Ycoordinate
    15.5;                     !- Vertex 4 Zcoordinate

SHADING:SITE:DETAILED,
    Shading_V138_1,           !- Name
    ,                         !- Transmittance Schedule Name
    autocalculate,            !- Number of Vertices
    38.0635,                  !- Vertex 1 Xcoordinate
    31.3064,                  !- Vertex 1 Ycoordinate
    15.5,                     !- Vertex 1 Zcoordinate
    38.0635,                  !- Vertex 2 Xcoordinate
    31.3064,                  !- Vertex 2 Ycoordinate
    0,                        !- Vertex 2 Zcoordinate
    47.3825,                  !- Vertex 3 Xcoordinate
    20.2234,                  !- Vertex 3 Ycoordinate
    0,                        !- Vertex 3 Zcoordinate
    47.3825,                  !- Vertex 4 Xcoordinate
    20.2234,                  !- Vertex 4 Ycoordinate
    15.5;                     !- Vertex 4 Zcoordinate

SHADING:SITE:DETAILED,
    Shading_V142_1,           !- Name
    ,                         !- Transmittance Schedule Name
    autocalculate,            !- Number of Vertices
    -6.2195,                  !- Vertex 1 Xcoordinate
    76.8944,                  !- Vertex 1 Ycoordinate
    15.5,                     !- Vertex 1 Zcoordinate
    -6.2195,                  !- Vertex 2 Xcoordinate
    76.8944,                  !- Vertex 2 Ycoordinate
    0,                        !- Vertex 2 Zcoordinate
    0.0115,                   !- Vertex 3 Xcoordinate
    69.6114,                  !- Vertex 3 Ycoordinate
    0,                        !- Vertex 3 Zcoordinate
    0.0115,                   !- Vertex 4 Xcoordinate
    69.6114,                  !- Vertex 4 Ycoordinate
    15.5;                     !- Vertex 4 Zcoordinate

SHADING:SITE:DETAILED,
    Shading_V143_1,           !- Name
    ,                         !- Transmittance Schedule Name
    autocalculate,            !- Number of Vertices
    0.0115,                   !- Vertex 1 Xcoordinate
    69.6114,                  !- Vertex 1 Ycoordinate
    15.5,                     !- Vertex 1 Zcoordinate
    0.0115,                   !- Vertex 2 Xcoordinate
    69.6114,                  !- Vertex 2 Ycoordinate
    0,                        !- Vertex 2 Zcoordinate
    7.8155,                   !- Vertex 3 Xcoordinate
    76.2904,                  !- Vertex 3 Ycoordinate
    0,                        !- Vertex 3 Zcoordinate
    7.8155,                   !- Vertex 4 Xcoordinate
    76.2904,                  !- Vertex 4 Ycoordinate
    15.5;                     !- Vertex 4 Zcoordinate

SHADING:SITE:DETAILED,
    Shading_V144_1,           !- Name
    ,                         !- Transmittance Schedule Name
    autocalculate,            !- Number of Vertices
    7.8155,                   !- Vertex 1 Xcoordinate
    76.2904,                  !- Vertex 1 Ycoordinate
    15.5,                     !- Vertex 1 Zcoordinate
    7.8155,                   !- Vertex 2 Xcoordinate
    76.2904,                  !- Vertex 2 Ycoordinate
    0,                        !- Vertex 2 Zcoordinate
    10.4175,                  !- Vertex 3 Xcoordinate
    73.2514,                  !- Vertex 3 Ycoordinate
    0,                        !- Vertex 3 Zcoordinate
    10.4175,                  !- Vertex 4 Xcoordinate
    73.2514,                  !- Vertex 4 Ycoordinate
    15.5;                     !- Vertex 4 Zcoordinate

SHADING:SITE:DETAILED,
    Shading_V354_1,           !- Name
    ,                         !- Transmittance Schedule Name
    autocalculate,            !- Number of Vertices
    -54.6125,                 !- Vertex 1 Xcoordinate
    156.3204,                 !- Vertex 1 Ycoordinate
    3.7,                      !- Vertex 1 Zcoordinate
    -54.6125,                 !- Vertex 2 Xcoordinate
    156.3204,                 !- Vertex 2 Ycoordinate
    0,                        !- Vertex 2 Zcoordinate
    -46.5975,                 !- Vertex 3 Xcoordinate
    155.7324,                 !- Vertex 3 Ycoordinate
    0,                        !- Vertex 3 Zcoordinate
    -46.5975,                 !- Vertex 4 Xcoordinate
    155.7324,                 !- Vertex 4 Ycoordinate
    3.7;                      !- Vertex 4 Zcoordinate

SHADING:SITE:DETAILED,
    Shading_V355_1,           !- Name
    ,                         !- Transmittance Schedule Name
    autocalculate,            !- Number of Vertices
    -46.5975,                 !- Vertex 1 Xcoordinate
    155.7324,                 !- Vertex 1 Ycoordinate
    3.7,                      !- Vertex 1 Zcoordinate
    -46.5975,                 !- Vertex 2 Xcoordinate
    155.7324,                 !- Vertex 2 Ycoordinate
    0,                        !- Vertex 2 Zcoordinate
    -42.1875,                 !- Vertex 3 Xcoordinate
    159.5064,                 !- Vertex 3 Ycoordinate
    0,                        !- Vertex 3 Zcoordinate
    -42.1875,                 !- Vertex 4 Xcoordinate
    159.5064,                 !- Vertex 4 Ycoordinate
    3.7;                      !- Vertex 4 Zcoordinate

SHADING:SITE:DETAILED,
    Shading_V356_1,           !- Name
    ,                         !- Transmittance Schedule Name
    autocalculate,            !- Number of Vertices
    -42.1875,                 !- Vertex 1 Xcoordinate
    159.5064,                 !- Vertex 1 Ycoordinate
    3.7,                      !- Vertex 1 Zcoordinate
    -42.1875,                 !- Vertex 2 Xcoordinate
    159.5064,                 !- Vertex 2 Ycoordinate
    0,                        !- Vertex 2 Zcoordinate
    -41.6046,                 !- Vertex 3 Xcoordinate
    167.6343,                 !- Vertex 3 Ycoordinate
    0,                        !- Vertex 3 Zcoordinate
    -41.6046,                 !- Vertex 4 Xcoordinate
    167.6343,                 !- Vertex 4 Ycoordinate
    3.7;                      !- Vertex 4 Zcoordinate

SHADING:SITE:DETAILED,
    Shading_V446_1,           !- Name
    ,                         !- Transmittance Schedule Name
    autocalculate,            !- Number of Vertices
    48.3895,                  !- Vertex 1 Xcoordinate
    19.0184,                  !- Vertex 1 Ycoordinate
    6.7,                      !- Vertex 1 Zcoordinate
    48.3895,                  !- Vertex 2 Xcoordinate
    19.0184,                  !- Vertex 2 Ycoordinate
    0,                        !- Vertex 2 Zcoordinate
    48.0825,                  !- Vertex 3 Xcoordinate
    14.7994,                  !- Vertex 3 Ycoordinate
    0,                        !- Vertex 3 Zcoordinate
    48.0825,                  !- Vertex 4 Xcoordinate
    14.7994,                  !- Vertex 4 Ycoordinate
    6.7;                      !- Vertex 4 Zcoordinate

SHADING:SITE:DETAILED,
    Shading_V447_1,           !- Name
    ,                         !- Transmittance Schedule Name
    autocalculate,            !- Number of Vertices
    48.0825,                  !- Vertex 1 Xcoordinate
    14.7994,                  !- Vertex 1 Ycoordinate
    6.7,                      !- Vertex 1 Zcoordinate
    48.0825,                  !- Vertex 2 Xcoordinate
    14.7994,                  !- Vertex 2 Ycoordinate
    0,                        !- Vertex 2 Zcoordinate
    79.7235,                  !- Vertex 3 Xcoordinate
    12.4994,                  !- Vertex 3 Ycoordinate
    0,                        !- Vertex 3 Zcoordinate
    79.7235,                  !- Vertex 4 Xcoordinate
    12.4994,                  !- Vertex 4 Ycoordinate
    6.7;                      !- Vertex 4 Zcoordinate

SHADING:SITE:DETAILED,
    Shading_V94_1,            !- Name
    ,                         !- Transmittance Schedule Name
    autocalculate,            !- Number of Vertices
    -41.6046,                 !- Vertex 1 Xcoordinate
    167.6343,                 !- Vertex 1 Ycoordinate
    15.5,                     !- Vertex 1 Zcoordinate
    -41.6046,                 !- Vertex 2 Xcoordinate
    167.6343,                 !- Vertex 2 Ycoordinate
    0,                        !- Vertex 2 Zcoordinate
    -29.6935,                 !- Vertex 3 Xcoordinate
    177.8804,                 !- Vertex 3 Ycoordinate
    0,                        !- Vertex 3 Zcoordinate
    -29.6935,                 !- Vertex 4 Xcoordinate
    177.8804,                 !- Vertex 4 Ycoordinate
    15.5;                     !- Vertex 4 Zcoordinate

SHADING:SITE:DETAILED,
    Shading_V105_1,           !- Name
    ,                         !- Transmittance Schedule Name
    autocalculate,            !- Number of Vertices
    -78.9315,                 !- Vertex 1 Xcoordinate
    161.8614,                 !- Vertex 1 Ycoordinate
    15.5,                     !- Vertex 1 Zcoordinate
    -78.9315,                 !- Vertex 2 Xcoordinate
    161.8614,                 !- Vertex 2 Ycoordinate
    0,                        !- Vertex 2 Zcoordinate
    -72.3055,                 !- Vertex 3 Xcoordinate
    154.1164,                 !- Vertex 3 Ycoordinate
    0,                        !- Vertex 3 Zcoordinate
    -72.3055,                 !- Vertex 4 Xcoordinate
    154.1164,                 !- Vertex 4 Ycoordinate
    15.5;                     !- Vertex 4 Zcoordinate

SHADING:SITE:DETAILED,
    Shading_V106_1,           !- Name
    ,                         !- Transmittance Schedule Name
    autocalculate,            !- Number of Vertices
    -72.3055,                 !- Vertex 1 Xcoordinate
    154.1164,                 !- Vertex 1 Ycoordinate
    15.5,                     !- Vertex 1 Zcoordinate
    -72.3055,                 !- Vertex 2 Xcoordinate
    154.1164,                 !- Vertex 2 Ycoordinate
    0,                        !- Vertex 2 Zcoordinate
    -69.2985,                 !- Vertex 3 Xcoordinate
    156.7544,                 !- Vertex 3 Ycoordinate
    0,                        !- Vertex 3 Zcoordinate
    -69.2985,                 !- Vertex 4 Xcoordinate
    156.7544,                 !- Vertex 4 Ycoordinate
    15.5;                     !- Vertex 4 Zcoordinate

SHADING:SITE:DETAILED,
    Shading_V107_1,           !- Name
    ,                         !- Transmittance Schedule Name
    autocalculate,            !- Number of Vertices
    -69.2985,                 !- Vertex 1 Xcoordinate
    156.7544,                 !- Vertex 1 Ycoordinate
    15.5,                     !- Vertex 1 Zcoordinate
    -69.2985,                 !- Vertex 2 Xcoordinate
    156.7544,                 !- Vertex 2 Ycoordinate
    0,                        !- Vertex 2 Zcoordinate
    -62.8665,                 !- Vertex 3 Xcoordinate
    149.2394,                 !- Vertex 3 Ycoordinate
    0,                        !- Vertex 3 Zcoordinate
    -62.8665,                 !- Vertex 4 Xcoordinate
    149.2394,                 !- Vertex 4 Ycoordinate
    15.5;                     !- Vertex 4 Zcoordinate

SHADING:SITE:DETAILED,
    Shading_V135_1,           !- Name
    ,                         !- Transmittance Schedule Name
    autocalculate,            !- Number of Vertices
    33.6745,                  !- Vertex 1 Xcoordinate
    36.4104,                  !- Vertex 1 Ycoordinate
    15.5,                     !- Vertex 1 Zcoordinate
    33.6745,                  !- Vertex 2 Xcoordinate
    36.4104,                  !- Vertex 2 Ycoordinate
    0,                        !- Vertex 2 Zcoordinate
    30.5905,                  !- Vertex 3 Xcoordinate
    33.8164,                  !- Vertex 3 Ycoordinate
    0,                        !- Vertex 3 Zcoordinate
    30.5905,                  !- Vertex 4 Xcoordinate
    33.8164,                  !- Vertex 4 Ycoordinate
    15.5;                     !- Vertex 4 Zcoordinate

SHADING:SITE:DETAILED,
    Shading_V145_1,           !- Name
    ,                         !- Transmittance Schedule Name
    autocalculate,            !- Number of Vertices
    10.4175,                  !- Vertex 1 Xcoordinate
    73.2514,                  !- Vertex 1 Ycoordinate
    15.5,                     !- Vertex 1 Zcoordinate
    10.4175,                  !- Vertex 2 Xcoordinate
    73.2514,                  !- Vertex 2 Ycoordinate
    0,                        !- Vertex 2 Zcoordinate
    15.5155,                  !- Vertex 3 Xcoordinate
    77.6134,                  !- Vertex 3 Ycoordinate
    0,                        !- Vertex 3 Zcoordinate
    15.5155,                  !- Vertex 4 Xcoordinate
    77.6134,                  !- Vertex 4 Ycoordinate
    15.5;                     !- Vertex 4 Zcoordinate

SHADING:SITE:DETAILED,
    Shading_V147_1,           !- Name
    ,                         !- Transmittance Schedule Name
    autocalculate,            !- Number of Vertices
    12.9135,                  !- Vertex 1 Xcoordinate
    80.6534,                  !- Vertex 1 Ycoordinate
    15.5,                     !- Vertex 1 Zcoordinate
    12.9135,                  !- Vertex 2 Xcoordinate
    80.6534,                  !- Vertex 2 Ycoordinate
    0,                        !- Vertex 2 Zcoordinate
    25.3595,                  !- Vertex 3 Xcoordinate
    91.3024,                  !- Vertex 3 Ycoordinate
    0,                        !- Vertex 3 Zcoordinate
    25.3595,                  !- Vertex 4 Xcoordinate
    91.3024,                  !- Vertex 4 Ycoordinate
    15.5;                     !- Vertex 4 Zcoordinate

SHADING:SITE:DETAILED,
    Shading_V148_1,           !- Name
    ,                         !- Transmittance Schedule Name
    autocalculate,            !- Number of Vertices
    25.3595,                  !- Vertex 1 Xcoordinate
    91.3024,                  !- Vertex 1 Ycoordinate
    15.5,                     !- Vertex 1 Zcoordinate
    25.3595,                  !- Vertex 2 Xcoordinate
    91.3024,                  !- Vertex 2 Ycoordinate
    0,                        !- Vertex 2 Zcoordinate
    27.9595,                  !- Vertex 3 Xcoordinate
    88.2634,                  !- Vertex 3 Ycoordinate
    0,                        !- Vertex 3 Zcoordinate
    27.9595,                  !- Vertex 4 Xcoordinate
    88.2634,                  !- Vertex 4 Ycoordinate
    15.5;                     !- Vertex 4 Zcoordinate

SHADING:SITE:DETAILED,
    Shading_V149_1,           !- Name
    ,                         !- Transmittance Schedule Name
    autocalculate,            !- Number of Vertices
    27.9595,                  !- Vertex 1 Xcoordinate
    88.2634,                  !- Vertex 1 Ycoordinate
    15.5,                     !- Vertex 1 Zcoordinate
    27.9595,                  !- Vertex 2 Xcoordinate
    88.2634,                  !- Vertex 2 Ycoordinate
    0,                        !- Vertex 2 Zcoordinate
    33.0305,                  !- Vertex 3 Xcoordinate
    92.6044,                  !- Vertex 3 Ycoordinate
    0,                        !- Vertex 3 Zcoordinate
    33.0305,                  !- Vertex 4 Xcoordinate
    92.6044,                  !- Vertex 4 Ycoordinate
    15.5;                     !- Vertex 4 Zcoordinate

SHADING:SITE:DETAILED,
    Shading_V17_1,            !- Name
    ,                         !- Transmittance Schedule Name
    autocalculate,            !- Number of Vertices
    -11.4795,                 !- Vertex 1 Xcoordinate
    -59.0576,                 !- Vertex 1 Ycoordinate
    6.6,                      !- Vertex 1 Zcoordinate
    -11.4795,                 !- Vertex 2 Xcoordinate
    -59.0576,                 !- Vertex 2 Ycoordinate
    0,                        !- Vertex 2 Zcoordinate
    -20.6675,                 !- Vertex 3 Xcoordinate
    -35.1116,                 !- Vertex 3 Ycoordinate
    0,                        !- Vertex 3 Zcoordinate
    -20.6675,                 !- Vertex 4 Xcoordinate
    -35.1116,                 !- Vertex 4 Ycoordinate
    6.6;                      !- Vertex 4 Zcoordinate

SHADING:SITE:DETAILED,
    Shading_V18_1,            !- Name
    ,                         !- Transmittance Schedule Name
    autocalculate,            !- Number of Vertices
    -20.6675,                 !- Vertex 1 Xcoordinate
    -35.1116,                 !- Vertex 1 Ycoordinate
    6.6,                      !- Vertex 1 Zcoordinate
    -20.6675,                 !- Vertex 2 Xcoordinate
    -35.1116,                 !- Vertex 2 Ycoordinate
    0,                        !- Vertex 2 Zcoordinate
    -30.2855,                 !- Vertex 3 Xcoordinate
    -38.7926,                 !- Vertex 3 Ycoordinate
    0,                        !- Vertex 3 Zcoordinate
    -30.2855,                 !- Vertex 4 Xcoordinate
    -38.7926,                 !- Vertex 4 Ycoordinate
    6.6;                      !- Vertex 4 Zcoordinate

SHADING:SITE:DETAILED,
    Shading_V292_1,           !- Name
    ,                         !- Transmittance Schedule Name
    autocalculate,            !- Number of Vertices
    -79.9195,                 !- Vertex 1 Xcoordinate
    -61.9616,                 !- Vertex 1 Ycoordinate
    7.8,                      !- Vertex 1 Zcoordinate
    -79.9195,                 !- Vertex 2 Xcoordinate
    -61.9616,                 !- Vertex 2 Ycoordinate
    0,                        !- Vertex 2 Zcoordinate
    -83.9355,                 !- Vertex 3 Xcoordinate
    -45.0006,                 !- Vertex 3 Ycoordinate
    0,                        !- Vertex 3 Zcoordinate
    -83.9355,                 !- Vertex 4 Xcoordinate
    -45.0006,                 !- Vertex 4 Ycoordinate
    7.8;                      !- Vertex 4 Zcoordinate

SHADING:SITE:DETAILED,
    Shading_V83_1,            !- Name
    ,                         !- Transmittance Schedule Name
    autocalculate,            !- Number of Vertices
    -102.1145,                !- Vertex 1 Xcoordinate
    28.5754,                  !- Vertex 1 Ycoordinate
    8,                        !- Vertex 1 Zcoordinate
    -102.1145,                !- Vertex 2 Xcoordinate
    28.5754,                  !- Vertex 2 Ycoordinate
    0,                        !- Vertex 2 Zcoordinate
    -108.9105,                !- Vertex 3 Xcoordinate
    37.9084,                  !- Vertex 3 Ycoordinate
    0,                        !- Vertex 3 Zcoordinate
    -108.9105,                !- Vertex 4 Xcoordinate
    37.9084,                  !- Vertex 4 Ycoordinate
    8;                        !- Vertex 4 Zcoordinate

SHADING:SITE:DETAILED,
    Shading_V170_1,           !- Name
    ,                         !- Transmittance Schedule Name
    autocalculate,            !- Number of Vertices
    -99.0035,                 !- Vertex 1 Xcoordinate
    54.8594,                  !- Vertex 1 Ycoordinate
    9,                        !- Vertex 1 Zcoordinate
    -99.0035,                 !- Vertex 2 Xcoordinate
    54.8594,                  !- Vertex 2 Ycoordinate
    0,                        !- Vertex 2 Zcoordinate
    -90.4975,                 !- Vertex 3 Xcoordinate
    60.1004,                  !- Vertex 3 Ycoordinate
    0,                        !- Vertex 3 Zcoordinate
    -90.4975,                 !- Vertex 4 Xcoordinate
    60.1004,                  !- Vertex 4 Ycoordinate
    9;                        !- Vertex 4 Zcoordinate

SHADING:SITE:DETAILED,
    Shading_V171_1,           !- Name
    ,                         !- Transmittance Schedule Name
    autocalculate,            !- Number of Vertices
    -90.4975,                 !- Vertex 1 Xcoordinate
    60.1004,                  !- Vertex 1 Ycoordinate
    9,                        !- Vertex 1 Zcoordinate
    -90.4975,                 !- Vertex 2 Xcoordinate
    60.1004,                  !- Vertex 2 Ycoordinate
    0,                        !- Vertex 2 Zcoordinate
    -99.5585,                 !- Vertex 3 Xcoordinate
    74.5434,                  !- Vertex 3 Ycoordinate
    0,                        !- Vertex 3 Zcoordinate
    -99.5585,                 !- Vertex 4 Xcoordinate
    74.5434,                  !- Vertex 4 Ycoordinate
    9;                        !- Vertex 4 Zcoordinate

SHADING:SITE:DETAILED,
    Shading_V175_1,           !- Name
    ,                         !- Transmittance Schedule Name
    autocalculate,            !- Number of Vertices
    -34.0245,                 !- Vertex 1 Xcoordinate
    42.3604,                  !- Vertex 1 Ycoordinate
    19.2,                     !- Vertex 1 Zcoordinate
    -34.0245,                 !- Vertex 2 Xcoordinate
    42.3604,                  !- Vertex 2 Ycoordinate
    0,                        !- Vertex 2 Zcoordinate
    -26.8685,                 !- Vertex 3 Xcoordinate
    48.5624,                  !- Vertex 3 Ycoordinate
    0,                        !- Vertex 3 Zcoordinate
    -26.8685,                 !- Vertex 4 Xcoordinate
    48.5624,                  !- Vertex 4 Ycoordinate
    19.2;                     !- Vertex 4 Zcoordinate

SHADING:SITE:DETAILED,
    Shading_V289_1,           !- Name
    ,                         !- Transmittance Schedule Name
    autocalculate,            !- Number of Vertices
    -83.9355,                 !- Vertex 1 Xcoordinate
    -45.0006,                 !- Vertex 1 Ycoordinate
    7.8,                      !- Vertex 1 Zcoordinate
    -83.9355,                 !- Vertex 2 Xcoordinate
    -45.0006,                 !- Vertex 2 Ycoordinate
    0,                        !- Vertex 2 Zcoordinate
    -92.4815,                 !- Vertex 3 Xcoordinate
    -47.0466,                 !- Vertex 3 Ycoordinate
    0,                        !- Vertex 3 Zcoordinate
    -92.4815,                 !- Vertex 4 Xcoordinate
    -47.0466,                 !- Vertex 4 Ycoordinate
    7.8;                      !- Vertex 4 Zcoordinate

SHADING:SITE:DETAILED,
    Shading_V449_1,           !- Name
    ,                         !- Transmittance Schedule Name
    autocalculate,            !- Number of Vertices
    -123.7605,                !- Vertex 1 Xcoordinate
    -39.5506,                 !- Vertex 1 Ycoordinate
    6.4,                      !- Vertex 1 Zcoordinate
    -123.7605,                !- Vertex 2 Xcoordinate
    -39.5506,                 !- Vertex 2 Ycoordinate
    0,                        !- Vertex 2 Zcoordinate
    -133.7775,                !- Vertex 3 Xcoordinate
    -41.9516,                 !- Vertex 3 Ycoordinate
    0,                        !- Vertex 3 Zcoordinate
    -133.7775,                !- Vertex 4 Xcoordinate
    -41.9516,                 !- Vertex 4 Ycoordinate
    6.4;                      !- Vertex 4 Zcoordinate

SHADING:SITE:DETAILED,
    Shading_V452_1,           !- Name
    ,                         !- Transmittance Schedule Name
    autocalculate,            !- Number of Vertices
    -116.9315,                !- Vertex 1 Xcoordinate
    -67.6916,                 !- Vertex 1 Ycoordinate
    6.4,                      !- Vertex 1 Zcoordinate
    -116.9315,                !- Vertex 2 Xcoordinate
    -67.6916,                 !- Vertex 2 Ycoordinate
    0,                        !- Vertex 2 Zcoordinate
    -123.7605,                !- Vertex 3 Xcoordinate
    -39.5506,                 !- Vertex 3 Ycoordinate
    0,                        !- Vertex 3 Zcoordinate
    -123.7605,                !- Vertex 4 Xcoordinate
    -39.5506,                 !- Vertex 4 Ycoordinate
    6.4;                      !- Vertex 4 Zcoordinate

SHADING:SITE:DETAILED,
    Shading_V502_1,           !- Name
    ,                         !- Transmittance Schedule Name
    autocalculate,            !- Number of Vertices
    -67.6205,                 !- Vertex 1 Xcoordinate
    14.9474,                  !- Vertex 1 Ycoordinate
    8.3,                      !- Vertex 1 Zcoordinate
    -67.6205,                 !- Vertex 2 Xcoordinate
    14.9474,                  !- Vertex 2 Ycoordinate
    0,                        !- Vertex 2 Zcoordinate
    -60.2055,                 !- Vertex 3 Xcoordinate
    22.3944,                  !- Vertex 3 Ycoordinate
    0,                        !- Vertex 3 Zcoordinate
    -60.2055,                 !- Vertex 4 Xcoordinate
    22.3944,                  !- Vertex 4 Ycoordinate
    8.3;                      !- Vertex 4 Zcoordinate

SHADING:SITE:DETAILED,
    Shading_V503_1,           !- Name
    ,                         !- Transmittance Schedule Name
    autocalculate,            !- Number of Vertices
    -60.2055,                 !- Vertex 1 Xcoordinate
    22.3944,                  !- Vertex 1 Ycoordinate
    8.3,                      !- Vertex 1 Zcoordinate
    -60.2055,                 !- Vertex 2 Xcoordinate
    22.3944,                  !- Vertex 2 Ycoordinate
    0,                        !- Vertex 2 Zcoordinate
    -68.3295,                 !- Vertex 3 Xcoordinate
    30.5784,                  !- Vertex 3 Ycoordinate
    0,                        !- Vertex 3 Zcoordinate
    -68.3295,                 !- Vertex 4 Xcoordinate
    30.5784,                  !- Vertex 4 Ycoordinate
    8.3;                      !- Vertex 4 Zcoordinate

SHADING:SITE:DETAILED,
    Shading_V21_1,            !- Name
    ,                         !- Transmittance Schedule Name
    autocalculate,            !- Number of Vertices
    -158.9175,                !- Vertex 1 Xcoordinate
    -6.9266,                  !- Vertex 1 Ycoordinate
    6.9,                      !- Vertex 1 Zcoordinate
    -158.9175,                !- Vertex 2 Xcoordinate
    -6.9266,                  !- Vertex 2 Ycoordinate
    0,                        !- Vertex 2 Zcoordinate
    -154.1365,                !- Vertex 3 Xcoordinate
    2.0844,                   !- Vertex 3 Ycoordinate
    0,                        !- Vertex 3 Zcoordinate
    -154.1365,                !- Vertex 4 Xcoordinate
    2.0844,                   !- Vertex 4 Ycoordinate
    6.9;                      !- Vertex 4 Zcoordinate

SHADING:SITE:DETAILED,
    Shading_V22_1,            !- Name
    ,                         !- Transmittance Schedule Name
    autocalculate,            !- Number of Vertices
    -154.1365,                !- Vertex 1 Xcoordinate
    2.0844,                   !- Vertex 1 Ycoordinate
    6.9,                      !- Vertex 1 Zcoordinate
    -154.1365,                !- Vertex 2 Xcoordinate
    2.0844,                   !- Vertex 2 Ycoordinate
    0,                        !- Vertex 2 Zcoordinate
    -176.7555,                !- Vertex 3 Xcoordinate
    14.1804,                  !- Vertex 3 Ycoordinate
    0,                        !- Vertex 3 Zcoordinate
    -176.7555,                !- Vertex 4 Xcoordinate
    14.1804,                  !- Vertex 4 Ycoordinate
    6.9;                      !- Vertex 4 Zcoordinate

SHADING:SITE:DETAILED,
    Shading_V380_1,           !- Name
    ,                         !- Transmittance Schedule Name
    autocalculate,            !- Number of Vertices
    -164.2155,                !- Vertex 1 Xcoordinate
    23.3394,                  !- Vertex 1 Ycoordinate
    8.6,                      !- Vertex 1 Zcoordinate
    -164.2155,                !- Vertex 2 Xcoordinate
    23.3394,                  !- Vertex 2 Ycoordinate
    0,                        !- Vertex 2 Zcoordinate
    -156.0225,                !- Vertex 3 Xcoordinate
    29.6244,                  !- Vertex 3 Ycoordinate
    0,                        !- Vertex 3 Zcoordinate
    -156.0225,                !- Vertex 4 Xcoordinate
    29.6244,                  !- Vertex 4 Ycoordinate
    8.6;                      !- Vertex 4 Zcoordinate

SHADING:SITE:DETAILED,
    Shading_V130_1,           !- Name
    ,                         !- Transmittance Schedule Name
    autocalculate,            !- Number of Vertices
    19.0815,                  !- Vertex 1 Xcoordinate
    63.1174,                  !- Vertex 1 Ycoordinate
    15.5,                     !- Vertex 1 Zcoordinate
    19.0815,                  !- Vertex 2 Xcoordinate
    63.1174,                  !- Vertex 2 Ycoordinate
    0,                        !- Vertex 2 Zcoordinate
    21.6215,                  !- Vertex 3 Xcoordinate
    60.1304,                  !- Vertex 3 Ycoordinate
    0,                        !- Vertex 3 Zcoordinate
    21.6215,                  !- Vertex 4 Xcoordinate
    60.1304,                  !- Vertex 4 Ycoordinate
    15.5;                     !- Vertex 4 Zcoordinate

SHADING:SITE:DETAILED,
    Shading_V178_1,           !- Name
    ,                         !- Transmittance Schedule Name
    autocalculate,            !- Number of Vertices
    -14.8895,                 !- Vertex 1 Xcoordinate
    50.0824,                  !- Vertex 1 Ycoordinate
    19.2,                     !- Vertex 1 Zcoordinate
    -14.8895,                 !- Vertex 2 Xcoordinate
    50.0824,                  !- Vertex 2 Ycoordinate
    0,                        !- Vertex 2 Zcoordinate
    -20.0875,                 !- Vertex 3 Xcoordinate
    56.1054,                  !- Vertex 3 Ycoordinate
    0,                        !- Vertex 3 Zcoordinate
    -20.0875,                 !- Vertex 4 Xcoordinate
    56.1054,                  !- Vertex 4 Ycoordinate
    19.2;                     !- Vertex 4 Zcoordinate

SHADING:SITE:DETAILED,
    Shading_V179_1,           !- Name
    ,                         !- Transmittance Schedule Name
    autocalculate,            !- Number of Vertices
    -20.0875,                 !- Vertex 1 Xcoordinate
    56.1054,                  !- Vertex 1 Ycoordinate
    19.2,                     !- Vertex 1 Zcoordinate
    -20.0875,                 !- Vertex 2 Xcoordinate
    56.1054,                  !- Vertex 2 Ycoordinate
    0,                        !- Vertex 2 Zcoordinate
    -14.0315,                 !- Vertex 3 Xcoordinate
    61.3044,                  !- Vertex 3 Ycoordinate
    0,                        !- Vertex 3 Zcoordinate
    -14.0315,                 !- Vertex 4 Xcoordinate
    61.3044,                  !- Vertex 4 Ycoordinate
    19.2;                     !- Vertex 4 Zcoordinate

SHADING:SITE:DETAILED,
    Shading_V378_1,           !- Name
    ,                         !- Transmittance Schedule Name
    autocalculate,            !- Number of Vertices
    46.3005,                  !- Vertex 1 Xcoordinate
    103.9564,                 !- Vertex 1 Ycoordinate
    14.2,                     !- Vertex 1 Zcoordinate
    46.3005,                  !- Vertex 2 Xcoordinate
    103.9564,                 !- Vertex 2 Ycoordinate
    0,                        !- Vertex 2 Zcoordinate
    52.9475,                  !- Vertex 3 Xcoordinate
    110.1674,                 !- Vertex 3 Ycoordinate
    0,                        !- Vertex 3 Zcoordinate
    52.9475,                  !- Vertex 4 Xcoordinate
    110.1674,                 !- Vertex 4 Ycoordinate
    14.2;                     !- Vertex 4 Zcoordinate

SHADING:SITE:DETAILED,
    Shading_V477_1,           !- Name
    ,                         !- Transmittance Schedule Name
    autocalculate,            !- Number of Vertices
    63.3865,                  !- Vertex 1 Xcoordinate
    122.5334,                 !- Vertex 1 Ycoordinate
    12.8,                     !- Vertex 1 Zcoordinate
    63.3865,                  !- Vertex 2 Xcoordinate
    122.5334,                 !- Vertex 2 Ycoordinate
    0,                        !- Vertex 2 Zcoordinate
    66.4225,                  !- Vertex 3 Xcoordinate
    125.1394,                 !- Vertex 3 Ycoordinate
    0,                        !- Vertex 3 Zcoordinate
    66.4225,                  !- Vertex 4 Xcoordinate
    125.1394,                 !- Vertex 4 Ycoordinate
    12.8;                     !- Vertex 4 Zcoordinate

SHADING:SITE:DETAILED,
    Shading_V14_1,            !- Name
    ,                         !- Transmittance Schedule Name
    autocalculate,            !- Number of Vertices
    -72.5745,                 !- Vertex 1 Xcoordinate
    64.6524,                  !- Vertex 1 Ycoordinate
    16.1,                     !- Vertex 1 Zcoordinate
    -72.5745,                 !- Vertex 2 Xcoordinate
    64.6524,                  !- Vertex 2 Ycoordinate
    0,                        !- Vertex 2 Zcoordinate
    -63.9675,                 !- Vertex 3 Xcoordinate
    72.0194,                  !- Vertex 3 Ycoordinate
    0,                        !- Vertex 3 Zcoordinate
    -63.9675,                 !- Vertex 4 Xcoordinate
    72.0194,                  !- Vertex 4 Ycoordinate
    16.1;                     !- Vertex 4 Zcoordinate

SHADING:SITE:DETAILED,
    Shading_V86_1,            !- Name
    ,                         !- Transmittance Schedule Name
    autocalculate,            !- Number of Vertices
    -110.6955,                !- Vertex 1 Xcoordinate
    22.3904,                  !- Vertex 1 Ycoordinate
    8,                        !- Vertex 1 Zcoordinate
    -110.6955,                !- Vertex 2 Xcoordinate
    22.3904,                  !- Vertex 2 Ycoordinate
    0,                        !- Vertex 2 Zcoordinate
    -102.1145,                !- Vertex 3 Xcoordinate
    28.5754,                  !- Vertex 3 Ycoordinate
    0,                        !- Vertex 3 Zcoordinate
    -102.1145,                !- Vertex 4 Xcoordinate
    28.5754,                  !- Vertex 4 Ycoordinate
    8;                        !- Vertex 4 Zcoordinate

SHADING:SITE:DETAILED,
    Shading_V381_1,           !- Name
    ,                         !- Transmittance Schedule Name
    autocalculate,            !- Number of Vertices
    -156.0225,                !- Vertex 1 Xcoordinate
    29.6244,                  !- Vertex 1 Ycoordinate
    8.6,                      !- Vertex 1 Zcoordinate
    -156.0225,                !- Vertex 2 Xcoordinate
    29.6244,                  !- Vertex 2 Ycoordinate
    0,                        !- Vertex 2 Zcoordinate
    -169.9135,                !- Vertex 3 Xcoordinate
    47.8784,                  !- Vertex 3 Ycoordinate
    0,                        !- Vertex 3 Zcoordinate
    -169.9135,                !- Vertex 4 Xcoordinate
    47.8784,                  !- Vertex 4 Ycoordinate
    8.6;                      !- Vertex 4 Zcoordinate

SHADING:SITE:DETAILED,
    Shading_V15_1,            !- Name
    ,                         !- Transmittance Schedule Name
    autocalculate,            !- Number of Vertices
    -63.9675,                 !- Vertex 1 Xcoordinate
    72.0194,                  !- Vertex 1 Ycoordinate
    16.1,                     !- Vertex 1 Zcoordinate
    -63.9675,                 !- Vertex 2 Xcoordinate
    72.0194,                  !- Vertex 2 Ycoordinate
    0,                        !- Vertex 2 Zcoordinate
    -54.1494,                 !- Vertex 3 Xcoordinate
    71.2805,                  !- Vertex 3 Ycoordinate
    0,                        !- Vertex 3 Zcoordinate
    -54.1494,                 !- Vertex 4 Xcoordinate
    71.2805,                  !- Vertex 4 Ycoordinate
    16.1;                     !- Vertex 4 Zcoordinate

SHADING:SITE:DETAILED,
    Shading_V174_1,           !- Name
    ,                         !- Transmittance Schedule Name
    autocalculate,            !- Number of Vertices
    -42.3275,                 !- Vertex 1 Xcoordinate
    51.9874,                  !- Vertex 1 Ycoordinate
    19.2,                     !- Vertex 1 Zcoordinate
    -42.3275,                 !- Vertex 2 Xcoordinate
    51.9874,                  !- Vertex 2 Ycoordinate
    0,                        !- Vertex 2 Zcoordinate
    -34.0245,                 !- Vertex 3 Xcoordinate
    42.3604,                  !- Vertex 3 Ycoordinate
    0,                        !- Vertex 3 Zcoordinate
    -34.0245,                 !- Vertex 4 Xcoordinate
    42.3604,                  !- Vertex 4 Ycoordinate
    19.2;                     !- Vertex 4 Zcoordinate

SHADING:SITE:DETAILED,
    Shading_V140_1,           !- Name
    ,                         !- Transmittance Schedule Name
    autocalculate,            !- Number of Vertices
    -9.6175,                  !- Vertex 1 Xcoordinate
    87.0144,                  !- Vertex 1 Ycoordinate
    15.5,                     !- Vertex 1 Zcoordinate
    -9.6175,                  !- Vertex 2 Xcoordinate
    87.0144,                  !- Vertex 2 Ycoordinate
    0,                        !- Vertex 2 Zcoordinate
    -3.1805,                  !- Vertex 3 Xcoordinate
    79.4944,                  !- Vertex 3 Ycoordinate
    0,                        !- Vertex 3 Zcoordinate
    -3.1805,                  !- Vertex 4 Xcoordinate
    79.4944,                  !- Vertex 4 Ycoordinate
    15.5;                     !- Vertex 4 Zcoordinate

SHADING:SITE:DETAILED,
    Shading_V177_1,           !- Name
    ,                         !- Transmittance Schedule Name
    autocalculate,            !- Number of Vertices
    -22.5285,                 !- Vertex 1 Xcoordinate
    43.4894,                  !- Vertex 1 Ycoordinate
    19.2,                     !- Vertex 1 Zcoordinate
    -22.5285,                 !- Vertex 2 Xcoordinate
    43.4894,                  !- Vertex 2 Ycoordinate
    0,                        !- Vertex 2 Zcoordinate
    -14.8895,                 !- Vertex 3 Xcoordinate
    50.0824,                  !- Vertex 3 Ycoordinate
    0,                        !- Vertex 3 Zcoordinate
    -14.8895,                 !- Vertex 4 Xcoordinate
    50.0824,                  !- Vertex 4 Ycoordinate
    19.2;                     !- Vertex 4 Zcoordinate

SHADING:SITE:DETAILED,
    Shading_V221_1,           !- Name
    ,                         !- Transmittance Schedule Name
    autocalculate,            !- Number of Vertices
    -19.7455,                 !- Vertex 1 Xcoordinate
    173.4464,                 !- Vertex 1 Ycoordinate
    14.3,                     !- Vertex 1 Zcoordinate
    -19.7455,                 !- Vertex 2 Xcoordinate
    173.4464,                 !- Vertex 2 Ycoordinate
    0,                        !- Vertex 2 Zcoordinate
    -15.9295,                 !- Vertex 3 Xcoordinate
    168.9874,                 !- Vertex 3 Ycoordinate
    0,                        !- Vertex 3 Zcoordinate
    -15.9295,                 !- Vertex 4 Xcoordinate
    168.9874,                 !- Vertex 4 Ycoordinate
    14.3;                     !- Vertex 4 Zcoordinate

SHADING:SITE:DETAILED,
    Shading_V222_1,           !- Name
    ,                         !- Transmittance Schedule Name
    autocalculate,            !- Number of Vertices
    -15.9295,                 !- Vertex 1 Xcoordinate
    168.9874,                 !- Vertex 1 Ycoordinate
    14.3,                     !- Vertex 1 Zcoordinate
    -15.9295,                 !- Vertex 2 Xcoordinate
    168.9874,                 !- Vertex 2 Ycoordinate
    0,                        !- Vertex 2 Zcoordinate
    -12.8895,                 !- Vertex 3 Xcoordinate
    171.5874,                 !- Vertex 3 Ycoordinate
    0,                        !- Vertex 3 Zcoordinate
    -12.8895,                 !- Vertex 4 Xcoordinate
    171.5874,                 !- Vertex 4 Ycoordinate
    14.3;                     !- Vertex 4 Zcoordinate

SHADING:SITE:DETAILED,
    Shading_V478_1,           !- Name
    ,                         !- Transmittance Schedule Name
    autocalculate,            !- Number of Vertices
    66.4225,                  !- Vertex 1 Xcoordinate
    125.1394,                 !- Vertex 1 Ycoordinate
    12.8,                     !- Vertex 1 Zcoordinate
    66.4225,                  !- Vertex 2 Xcoordinate
    125.1394,                 !- Vertex 2 Ycoordinate
    0,                        !- Vertex 2 Zcoordinate
    70.5945,                  !- Vertex 3 Xcoordinate
    120.2794,                 !- Vertex 3 Ycoordinate
    0,                        !- Vertex 3 Zcoordinate
    70.5945,                  !- Vertex 4 Xcoordinate
    120.2794,                 !- Vertex 4 Ycoordinate
    12.8;                     !- Vertex 4 Zcoordinate

SHADING:SITE:DETAILED,
    Shading_V479_1,           !- Name
    ,                         !- Transmittance Schedule Name
    autocalculate,            !- Number of Vertices
    70.5945,                  !- Vertex 1 Xcoordinate
    120.2794,                 !- Vertex 1 Ycoordinate
    12.8,                     !- Vertex 1 Zcoordinate
    70.5945,                  !- Vertex 2 Xcoordinate
    120.2794,                 !- Vertex 2 Ycoordinate
    0,                        !- Vertex 2 Zcoordinate
    78.2445,                  !- Vertex 3 Xcoordinate
    126.8274,                 !- Vertex 3 Ycoordinate
    0,                        !- Vertex 3 Zcoordinate
    78.2445,                  !- Vertex 4 Xcoordinate
    126.8274,                 !- Vertex 4 Ycoordinate
    12.8;                     !- Vertex 4 Zcoordinate

SHADING:SITE:DETAILED,
    Shading_V176_1,           !- Name
    ,                         !- Transmittance Schedule Name
    autocalculate,            !- Number of Vertices
    -26.8685,                 !- Vertex 1 Xcoordinate
    48.5624,                  !- Vertex 1 Ycoordinate
    19.2,                     !- Vertex 1 Zcoordinate
    -26.8685,                 !- Vertex 2 Xcoordinate
    48.5624,                  !- Vertex 2 Ycoordinate
    0,                        !- Vertex 2 Zcoordinate
    -22.5285,                 !- Vertex 3 Xcoordinate
    43.4894,                  !- Vertex 3 Ycoordinate
    0,                        !- Vertex 3 Zcoordinate
    -22.5285,                 !- Vertex 4 Xcoordinate
    43.4894,                  !- Vertex 4 Ycoordinate
    19.2;                     !- Vertex 4 Zcoordinate

SHADING:SITE:DETAILED,
    Shading_V131_1,           !- Name
    ,                         !- Transmittance Schedule Name
    autocalculate,            !- Number of Vertices
    21.6215,                  !- Vertex 1 Xcoordinate
    60.1304,                  !- Vertex 1 Ycoordinate
    15.5,                     !- Vertex 1 Zcoordinate
    21.6215,                  !- Vertex 2 Xcoordinate
    60.1304,                  !- Vertex 2 Ycoordinate
    0,                        !- Vertex 2 Zcoordinate
    13.8735,                  !- Vertex 3 Xcoordinate
    53.3684,                  !- Vertex 3 Ycoordinate
    0,                        !- Vertex 3 Zcoordinate
    13.8735,                  !- Vertex 4 Xcoordinate
    53.3684,                  !- Vertex 4 Ycoordinate
    15.5;                     !- Vertex 4 Zcoordinate

SHADING:SITE:DETAILED,
    Shading_V219_1,           !- Name
    ,                         !- Transmittance Schedule Name
    autocalculate,            !- Number of Vertices
    -39.0715,                 !- Vertex 1 Xcoordinate
    202.2104,                 !- Vertex 1 Ycoordinate
    14.3,                     !- Vertex 1 Zcoordinate
    -39.0715,                 !- Vertex 2 Xcoordinate
    202.2104,                 !- Vertex 2 Ycoordinate
    0,                        !- Vertex 2 Zcoordinate
    -16.7065,                 !- Vertex 3 Xcoordinate
    176.0474,                 !- Vertex 3 Ycoordinate
    0,                        !- Vertex 3 Zcoordinate
    -16.7065,                 !- Vertex 4 Xcoordinate
    176.0474,                 !- Vertex 4 Ycoordinate
    14.3;                     !- Vertex 4 Zcoordinate

SHADING:SITE:DETAILED,
    Shading_V13_1,            !- Name
    ,                         !- Transmittance Schedule Name
    autocalculate,            !- Number of Vertices
    -79.3325,                 !- Vertex 1 Xcoordinate
    72.1974,                  !- Vertex 1 Ycoordinate
    16.1,                     !- Vertex 1 Zcoordinate
    -79.3325,                 !- Vertex 2 Xcoordinate
    72.1974,                  !- Vertex 2 Ycoordinate
    0,                        !- Vertex 2 Zcoordinate
    -72.5745,                 !- Vertex 3 Xcoordinate
    64.6524,                  !- Vertex 3 Ycoordinate
    0,                        !- Vertex 3 Zcoordinate
    -72.5745,                 !- Vertex 4 Xcoordinate
    64.6524,                  !- Vertex 4 Ycoordinate
    16.1;                     !- Vertex 4 Zcoordinate

ELECTRICEQUIPMENT,
    Block Build0_Alt0 Storey 0Load,    !- Name
    Block Build0_Alt0 Storey 0,    !- Zone or ZoneList Name
    LoadSchedule,             !- Schedule Name
    Watts/Area,               !- Design Level Calculation Method
    ,                         !- Design Level
    0.04,                     !- Watts per Zone Floor Area
    ,                         !- Watts per Person
    0,                        !- Fraction Latent
    0,                        !- Fraction Radiant
    0,                        !- Fraction Lost
    General;                  !- EndUse Subcategory

ELECTRICEQUIPMENT,
    Block Build1_Alt0 Storey 0Load,    !- Name
    Block Build1_Alt0 Storey 0,    !- Zone or ZoneList Name
    LoadSchedule,             !- Schedule Name
    Watts/Area,               !- Design Level Calculation Method
    ,                         !- Design Level
    0.07,                     !- Watts per Zone Floor Area
    ,                         !- Watts per Person
    0,                        !- Fraction Latent
    0,                        !- Fraction Radiant
    0,                        !- Fraction Lost
    General;                  !- EndUse Subcategory

ELECTRICEQUIPMENT,
    Block Build2_Alt0 Storey 0Load,    !- Name
    Block Build2_Alt0 Storey 0,    !- Zone or ZoneList Name
    LoadSchedule,             !- Schedule Name
    Watts/Area,               !- Design Level Calculation Method
    ,                         !- Design Level
    0.07,                     !- Watts per Zone Floor Area
    ,                         !- Watts per Person
    0,                        !- Fraction Latent
    0,                        !- Fraction Radiant
    0,                        !- Fraction Lost
    General;                  !- EndUse Subcategory

ZONEINFILTRATION:DESIGNFLOWRATE,
    Block Build0_Alt0 Storey -1Leak,    !- Name
    Block Build0_Alt0 Storey -1,    !- Zone or ZoneList Name
    AlwaysON,                 !- Schedule Name
    AirChanges/Hour,          !- Design Flow Rate Calculation Method
    ,                         !- Design Flow Rate
    ,                         !- Flow per Zone Floor Area
    ,                         !- Flow per Exterior Surface Area
    1,                        !- Air Changes per Hour
    1,                        !- Constant Term Coefficient
    0,                        !- Temperature Term Coefficient
    0,                        !- Velocity Term Coefficient
    0;                        !- Velocity Squared Term Coefficient

ZONEINFILTRATION:DESIGNFLOWRATE,
    Block Build1_Alt0 Storey -1Leak,    !- Name
    Block Build1_Alt0 Storey -1,    !- Zone or ZoneList Name
    AlwaysON,                 !- Schedule Name
    AirChanges/Hour,          !- Design Flow Rate Calculation Method
    ,                         !- Design Flow Rate
    ,                         !- Flow per Zone Floor Area
    ,                         !- Flow per Exterior Surface Area
    1,                        !- Air Changes per Hour
    1,                        !- Constant Term Coefficient
    0,                        !- Temperature Term Coefficient
    0,                        !- Velocity Term Coefficient
    0;                        !- Velocity Squared Term Coefficient

ZONEINFILTRATION:DESIGNFLOWRATE,
    Block Build2_Alt0 Storey -1Leak,    !- Name
    Block Build2_Alt0 Storey -1,    !- Zone or ZoneList Name
    AlwaysON,                 !- Schedule Name
    AirChanges/Hour,          !- Design Flow Rate Calculation Method
    ,                         !- Design Flow Rate
    ,                         !- Flow per Zone Floor Area
    ,                         !- Flow per Exterior Surface Area
    1,                        !- Air Changes per Hour
    1,                        !- Constant Term Coefficient
    0,                        !- Temperature Term Coefficient
    0,                        !- Velocity Term Coefficient
    0;                        !- Velocity Squared Term Coefficient

ZONEINFILTRATION:FLOWCOEFFICIENT,
    Block Build0_Alt0 Storey 0Leak,    !- Name
    Block Build0_Alt0 Storey 0,    !- Zone Name
    AlwaysON,                 !- Schedule Name
    6.586902e-02,             !- Flow Coefficient
    0.107,                    !- Stack Coefficient
    0.667,                    !- Pressure Exponent
    0.167,                    !- Wind Coefficient
    0.61;                     !- Shelter Factor

ZONEINFILTRATION:FLOWCOEFFICIENT,
    Block Build1_Alt0 Storey 0Leak,    !- Name
    Block Build1_Alt0 Storey 0,    !- Zone Name
    AlwaysON,                 !- Schedule Name
    1.973314e-01,             !- Flow Coefficient
    0.107,                    !- Stack Coefficient
    0.667,                    !- Pressure Exponent
    0.167,                    !- Wind Coefficient
    0.61;                     !- Shelter Factor

ZONEINFILTRATION:FLOWCOEFFICIENT,
    Block Build2_Alt0 Storey 0Leak,    !- Name
    Block Build2_Alt0 Storey 0,    !- Zone Name
    AlwaysON,                 !- Schedule Name
    1.924998e-01,             !- Flow Coefficient
    0.107,                    !- Stack Coefficient
    0.667,                    !- Pressure Exponent
    0.167,                    !- Wind Coefficient
    0.61;                     !- Shelter Factor

ZONEVENTILATION:DESIGNFLOWRATE,
    Block Build0_Alt0 Storey 0FreeCool,    !- Name
    Block Build0_Alt0 Storey 0,    !- Zone or ZoneList Name
    AlwaysON,                 !- Schedule Name
    AirChanges/Hour,          !- Design Flow Rate Calculation Method
    ,                         !- Design Flow Rate
    ,                         !- Flow Rate per Zone Floor Area
    ,                         !- Flow Rate per Person
    4,                        !- Air Changes per Hour
    Natural,                  !- Ventilation Type
    0,                        !- Fan Pressure Rise
    1,                        !- Fan Total Efficiency
    1,                        !- Constant Term Coefficient
    0,                        !- Temperature Term Coefficient
    0,                        !- Velocity Term Coefficient
    0,                        !- Velocity Squared Term Coefficient
    26,                       !- Minimum Indoor Temperature
    ,                         !- Minimum Indoor Temperature Schedule Name
    100,                      !- Maximum Indoor Temperature
    ,                         !- Maximum Indoor Temperature Schedule Name
    1,                        !- Delta Temperature
    ,                         !- Delta Temperature Schedule Name
    -100,                     !- Minimum Outdoor Temperature
    ,                         !- Minimum Outdoor Temperature Schedule Name
    100,                      !- Maximum Outdoor Temperature
    ,                         !- Maximum Outdoor Temperature Schedule Name
    40;                       !- Maximum Wind Speed

ZONEVENTILATION:DESIGNFLOWRATE,
    Block Build1_Alt0 Storey 0FreeCool,    !- Name
    Block Build1_Alt0 Storey 0,    !- Zone or ZoneList Name
    AlwaysON,                 !- Schedule Name
    AirChanges/Hour,          !- Design Flow Rate Calculation Method
    ,                         !- Design Flow Rate
    ,                         !- Flow Rate per Zone Floor Area
    ,                         !- Flow Rate per Person
    4,                        !- Air Changes per Hour
    Natural,                  !- Ventilation Type
    0,                        !- Fan Pressure Rise
    1,                        !- Fan Total Efficiency
    1,                        !- Constant Term Coefficient
    0,                        !- Temperature Term Coefficient
    0,                        !- Velocity Term Coefficient
    0,                        !- Velocity Squared Term Coefficient
    26,                       !- Minimum Indoor Temperature
    ,                         !- Minimum Indoor Temperature Schedule Name
    100,                      !- Maximum Indoor Temperature
    ,                         !- Maximum Indoor Temperature Schedule Name
    1,                        !- Delta Temperature
    ,                         !- Delta Temperature Schedule Name
    -100,                     !- Minimum Outdoor Temperature
    ,                         !- Minimum Outdoor Temperature Schedule Name
    100,                      !- Maximum Outdoor Temperature
    ,                         !- Maximum Outdoor Temperature Schedule Name
    40;                       !- Maximum Wind Speed

ZONEVENTILATION:DESIGNFLOWRATE,
    Block Build2_Alt0 Storey 0FreeCool,    !- Name
    Block Build2_Alt0 Storey 0,    !- Zone or ZoneList Name
    AlwaysON,                 !- Schedule Name
    AirChanges/Hour,          !- Design Flow Rate Calculation Method
    ,                         !- Design Flow Rate
    ,                         !- Flow Rate per Zone Floor Area
    ,                         !- Flow Rate per Person
    4,                        !- Air Changes per Hour
    Natural,                  !- Ventilation Type
    0,                        !- Fan Pressure Rise
    1,                        !- Fan Total Efficiency
    1,                        !- Constant Term Coefficient
    0,                        !- Temperature Term Coefficient
    0,                        !- Velocity Term Coefficient
    0,                        !- Velocity Squared Term Coefficient
    26,                       !- Minimum Indoor Temperature
    ,                         !- Minimum Indoor Temperature Schedule Name
    100,                      !- Maximum Indoor Temperature
    ,                         !- Maximum Indoor Temperature Schedule Name
    1,                        !- Delta Temperature
    ,                         !- Delta Temperature Schedule Name
    -100,                     !- Minimum Outdoor Temperature
    ,                         !- Minimum Outdoor Temperature Schedule Name
    100,                      !- Maximum Outdoor Temperature
    ,                         !- Maximum Outdoor Temperature Schedule Name
    40;                       !- Maximum Wind Speed

HVACTEMPLATE:THERMOSTAT,
    ResidZone,                !- Name
    ,                         !- Heating Setpoint Schedule Name
    21,                       !- Constant Heating Setpoint
    ,                         !- Cooling Setpoint Schedule Name
    50;                       !- Constant Cooling Setpoint

HVACTEMPLATE:ZONE:IDEALLOADSAIRSYSTEM,
    Block Build0_Alt0 Storey 0,    !- Zone Name
    ResidZone,                !- Template Thermostat Name
    ,                         !- System Availability Schedule Name
    50,                       !- Maximum Heating Supply Air Temperature
    13,                       !- Minimum Cooling Supply Air Temperature
    0.0156,                   !- Maximum Heating Supply Air Humidity Ratio
    0.0077,                   !- Minimum Cooling Supply Air Humidity Ratio
    NoLimit,                  !- Heating Limit
    ,                         !- Maximum Heating Air Flow Rate
    25134.892304953424,       !- Maximum Sensible Heating Capacity
    NoLimit,                  !- Cooling Limit
    ,                         !- Maximum Cooling Air Flow Rate
    ,                         !- Maximum Total Cooling Capacity
    ,                         !- Heating Availability Schedule Name
    ,                         !- Cooling Availability Schedule Name
    ConstantSensibleHeatRatio,    !- Dehumidification Control Type
    0.7,                      !- Cooling Sensible Heat Ratio
    60,                       !- Dehumidification Setpoint
    None,                     !- Humidification Control Type
    30,                       !- Humidification Setpoint
    Flow/Area,                !- Outdoor Air Method
    0.007,                    !- Outdoor Air Flow Rate per Person
    1.400000e-03,             !- Outdoor Air Flow Rate per Zone Floor Area
    0,                        !- Outdoor Air Flow Rate per Zone
    ,                         !- Design Specification Outdoor Air Object Name
    None,                     !- Demand Controlled Ventilation Type
    NoEconomizer,             !- Outdoor Air Economizer Type
    Sensible,                 !- Heat Recovery Type
    0.65,                     !- Sensible Heat Recovery Effectiveness
    0;                        !- Latent Heat Recovery Effectiveness

HVACTEMPLATE:ZONE:IDEALLOADSAIRSYSTEM,
    Block Build1_Alt0 Storey 0,    !- Zone Name
    ResidZone,                !- Template Thermostat Name
    ,                         !- System Availability Schedule Name
    50,                       !- Maximum Heating Supply Air Temperature
    13,                       !- Minimum Cooling Supply Air Temperature
    0.0156,                   !- Maximum Heating Supply Air Humidity Ratio
    0.0077,                   !- Minimum Cooling Supply Air Humidity Ratio
    NoLimit,                  !- Heating Limit
    ,                         !- Maximum Heating Air Flow Rate
    83281.23129507675,        !- Maximum Sensible Heating Capacity
    NoLimit,                  !- Cooling Limit
    ,                         !- Maximum Cooling Air Flow Rate
    ,                         !- Maximum Total Cooling Capacity
    ,                         !- Heating Availability Schedule Name
    ,                         !- Cooling Availability Schedule Name
    ConstantSensibleHeatRatio,    !- Dehumidification Control Type
    0.7,                      !- Cooling Sensible Heat Ratio
    60,                       !- Dehumidification Setpoint
    None,                     !- Humidification Control Type
    30,                       !- Humidification Setpoint
    Flow/Area,                !- Outdoor Air Method
    0.007,                    !- Outdoor Air Flow Rate per Person
    2.450000e-03,             !- Outdoor Air Flow Rate per Zone Floor Area
    0,                        !- Outdoor Air Flow Rate per Zone
    ,                         !- Design Specification Outdoor Air Object Name
    None,                     !- Demand Controlled Ventilation Type
    NoEconomizer,             !- Outdoor Air Economizer Type
    Sensible,                 !- Heat Recovery Type
    0.65,                     !- Sensible Heat Recovery Effectiveness
    0;                        !- Latent Heat Recovery Effectiveness

HVACTEMPLATE:ZONE:IDEALLOADSAIRSYSTEM,
    Block Build2_Alt0 Storey 0,    !- Zone Name
    ResidZone,                !- Template Thermostat Name
    ,                         !- System Availability Schedule Name
    50,                       !- Maximum Heating Supply Air Temperature
    13,                       !- Minimum Cooling Supply Air Temperature
    0.0156,                   !- Maximum Heating Supply Air Humidity Ratio
    0.0077,                   !- Minimum Cooling Supply Air Humidity Ratio
    NoLimit,                  !- Heating Limit
    ,                         !- Maximum Heating Air Flow Rate
    81354.68042041983,        !- Maximum Sensible Heating Capacity
    NoLimit,                  !- Cooling Limit
    ,                         !- Maximum Cooling Air Flow Rate
    ,                         !- Maximum Total Cooling Capacity
    ,                         !- Heating Availability Schedule Name
    ,                         !- Cooling Availability Schedule Name
    ConstantSensibleHeatRatio,    !- Dehumidification Control Type
    0.7,                      !- Cooling Sensible Heat Ratio
    60,                       !- Dehumidification Setpoint
    None,                     !- Humidification Control Type
    30,                       !- Humidification Setpoint
    Flow/Area,                !- Outdoor Air Method
    0.007,                    !- Outdoor Air Flow Rate per Person
    2.450000e-03,             !- Outdoor Air Flow Rate per Zone Floor Area
    0,                        !- Outdoor Air Flow Rate per Zone
    ,                         !- Design Specification Outdoor Air Object Name
    None,                     !- Demand Controlled Ventilation Type
    NoEconomizer,             !- Outdoor Air Economizer Type
    Sensible,                 !- Heat Recovery Type
    0.65,                     !- Sensible Heat Recovery Effectiveness
    0;                        !- Latent Heat Recovery Effectiveness

OUTDOORAIR:NODE,
    Block Build0_Alt0 Storey 0 IDEAL LOADS OUTDOOR AIR INLET,    !- Name
    -1,                       !- Height Above Ground
    ,                         !- Drybulb Temperature Schedule Name
    ,                         !- Wetbulb Temperature Schedule Name
    ,                         !- Wind Speed Schedule Name
    ,                         !- Wind Direction Schedule Name
    ,                         !- Wind Pressure Coefficient Curve Name
    No,                       !- Symmetric Wind Pressure Coefficient Curve
    Absolute;                 !- Wind Angle Type

OUTDOORAIR:NODE,
    Block Build1_Alt0 Storey 0 IDEAL LOADS OUTDOOR AIR INLET,    !- Name
    -1,                       !- Height Above Ground
    ,                         !- Drybulb Temperature Schedule Name
    ,                         !- Wetbulb Temperature Schedule Name
    ,                         !- Wind Speed Schedule Name
    ,                         !- Wind Direction Schedule Name
    ,                         !- Wind Pressure Coefficient Curve Name
    No,                       !- Symmetric Wind Pressure Coefficient Curve
    Absolute;                 !- Wind Angle Type

OUTDOORAIR:NODE,
    Block Build2_Alt0 Storey 0 IDEAL LOADS OUTDOOR AIR INLET,    !- Name
    -1,                       !- Height Above Ground
    ,                         !- Drybulb Temperature Schedule Name
    ,                         !- Wetbulb Temperature Schedule Name
    ,                         !- Wind Speed Schedule Name
    ,                         !- Wind Direction Schedule Name
    ,                         !- Wind Pressure Coefficient Curve Name
    No,                       !- Symmetric Wind Pressure Coefficient Curve
    Absolute;                 !- Wind Angle Type

ENERGYMANAGEMENTSYSTEM:SENSOR,
    T0,                       !- Name
    Block Build0_Alt0 Storey 0,    !- OutputVariable or OutputMeter Index Key Name
    Zone Mean Air Temperature;    !- OutputVariable or OutputMeter Name

ENERGYMANAGEMENTSYSTEM:SENSOR,
    T1,                       !- Name
    Block Build1_Alt0 Storey 0,    !- OutputVariable or OutputMeter Index Key Name
    Zone Mean Air Temperature;    !- OutputVariable or OutputMeter Name

ENERGYMANAGEMENTSYSTEM:SENSOR,
    T2,                       !- Name
    Block Build2_Alt0 Storey 0,    !- OutputVariable or OutputMeter Index Key Name
    Zone Mean Air Temperature;    !- OutputVariable or OutputMeter Name

ENERGYMANAGEMENTSYSTEM:SENSOR,
    Pow0,                     !- Name
    Block Build0_Alt0 Storey 0 IDEAL LOADS AIR SYSTEM,    !- OutputVariable or OutputMeter Index Key Name
    Zone Ideal Loads Supply Air Total Heating Rate;    !- OutputVariable or OutputMeter Name

ENERGYMANAGEMENTSYSTEM:SENSOR,
    Pow1,                     !- Name
    Block Build1_Alt0 Storey 0 IDEAL LOADS AIR SYSTEM,    !- OutputVariable or OutputMeter Index Key Name
    Zone Ideal Loads Supply Air Total Heating Rate;    !- OutputVariable or OutputMeter Name

ENERGYMANAGEMENTSYSTEM:SENSOR,
    Pow2,                     !- Name
    Block Build2_Alt0 Storey 0 IDEAL LOADS AIR SYSTEM,    !- OutputVariable or OutputMeter Index Key Name
    Zone Ideal Loads Supply Air Total Heating Rate;    !- OutputVariable or OutputMeter Name

ENERGYMANAGEMENTSYSTEM:SENSOR,
    DHWPow,                   !- Name
    DHW,                      !- OutputVariable or OutputMeter Index Key Name
    Water Use Equipment Heating Rate;    !- OutputVariable or OutputMeter Name

ENERGYMANAGEMENTSYSTEM:PROGRAMCALLINGMANAGER,
    Average Building Temperature,    !- Name
    EndOfZoneTimestepBeforeZoneReporting,    !- EnergyPlus Model Calling Point
    AverageZoneTemps;         !- Program Name 1

ENERGYMANAGEMENTSYSTEM:PROGRAMCALLINGMANAGER,
    Compute Total Building Heat Pow,    !- Name
    EndOfZoneTimestepBeforeZoneReporting,    !- EnergyPlus Model Calling Point
    TotZonePow;               !- Program Name 1

ENERGYMANAGEMENTSYSTEM:PROGRAMCALLINGMANAGER,
    Compute Total DHW Heat Pow,    !- Name
    EndOfZoneTimestepBeforeZoneReporting,    !- EnergyPlus Model Calling Point
    prgmDHWPow;               !- Program Name 1

ENERGYMANAGEMENTSYSTEM:PROGRAM,
    AverageZoneTemps,         !- Name
    SET SumNumerator = T0*Vol0+T1*Vol1+T2*Vol2,    !- Program Line 1
    SET SumDenominator  = Vol0+Vol1+Vol2,    !- Program Line 2
    SET AverageBuildingTemp  = SumNumerator / SumDenominator;    !- Program Line 3

ENERGYMANAGEMENTSYSTEM:PROGRAM,
    TotZonePow,               !- Name
    SET TotBuildPow = Pow0+Pow1+Pow2;    !- Program Line 1

ENERGYMANAGEMENTSYSTEM:PROGRAM,
    prgmDHWPow,               !- Name
    SET TotDHWPow = DHWPow;    !- Program Line 1

ENERGYMANAGEMENTSYSTEM:GLOBALVARIABLE,
    AverageBuildingTemp;      !- Erl Variable 1 Name

ENERGYMANAGEMENTSYSTEM:GLOBALVARIABLE,
    TotBuildPow;              !- Erl Variable 1 Name

ENERGYMANAGEMENTSYSTEM:GLOBALVARIABLE,
    TotDHWPow;                !- Erl Variable 1 Name

ENERGYMANAGEMENTSYSTEM:OUTPUTVARIABLE,
    Mean Heated Zones Air Temperature,    !- Name
    AverageBuildingTemp,      !- EMS Variable Name
    Averaged,                 !- Type of Data in Variable
    ZoneTimeStep;             !- Update Frequency

ENERGYMANAGEMENTSYSTEM:OUTPUTVARIABLE,
    Total Building Heating Power,    !- Name
    TotBuildPow,              !- EMS Variable Name
    Averaged,                 !- Type of Data in Variable
    ZoneTimeStep;             !- Update Frequency

ENERGYMANAGEMENTSYSTEM:OUTPUTVARIABLE,
    Total DHW Heating Power,    !- Name
    TotDHWPow,                !- EMS Variable Name
    Averaged,                 !- Type of Data in Variable
    ZoneTimeStep;             !- Update Frequency

ENERGYMANAGEMENTSYSTEM:INTERNALVARIABLE,
    Vol0,                     !- Name
    Block Build0_Alt0 Storey 0,    !- Internal Data Index Key Name
    Zone Air Volume;          !- Internal Data Type

ENERGYMANAGEMENTSYSTEM:INTERNALVARIABLE,
    Vol1,                     !- Name
    Block Build1_Alt0 Storey 0,    !- Internal Data Index Key Name
    Zone Air Volume;          !- Internal Data Type

ENERGYMANAGEMENTSYSTEM:INTERNALVARIABLE,
    Vol2,                     !- Name
    Block Build2_Alt0 Storey 0,    !- Internal Data Index Key Name
    Zone Air Volume;          !- Internal Data Type

WATERUSE:EQUIPMENT,
    DHW,                      !- Name
    General,                  !- EndUse Subcategory
    2.028701e-08,             !- Peak Flow Rate
    WaterTaps,                !- Flow Rate Fraction Schedule Name
    TargetWaterTemp,          !- Target Temperature Schedule Name
    HotWaterTemp,             !- Hot Water Supply Temperature Schedule Name
    ColdWaterTemp;            !- Cold Water Supply Temperature Schedule Name

Output:VariableDictionary,
    Regular;                  !- Key Field

OUTPUT:ENERGYMANAGEMENTSYSTEM,
    Verbose,                  !- Actuator Availability Dictionary Reporting
    Verbose,                  !- Internal Variable Availability Dictionary Reporting
    Verbose;                  !- EMS Runtime Language Debug Output Level

Output:Table:SummaryReports,
    AllSummary;               !- Report 1 Name

OutputControl:Table:Style,
    HTML;                     !- Column Separator

OUTPUT:VARIABLE,
    *,                        !- Key Value
    Site Outdoor Air Drybulb Temperature,    !- Variable Name
    Hourly;                   !- Reporting Frequency

OUTPUT:VARIABLE,
    *,                        !- Key Value
    Site Outdoor Air Relative Humidity,    !- Variable Name
    Hourly;                   !- Reporting Frequency

OUTPUT:VARIABLE,
    *,                        !- Key Value
    Site Outdoor Air Barometric Pressure,    !- Variable Name
    Hourly;                   !- Reporting Frequency

OUTPUT:VARIABLE,
    *,                        !- Key Value
    Site Wind Speed,          !- Variable Name
    Hourly;                   !- Reporting Frequency

OUTPUT:VARIABLE,
    *,                        !- Key Value
    Site Diffuse Solar Radiation Rate per Area,    !- Variable Name
    Hourly;                   !- Reporting Frequency

OUTPUT:VARIABLE,
    *,                        !- Key Value
    Site Direct Solar Radiation Rate per Area,    !- Variable Name
    Hourly;                   !- Reporting Frequency

OUTPUT:VARIABLE,
    *,                        !- Key Value
    Zone Electric Equipment Electric Power,    !- Variable Name
    Hourly;                   !- Reporting Frequency

OUTPUT:VARIABLE,
    *,                        !- Key Value
    Zone Electric Equipment Total Heating Rate,    !- Variable Name
    Hourly;                   !- Reporting Frequency

OUTPUT:VARIABLE,
    *,                        !- Key Value
    Surface Outside Face Incident Solar Radiation Rate per Area,    !- Variable Name
    Hourly;                   !- Reporting Frequency

OUTPUT:VARIABLE,
    *,                        !- Key Value
    Surface Outside Face Incident Beam Solar Radiation Rate per Area,    !- Variable Name
    Hourly;                   !- Reporting Frequency

OUTPUT:VARIABLE,
    *,                        !- Key Value
    Zone Ideal Loads Supply Air Total Heating Rate,    !- Variable Name
    Hourly;                   !- Reporting Frequency

OUTPUT:VARIABLE,
    *,                        !- Key Value
    Water Use Equipment Hot Water Mass Flow Rate,    !- Variable Name
    Hourly;                   !- Reporting Frequency

OUTPUT:VARIABLE,
    *,                        !- Key Value
    Water Use Equipment Cold Water Mass Flow Rate,    !- Variable Name
    Hourly;                   !- Reporting Frequency

OUTPUT:VARIABLE,
    *,                        !- Key Value
    Water Use Equipment Hot Water Temperature,    !- Variable Name
    Hourly;                   !- Reporting Frequency

OUTPUT:VARIABLE,
    *,                        !- Key Value
    Water Use Equipment Cold Water Temperature,    !- Variable Name
    Hourly;                   !- Reporting Frequency

OUTPUT:VARIABLE,
    *,                        !- Key Value
    Water Use Equipment Heating Rate,    !- Variable Name
    Hourly;                   !- Reporting Frequency

OUTPUT:VARIABLE,
    *,                        !- Key Value
    Mean Heated Zones Air Temperature,    !- Variable Name
    Hourly;                   !- Reporting Frequency

OUTPUT:VARIABLE,
    *,                        !- Key Value
    Total Building Heating Power,    !- Variable Name
    Hourly;                   !- Reporting Frequency

OUTPUT:VARIABLE,
    *,                        !- Key Value
    Total DHW Heating Power,    !- Variable Name
    Hourly;                   !- Reporting Frequency

OUTPUT:DIAGNOSTICS,
    DISPLAYEXTRAWARNINGS,     !- Key 1
    DisplayAdvancedReportVariables;    !- Key 2