!- Darwin Line endings 

Version,
    9.5;                      !- Version Identifier

SimulationControl,
    No,                       !- Do Zone Sizing Calculation
    No,                       !- Do System Sizing Calculation
    No,                       !- Do Plant Sizing Calculation
    No,                       !- Run Simulation for Sizing Periods
    Yes,                      !- Run Simulation for Weather File Run Periods
    No,                       !- Do HVAC Sizing Simulation for Sizing Periods
    1;                        !- Maximum Number of HVAC Sizing Simulation Passes

Building,
    None,                     !- Name
    0,                        !- North Axis
    Suburbs,                  !- Terrain
    0.04,                     !- Loads Convergence Tolerance Value
    0.4,                      !- Temperature Convergence Tolerance Value
    FullExterior,             !- Solar Distribution
    25,                       !- Maximum Number of Warmup Days
    6;                        !- Minimum Number of Warmup Days

SHADOWCALCULATION,
    PolygonClipping,          !- Shading Calculation Method
    Periodic,                 !- Shading Calculation Update Frequency Method
    20,                       !- Shading Calculation Update Frequency
    25000,                    !- Maximum Figures in Shadow Overlap Calculations
    SutherlandHodgman,        !- Polygon Clipping Algorithm
    512,                      !- Pixel Counting Resolution
    SimpleSkyDiffuseModeling,    !- Sky Diffuse Modeling Algorithm
    No,                       !- Output External Shading Calculation Results
    No,                       !- Disable SelfShading Within Shading Zone Groups
    No;                       !- Disable SelfShading From Shading Zone Groups to Other Zones

Timestep,
    4;                        !- Number of Timesteps per Hour

Site:Location,
    WeatherData/USA_CA_San.Francisco.Intl.AP.724940_TMY3.epw,    !- Name
    37.62,                    !- Latitude
    -122.4,                   !- Longitude
    -8,                       !- Time Zone
    2;                        !- Elevation

SizingPeriod:DesignDay,
    DENVER_STAPLETON Ann Htg 99.6% Condns DB,    !- Name
    12,                       !- Month
    21,                       !- Day of Month
    WinterDesignDay,          !- Day Type
    -20,                      !- Maximum DryBulb Temperature
    0,                        !- Daily DryBulb Temperature Range
    ,                         !- DryBulb Temperature Range Modifier Type
    ,                         !- DryBulb Temperature Range Modifier Day Schedule Name
    Wetbulb,                  !- Humidity Condition Type
    -20,                      !- Wetbulb or DewPoint at Maximum DryBulb
    ,                         !- Humidity Condition Day Schedule Name
    ,                         !- Humidity Ratio at Maximum DryBulb
    ,                         !- Enthalpy at Maximum DryBulb
    ,                         !- Daily WetBulb Temperature Range
    100594,                   !- Barometric Pressure
    2.3,                      !- Wind Speed
    180,                      !- Wind Direction
    No,                       !- Rain Indicator
    No,                       !- Snow Indicator
    No,                       !- Daylight Saving Time Indicator
    ASHRAEClearSky,           !- Solar Model Indicator
    ,                         !- Beam Solar Day Schedule Name
    ,                         !- Diffuse Solar Day Schedule Name
    ,                         !- ASHRAE Clear Sky Optical Depth for Beam Irradiance taub
    ,                         !- ASHRAE Clear Sky Optical Depth for Diffuse Irradiance taud
    0;                        !- Sky Clearness

SizingPeriod:DesignDay,
    DENVER_STAPLETON Ann Clg .4% Condns DB=>MWB,    !- Name
    7,                        !- Month
    21,                       !- Day of Month
    SummerDesignDay,          !- Day Type
    34.1,                     !- Maximum DryBulb Temperature
    15.2,                     !- Daily DryBulb Temperature Range
    ,                         !- DryBulb Temperature Range Modifier Type
    ,                         !- DryBulb Temperature Range Modifier Day Schedule Name
    Wetbulb,                  !- Humidity Condition Type
    15.8,                     !- Wetbulb or DewPoint at Maximum DryBulb
    ,                         !- Humidity Condition Day Schedule Name
    ,                         !- Humidity Ratio at Maximum DryBulb
    ,                         !- Enthalpy at Maximum DryBulb
    ,                         !- Daily WetBulb Temperature Range
    100594,                   !- Barometric Pressure
    4,                        !- Wind Speed
    120,                      !- Wind Direction
    No,                       !- Rain Indicator
    No,                       !- Snow Indicator
    No,                       !- Daylight Saving Time Indicator
    ASHRAEClearSky,           !- Solar Model Indicator
    ,                         !- Beam Solar Day Schedule Name
    ,                         !- Diffuse Solar Day Schedule Name
    ,                         !- ASHRAE Clear Sky Optical Depth for Beam Irradiance taub
    ,                         !- ASHRAE Clear Sky Optical Depth for Diffuse Irradiance taud
    1;                        !- Sky Clearness

RunPeriod,
    Run Period 1,             !- Name
    1,                        !- Begin Month
    1,                        !- Begin Day of Month
    ,                         !- Begin Year
    12,                       !- End Month
    31,                       !- End Day of Month
    ,                         !- End Year
    Tuesday,                  !- Day of Week for Start Day
    Yes,                      !- Use Weather File Holidays and Special Days
    Yes,                      !- Use Weather File Daylight Saving Period
    No,                       !- Apply Weekend Holiday Rule
    Yes,                      !- Use Weather File Rain Indicators
    Yes;                      !- Use Weather File Snow Indicators

SITE:GROUNDTEMPERATURE:BUILDINGSURFACE,
    15,                       !- January Ground Temperature
    15,                       !- February Ground Temperature
    15,                       !- March Ground Temperature
    15,                       !- April Ground Temperature
    15,                       !- May Ground Temperature
    15,                       !- June Ground Temperature
    15,                       !- July Ground Temperature
    15,                       !- August Ground Temperature
    15,                       !- September Ground Temperature
    15,                       !- October Ground Temperature
    15,                       !- November Ground Temperature
    15;                       !- December Ground Temperature

SCHEDULETYPELIMITS,
    Any Number,               !- Name
    ,                         !- Lower Limit Value
    ,                         !- Upper Limit Value
    ,                         !- Numeric Type
    Dimensionless;            !- Unit Type

SCHEDULE:COMPACT,
    AlwaysON,                 !- Name
    Any Number,               !- Schedule Type Limits Name
    Through: 12/31,           !- Field 1
    For: AllDays,             !- Field 2
    Until: 24:00,             !- Field 3
    1;                        !- Field 4

SCHEDULE:COMPACT,
    OccupActivity,            !- Name
    Any Number,               !- Schedule Type Limits Name
    Through: 12/31,           !- Field 1
    For: AllDays,             !- Field 2
    Until: 24:00,             !- Field 3
    70;                       !- Field 4

SCHEDULE:COMPACT,
    HotWaterTemp,             !- Name
    Any Number,               !- Schedule Type Limits Name
    Through: 12/31,           !- Field 1
    For: AllDays,             !- Field 2
    Until: 24:00,             !- Field 3
    55;                       !- Field 4

SCHEDULE:COMPACT,
    TargetWaterTemp,          !- Name
    Any Number,               !- Schedule Type Limits Name
    Through: 12/31,           !- Field 1
    For: AllDays,             !- Field 2
    Until: 24:00,             !- Field 3
    37;                       !- Field 4

SCHEDULE:FILE,
    LoadSchedule,             !- Name
    Any Number,               !- Schedule Type Limits Name
    /Users/alizad/PycharmProjects/mubes-ubem/examples/ForTest/InputFiles/Building13_winter.txt,    !- File Name
    1,                        !- Column Number
    0,                        !- Rows to Skip at Top
    8760,                     !- Number of Hours of Data
    Comma,                    !- Column Separator
    No;                       !- Interpolate to Timestep

SCHEDULE:FILE,
    Watertaps,                !- Name
    Any Number,               !- Schedule Type Limits Name
    /Users/alizad/PycharmProjects/mubes-ubem/examples/ForTest/InputFiles/domestic_hot_water_40_apartments.txt,    !- File Name
    1,                        !- Column Number
    0,                        !- Rows to Skip at Top
    8760,                     !- Number of Hours of Data
    Comma,                    !- Column Separator
    No;                       !- Interpolate to Timestep

SCHEDULE:FILE,
    ColdWaterTemp,            !- Name
    Any Number,               !- Schedule Type Limits Name
    /Users/alizad/PycharmProjects/mubes-ubem/examples/ForTest/InputFiles/cold_water_temperature_stockholm.txt,    !- File Name
    1,                        !- Column Number
    0,                        !- Rows to Skip at Top
    8760,                     !- Number of Hours of Data
    Comma,                    !- Column Separator
    No;                       !- Interpolate to Timestep

MATERIAL,
    DefaultMaterial,          !- Name
    Rough,                    !- Roughness
    0.1,                      !- Thickness
    0.1,                      !- Conductivity
    1000,                     !- Density
    1000,                     !- Specific Heat
    0.9,                      !- Thermal Absorptance
    0.7,                      !- Solar Absorptance
    0.7;                      !- Visible Absorptance

MATERIAL,
    Basement Floor,           !- Name
    Rough,                    !- Roughness
    0.1,                      !- Thickness
    0.9,                      !- Conductivity
    2300,                     !- Density
    1000,                     !- Specific Heat
    0.9,                      !- Thermal Absorptance
    0.7,                      !- Solar Absorptance
    0.7;                      !- Visible Absorptance

MATERIAL,
    Heated1rstFloor Inertia,    !- Name
    Rough,                    !- Roughness
    0.1,                      !- Thickness
    0.9,                      !- Conductivity
    2300,                     !- Density
    1000,                     !- Specific Heat
    0.9,                      !- Thermal Absorptance
    0.7,                      !- Solar Absorptance
    0.7;                      !- Visible Absorptance

MATERIAL,
    Heated1rstFloor Insulation,    !- Name
    Rough,                    !- Roughness
    0.15,                     !- Thickness
    0.035,                    !- Conductivity
    150,                      !- Density
    1000,                     !- Specific Heat
    0.9,                      !- Thermal Absorptance
    0.7,                      !- Solar Absorptance
    0.7;                      !- Visible Absorptance

MATERIAL,
    Roof Insulation,          !- Name
    Rough,                    !- Roughness
    0.3,                      !- Thickness
    0.03,                     !- Conductivity
    150,                      !- Density
    1000,                     !- Specific Heat
    0.9,                      !- Thermal Absorptance
    0.7,                      !- Solar Absorptance
    0.7;                      !- Visible Absorptance

MATERIAL,
    Wall Inertia,             !- Name
    Rough,                    !- Roughness
    0.2,                      !- Thickness
    0.9,                      !- Conductivity
    2300,                     !- Density
    1000,                     !- Specific Heat
    0.9,                      !- Thermal Absorptance
    0.7,                      !- Solar Absorptance
    0.7;                      !- Visible Absorptance

MATERIAL,
    Wall Insulation,          !- Name
    Rough,                    !- Roughness
    0.2,                      !- Thickness
    0.03,                     !- Conductivity
    150,                      !- Density
    1000,                     !- Specific Heat
    0.9,                      !- Thermal Absorptance
    0.7,                      !- Solar Absorptance
    0.7;                      !- Visible Absorptance

MATERIAL,
    HeatedZoneIntMass,        !- Name
    Rough,                    !- Roughness
    0.1,                      !- Thickness
    0.3,                      !- Conductivity
    600,                      !- Density
    1400,                     !- Specific Heat
    0.9,                      !- Thermal Absorptance
    0.7,                      !- Solar Absorptance
    0.7;                      !- Visible Absorptance

MATERIAL,
    NonHeatedZoneIntMass,     !- Name
    Rough,                    !- Roughness
    0.1,                      !- Thickness
    0.3,                      !- Conductivity
    600,                      !- Density
    1400,                     !- Specific Heat
    0.9,                      !- Thermal Absorptance
    0.7,                      !- Solar Absorptance
    0.7;                      !- Visible Absorptance

MATERIAL,
    AirWallMaterial,          !- Name
    MediumSmooth,             !- Roughness
    0.01,                     !- Thickness
    0.6,                      !- Conductivity
    800,                      !- Density
    1000,                     !- Specific Heat
    0.95,                     !- Thermal Absorptance
    0.7,                      !- Solar Absorptance
    0.7;                      !- Visible Absorptance

WINDOWMATERIAL:SIMPLEGLAZINGSYSTEM,
    DefaultGlazing,           !- Name
    2.7,                      !- UFactor
    0.763,                    !- Solar Heat Gain Coefficient
    0.8;                      !- Visible Transmittance

WINDOWMATERIAL:SIMPLEGLAZINGSYSTEM,
    Window,                   !- Name
    1.9,                      !- UFactor
    0.7,                      !- Solar Heat Gain Coefficient
    0.8;                      !- Visible Transmittance

CONSTRUCTION,
    Project Wall,             !- Name
    Wall Inertia,             !- Outside Layer
    Wall Insulation;          !- Layer 2

CONSTRUCTION,
    Project Basement Wall,    !- Name
    Wall Inertia;             !- Outside Layer

CONSTRUCTION,
    Project Partition,        !- Name
    AirWallMaterial;          !- Outside Layer

CONSTRUCTION,
    Project Basement Floor,    !- Name
    Basement Floor;           !- Outside Layer

CONSTRUCTION,
    Project Flat Roof,        !- Name
    Roof Insulation;          !- Outside Layer

CONSTRUCTION,
    Project External Window,    !- Name
    Window;                   !- Outside Layer

CONSTRUCTION,
    Project Heated1rstFloor,    !- Name
    Heated1rstFloor Inertia,    !- Outside Layer
    Heated1rstFloor Insulation;    !- Layer 2

CONSTRUCTION,
    Project Heated1rstFloor Rev,    !- Name
    Heated1rstFloor Insulation,    !- Outside Layer
    Heated1rstFloor Inertia;    !- Layer 2

CONSTRUCTION,
    HeatedZoneIntMassObj,     !- Name
    HeatedZoneIntMass;        !- Outside Layer

CONSTRUCTION,
    NonHeatedZoneIntMassObj,    !- Name
    NonHeatedZoneIntMass;     !- Outside Layer

GlobalGeometryRules,
    UpperLeftCorner,          !- Starting Vertex Position
    CounterClockWise,         !- Vertex Entry Direction
    World;                    !- Coordinate System

ZONE,
    Block Build0_Alt0 Storey -1,    !- Name
    0,                        !- Direction of Relative North
    0,                        !- X Origin
    0,                        !- Y Origin
    0,                        !- Z Origin
    1,                        !- Type
    1,                        !- Multiplier
    autocalculate,            !- Ceiling Height
    autocalculate,            !- Volume
    autocalculate,            !- Floor Area
    ,                         !- Zone Inside Convection Algorithm
    ,                         !- Zone Outside Convection Algorithm
    Yes;                      !- Part of Total Floor Area

ZONE,
    Block Build0_Alt0 Storey 0,    !- Name
    0,                        !- Direction of Relative North
    0,                        !- X Origin
    0,                        !- Y Origin
    0,                        !- Z Origin
    1,                        !- Type
    1,                        !- Multiplier
    autocalculate,            !- Ceiling Height
    autocalculate,            !- Volume
    autocalculate,            !- Floor Area
    ,                         !- Zone Inside Convection Algorithm
    ,                         !- Zone Outside Convection Algorithm
    Yes;                      !- Part of Total Floor Area

ZONE,
    Block Build1_Alt0 Storey -1,    !- Name
    0,                        !- Direction of Relative North
    0,                        !- X Origin
    0,                        !- Y Origin
    0,                        !- Z Origin
    1,                        !- Type
    1,                        !- Multiplier
    autocalculate,            !- Ceiling Height
    autocalculate,            !- Volume
    autocalculate,            !- Floor Area
    ,                         !- Zone Inside Convection Algorithm
    ,                         !- Zone Outside Convection Algorithm
    Yes;                      !- Part of Total Floor Area

ZONE,
    Block Build1_Alt0 Storey 0,    !- Name
    0,                        !- Direction of Relative North
    0,                        !- X Origin
    0,                        !- Y Origin
    0,                        !- Z Origin
    1,                        !- Type
    1,                        !- Multiplier
    autocalculate,            !- Ceiling Height
    autocalculate,            !- Volume
    autocalculate,            !- Floor Area
    ,                         !- Zone Inside Convection Algorithm
    ,                         !- Zone Outside Convection Algorithm
    Yes;                      !- Part of Total Floor Area

BUILDINGSURFACE:DETAILED,
    Block Build0_Alt0 Storey -1 Wall 0002,    !- Name
    wall,                     !- Surface Type
    Project Basement Wall,    !- Construction Name
    Block Build0_Alt0 Storey -1,    !- Zone Name
    ground,                   !- Outside Boundary Condition
    ,                         !- Outside Boundary Condition Object
    NoSun,                    !- Sun Exposure
    NoWind,                   !- Wind Exposure
    autocalculate,            !- View Factor to Ground
    autocalculate,            !- Number of Vertices
    7.7444,                   !- Vertex 1 Xcoordinate
    -0.5864,                  !- Vertex 1 Ycoordinate
    0,                        !- Vertex 1 Zcoordinate
    7.7444,                   !- Vertex 2 Xcoordinate
    -0.5864,                  !- Vertex 2 Ycoordinate
    -2.5,                     !- Vertex 2 Zcoordinate
    15.1429,                  !- Vertex 3 Xcoordinate
    5.7973,                   !- Vertex 3 Ycoordinate
    -2.5,                     !- Vertex 3 Zcoordinate
    15.1429,                  !- Vertex 4 Xcoordinate
    5.7973,                   !- Vertex 4 Ycoordinate
    0;                        !- Vertex 4 Zcoordinate

BUILDINGSURFACE:DETAILED,
    Block Build0_Alt0 Storey -1 Wall 0003,    !- Name
    wall,                     !- Surface Type
    Project Basement Wall,    !- Construction Name
    Block Build0_Alt0 Storey -1,    !- Zone Name
    ground,                   !- Outside Boundary Condition
    ,                         !- Outside Boundary Condition Object
    NoSun,                    !- Sun Exposure
    NoWind,                   !- Wind Exposure
    autocalculate,            !- View Factor to Ground
    autocalculate,            !- Number of Vertices
    15.1429,                  !- Vertex 1 Xcoordinate
    5.7973,                   !- Vertex 1 Ycoordinate
    0,                        !- Vertex 1 Zcoordinate
    15.1429,                  !- Vertex 2 Xcoordinate
    5.7973,                   !- Vertex 2 Ycoordinate
    -2.5,                     !- Vertex 2 Zcoordinate
    21.2999,                  !- Vertex 3 Xcoordinate
    -1.3347,                  !- Vertex 3 Ycoordinate
    -2.5,                     !- Vertex 3 Zcoordinate
    21.2999,                  !- Vertex 4 Xcoordinate
    -1.3347,                  !- Vertex 4 Ycoordinate
    0;                        !- Vertex 4 Zcoordinate

BUILDINGSURFACE:DETAILED,
    Block Build0_Alt0 Storey -1 Wall 0004,    !- Name
    wall,                     !- Surface Type
    Project Basement Wall,    !- Construction Name
    Block Build0_Alt0 Storey -1,    !- Zone Name
    ground,                   !- Outside Boundary Condition
    ,                         !- Outside Boundary Condition Object
    NoSun,                    !- Sun Exposure
    NoWind,                   !- Wind Exposure
    autocalculate,            !- View Factor to Ground
    autocalculate,            !- Number of Vertices
    21.2999,                  !- Vertex 1 Xcoordinate
    -1.3347,                  !- Vertex 1 Ycoordinate
    0,                        !- Vertex 1 Zcoordinate
    21.2999,                  !- Vertex 2 Xcoordinate
    -1.3347,                  !- Vertex 2 Ycoordinate
    -2.5,                     !- Vertex 2 Zcoordinate
    28.9379,                  !- Vertex 3 Xcoordinate
    5.2433,                   !- Vertex 3 Ycoordinate
    -2.5,                     !- Vertex 3 Zcoordinate
    28.9379,                  !- Vertex 4 Xcoordinate
    5.2433,                   !- Vertex 4 Ycoordinate
    0;                        !- Vertex 4 Zcoordinate

BUILDINGSURFACE:DETAILED,
    Block Build0_Alt0 Storey -1 Wall 0005,    !- Name
    wall,                     !- Surface Type
    Project Basement Wall,    !- Construction Name
    Block Build0_Alt0 Storey -1,    !- Zone Name
    ground,                   !- Outside Boundary Condition
    ,                         !- Outside Boundary Condition Object
    NoSun,                    !- Sun Exposure
    NoWind,                   !- Wind Exposure
    autocalculate,            !- View Factor to Ground
    autocalculate,            !- Number of Vertices
    28.9379,                  !- Vertex 1 Xcoordinate
    5.2433,                   !- Vertex 1 Ycoordinate
    0,                        !- Vertex 1 Zcoordinate
    28.9379,                  !- Vertex 2 Xcoordinate
    5.2433,                   !- Vertex 2 Ycoordinate
    -2.5,                     !- Vertex 2 Zcoordinate
    23.1239,                  !- Vertex 3 Xcoordinate
    11.9973,                  !- Vertex 3 Ycoordinate
    -2.5,                     !- Vertex 3 Zcoordinate
    23.1239,                  !- Vertex 4 Xcoordinate
    11.9973,                  !- Vertex 4 Ycoordinate
    0;                        !- Vertex 4 Zcoordinate

BUILDINGSURFACE:DETAILED,
    Block Build0_Alt0 Storey -1 Wall 0006,    !- Name
    wall,                     !- Surface Type
    Project Basement Wall,    !- Construction Name
    Block Build0_Alt0 Storey -1,    !- Zone Name
    ground,                   !- Outside Boundary Condition
    ,                         !- Outside Boundary Condition Object
    NoSun,                    !- Sun Exposure
    NoWind,                   !- Wind Exposure
    autocalculate,            !- View Factor to Ground
    autocalculate,            !- Number of Vertices
    23.1239,                  !- Vertex 1 Xcoordinate
    11.9973,                  !- Vertex 1 Ycoordinate
    0,                        !- Vertex 1 Zcoordinate
    23.1239,                  !- Vertex 2 Xcoordinate
    11.9973,                  !- Vertex 2 Ycoordinate
    -2.5,                     !- Vertex 2 Zcoordinate
    26.9039,                  !- Vertex 3 Xcoordinate
    15.2893,                  !- Vertex 3 Ycoordinate
    -2.5,                     !- Vertex 3 Zcoordinate
    26.9039,                  !- Vertex 4 Xcoordinate
    15.2893,                  !- Vertex 4 Ycoordinate
    0;                        !- Vertex 4 Zcoordinate

BUILDINGSURFACE:DETAILED,
    Block Build0_Alt0 Storey -1 Wall 0007,    !- Name
    wall,                     !- Surface Type
    Project Basement Wall,    !- Construction Name
    Block Build0_Alt0 Storey -1,    !- Zone Name
    ground,                   !- Outside Boundary Condition
    ,                         !- Outside Boundary Condition Object
    NoSun,                    !- Sun Exposure
    NoWind,                   !- Wind Exposure
    autocalculate,            !- View Factor to Ground
    autocalculate,            !- Number of Vertices
    26.9039,                  !- Vertex 1 Xcoordinate
    15.2893,                  !- Vertex 1 Ycoordinate
    0,                        !- Vertex 1 Zcoordinate
    26.9039,                  !- Vertex 2 Xcoordinate
    15.2893,                  !- Vertex 2 Ycoordinate
    -2.5,                     !- Vertex 2 Zcoordinate
    20.3459,                  !- Vertex 3 Xcoordinate
    22.9513,                  !- Vertex 3 Ycoordinate
    -2.5,                     !- Vertex 3 Zcoordinate
    20.3459,                  !- Vertex 4 Xcoordinate
    22.9513,                  !- Vertex 4 Ycoordinate
    0;                        !- Vertex 4 Zcoordinate

BUILDINGSURFACE:DETAILED,
    Block Build0_Alt0 Storey -1 Wall 0008,    !- Name
    wall,                     !- Surface Type
    Project Basement Wall,    !- Construction Name
    Block Build0_Alt0 Storey -1,    !- Zone Name
    ground,                   !- Outside Boundary Condition
    ,                         !- Outside Boundary Condition Object
    NoSun,                    !- Sun Exposure
    NoWind,                   !- Wind Exposure
    autocalculate,            !- View Factor to Ground
    autocalculate,            !- Number of Vertices
    20.3459,                  !- Vertex 1 Xcoordinate
    22.9513,                  !- Vertex 1 Ycoordinate
    0,                        !- Vertex 1 Zcoordinate
    20.3459,                  !- Vertex 2 Xcoordinate
    22.9513,                  !- Vertex 2 Ycoordinate
    -2.5,                     !- Vertex 2 Zcoordinate
    16.5479,                  !- Vertex 3 Xcoordinate
    19.6593,                  !- Vertex 3 Ycoordinate
    -2.5,                     !- Vertex 3 Zcoordinate
    16.5479,                  !- Vertex 4 Xcoordinate
    19.6593,                  !- Vertex 4 Ycoordinate
    0;                        !- Vertex 4 Zcoordinate

BUILDINGSURFACE:DETAILED,
    Block Build0_Alt0 Storey -1 Wall 0009,    !- Name
    wall,                     !- Surface Type
    Project Basement Wall,    !- Construction Name
    Block Build0_Alt0 Storey -1,    !- Zone Name
    ground,                   !- Outside Boundary Condition
    ,                         !- Outside Boundary Condition Object
    NoSun,                    !- Sun Exposure
    NoWind,                   !- Wind Exposure
    autocalculate,            !- View Factor to Ground
    autocalculate,            !- Number of Vertices
    16.5479,                  !- Vertex 1 Xcoordinate
    19.6593,                  !- Vertex 1 Ycoordinate
    0,                        !- Vertex 1 Zcoordinate
    16.5479,                  !- Vertex 2 Xcoordinate
    19.6593,                  !- Vertex 2 Ycoordinate
    -2.5,                     !- Vertex 2 Zcoordinate
    10.7249,                  !- Vertex 3 Xcoordinate
    26.3863,                  !- Vertex 3 Ycoordinate
    -2.5,                     !- Vertex 3 Zcoordinate
    10.7249,                  !- Vertex 4 Xcoordinate
    26.3863,                  !- Vertex 4 Ycoordinate
    0;                        !- Vertex 4 Zcoordinate

BUILDINGSURFACE:DETAILED,
    Block Build0_Alt0 Storey -1 Wall 0010,    !- Name
    wall,                     !- Surface Type
    Project Basement Wall,    !- Construction Name
    Block Build0_Alt0 Storey -1,    !- Zone Name
    ground,                   !- Outside Boundary Condition
    ,                         !- Outside Boundary Condition Object
    NoSun,                    !- Sun Exposure
    NoWind,                   !- Wind Exposure
    autocalculate,            !- View Factor to Ground
    autocalculate,            !- Number of Vertices
    10.7249,                  !- Vertex 1 Xcoordinate
    26.3863,                  !- Vertex 1 Ycoordinate
    0,                        !- Vertex 1 Zcoordinate
    10.7249,                  !- Vertex 2 Xcoordinate
    26.3863,                  !- Vertex 2 Ycoordinate
    -2.5,                     !- Vertex 2 Zcoordinate
    3.1229,                   !- Vertex 3 Xcoordinate
    19.7213,                  !- Vertex 3 Ycoordinate
    -2.5,                     !- Vertex 3 Zcoordinate
    3.1229,                   !- Vertex 4 Xcoordinate
    19.7213,                  !- Vertex 4 Ycoordinate
    0;                        !- Vertex 4 Zcoordinate

BUILDINGSURFACE:DETAILED,
    Block Build0_Alt0 Storey -1 Wall 0011,    !- Name
    wall,                     !- Surface Type
    Project Basement Wall,    !- Construction Name
    Block Build0_Alt0 Storey -1,    !- Zone Name
    ground,                   !- Outside Boundary Condition
    ,                         !- Outside Boundary Condition Object
    NoSun,                    !- Sun Exposure
    NoWind,                   !- Wind Exposure
    autocalculate,            !- View Factor to Ground
    autocalculate,            !- Number of Vertices
    3.1229,                   !- Vertex 1 Xcoordinate
    19.7213,                  !- Vertex 1 Ycoordinate
    0,                        !- Vertex 1 Zcoordinate
    3.1229,                   !- Vertex 2 Xcoordinate
    19.7213,                  !- Vertex 2 Ycoordinate
    -2.5,                     !- Vertex 2 Zcoordinate
    9.4649,                   !- Vertex 3 Xcoordinate
    12.3983,                  !- Vertex 3 Ycoordinate
    -2.5,                     !- Vertex 3 Zcoordinate
    9.4649,                   !- Vertex 4 Xcoordinate
    12.3983,                  !- Vertex 4 Ycoordinate
    0;                        !- Vertex 4 Zcoordinate

BUILDINGSURFACE:DETAILED,
    Block Build0_Alt0 Storey -1 Wall 0012,    !- Name
    wall,                     !- Surface Type
    Project Basement Wall,    !- Construction Name
    Block Build0_Alt0 Storey -1,    !- Zone Name
    ground,                   !- Outside Boundary Condition
    ,                         !- Outside Boundary Condition Object
    NoSun,                    !- Sun Exposure
    NoWind,                   !- Wind Exposure
    autocalculate,            !- View Factor to Ground
    autocalculate,            !- Number of Vertices
    9.4649,                   !- Vertex 1 Xcoordinate
    12.3983,                  !- Vertex 1 Ycoordinate
    0,                        !- Vertex 1 Zcoordinate
    9.4649,                   !- Vertex 2 Xcoordinate
    12.3983,                  !- Vertex 2 Ycoordinate
    -2.5,                     !- Vertex 2 Zcoordinate
    1.9829,                   !- Vertex 3 Xcoordinate
    5.9528,                   !- Vertex 3 Ycoordinate
    -2.5,                     !- Vertex 3 Zcoordinate
    1.9829,                   !- Vertex 4 Xcoordinate
    5.9528,                   !- Vertex 4 Ycoordinate
    0;                        !- Vertex 4 Zcoordinate

BUILDINGSURFACE:DETAILED,
    Block Build0_Alt0 Storey -1 Floor 0001,    !- Name
    floor,                    !- Surface Type
    Project Basement Floor,    !- Construction Name
    Block Build0_Alt0 Storey -1,    !- Zone Name
    ground,                   !- Outside Boundary Condition
    ,                         !- Outside Boundary Condition Object
    NoSun,                    !- Sun Exposure
    NoWind,                   !- Wind Exposure
    autocalculate,            !- View Factor to Ground
    autocalculate,            !- Number of Vertices
    20.3459,                  !- Vertex 1 Xcoordinate
    22.9513,                  !- Vertex 1 Ycoordinate
    -2.5,                     !- Vertex 1 Zcoordinate
    26.9039,                  !- Vertex 2 Xcoordinate
    15.2893,                  !- Vertex 2 Ycoordinate
    -2.5,                     !- Vertex 2 Zcoordinate
    23.1239,                  !- Vertex 3 Xcoordinate
    11.9973,                  !- Vertex 3 Ycoordinate
    -2.5,                     !- Vertex 3 Zcoordinate
    28.9379,                  !- Vertex 4 Xcoordinate
    5.2433,                   !- Vertex 4 Ycoordinate
    -2.5,                     !- Vertex 4 Zcoordinate
    21.2999,                  !- Vertex 5 Xcoordinate
    -1.3347,                  !- Vertex 5 Ycoordinate
    -2.5,                     !- Vertex 5 Zcoordinate
    15.1429,                  !- Vertex 6 Xcoordinate
    5.7973,                   !- Vertex 6 Ycoordinate
    -2.5,                     !- Vertex 6 Zcoordinate
    7.7444,                   !- Vertex 7 Xcoordinate
    -0.5864,                  !- Vertex 7 Ycoordinate
    -2.5,                     !- Vertex 7 Zcoordinate
    1.9829,                   !- Vertex 8 Xcoordinate
    5.9528,                   !- Vertex 8 Ycoordinate
    -2.5,                     !- Vertex 8 Zcoordinate
    9.4649,                   !- Vertex 9 Xcoordinate
    12.3983,                  !- Vertex 9 Ycoordinate
    -2.5,                     !- Vertex 9 Zcoordinate
    3.1229,                   !- Vertex 10 Xcoordinate
    19.7213,                  !- Vertex 10 Ycoordinate
    -2.5,                     !- Vertex 10 Zcoordinate
    10.7249,                  !- Vertex 11 Xcoordinate
    26.3863,                  !- Vertex 11 Ycoordinate
    -2.5,                     !- Vertex 11 Zcoordinate
    16.5479,                  !- Vertex 12 Xcoordinate
    19.6593,                  !- Vertex 12 Ycoordinate
    -2.5;                     !- Vertex 12 Zcoordinate

BUILDINGSURFACE:DETAILED,
    Block Build0_Alt0 Storey 0 Wall 0002,    !- Name
    wall,                     !- Surface Type
    Project Wall,             !- Construction Name
    Block Build0_Alt0 Storey 0,    !- Zone Name
    outdoors,                 !- Outside Boundary Condition
    ,                         !- Outside Boundary Condition Object
    SunExposed,               !- Sun Exposure
    WindExposed,              !- Wind Exposure
    autocalculate,            !- View Factor to Ground
    autocalculate,            !- Number of Vertices
    7.7444,                   !- Vertex 1 Xcoordinate
    -0.5864,                  !- Vertex 1 Ycoordinate
    24,                       !- Vertex 1 Zcoordinate
    7.7444,                   !- Vertex 2 Xcoordinate
    -0.5864,                  !- Vertex 2 Ycoordinate
    0,                        !- Vertex 2 Zcoordinate
    15.1429,                  !- Vertex 3 Xcoordinate
    5.7973,                   !- Vertex 3 Ycoordinate
    0,                        !- Vertex 3 Zcoordinate
    15.1429,                  !- Vertex 4 Xcoordinate
    5.7973,                   !- Vertex 4 Ycoordinate
    24;                       !- Vertex 4 Zcoordinate

BUILDINGSURFACE:DETAILED,
    Block Build0_Alt0 Storey 0 Wall 0003,    !- Name
    wall,                     !- Surface Type
    Project Wall,             !- Construction Name
    Block Build0_Alt0 Storey 0,    !- Zone Name
    outdoors,                 !- Outside Boundary Condition
    ,                         !- Outside Boundary Condition Object
    SunExposed,               !- Sun Exposure
    WindExposed,              !- Wind Exposure
    autocalculate,            !- View Factor to Ground
    autocalculate,            !- Number of Vertices
    15.1429,                  !- Vertex 1 Xcoordinate
    5.7973,                   !- Vertex 1 Ycoordinate
    24,                       !- Vertex 1 Zcoordinate
    15.1429,                  !- Vertex 2 Xcoordinate
    5.7973,                   !- Vertex 2 Ycoordinate
    0,                        !- Vertex 2 Zcoordinate
    21.2999,                  !- Vertex 3 Xcoordinate
    -1.3347,                  !- Vertex 3 Ycoordinate
    0,                        !- Vertex 3 Zcoordinate
    21.2999,                  !- Vertex 4 Xcoordinate
    -1.3347,                  !- Vertex 4 Ycoordinate
    24;                       !- Vertex 4 Zcoordinate

BUILDINGSURFACE:DETAILED,
    Block Build0_Alt0 Storey 0 Wall 0004,    !- Name
    wall,                     !- Surface Type
    Project Wall,             !- Construction Name
    Block Build0_Alt0 Storey 0,    !- Zone Name
    outdoors,                 !- Outside Boundary Condition
    ,                         !- Outside Boundary Condition Object
    SunExposed,               !- Sun Exposure
    WindExposed,              !- Wind Exposure
    autocalculate,            !- View Factor to Ground
    autocalculate,            !- Number of Vertices
    21.2999,                  !- Vertex 1 Xcoordinate
    -1.3347,                  !- Vertex 1 Ycoordinate
    24,                       !- Vertex 1 Zcoordinate
    21.2999,                  !- Vertex 2 Xcoordinate
    -1.3347,                  !- Vertex 2 Ycoordinate
    0,                        !- Vertex 2 Zcoordinate
    28.9379,                  !- Vertex 3 Xcoordinate
    5.2433,                   !- Vertex 3 Ycoordinate
    0,                        !- Vertex 3 Zcoordinate
    28.9379,                  !- Vertex 4 Xcoordinate
    5.2433,                   !- Vertex 4 Ycoordinate
    24;                       !- Vertex 4 Zcoordinate

BUILDINGSURFACE:DETAILED,
    Block Build0_Alt0 Storey 0 Wall 0005,    !- Name
    wall,                     !- Surface Type
    Project Wall,             !- Construction Name
    Block Build0_Alt0 Storey 0,    !- Zone Name
    outdoors,                 !- Outside Boundary Condition
    ,                         !- Outside Boundary Condition Object
    SunExposed,               !- Sun Exposure
    WindExposed,              !- Wind Exposure
    autocalculate,            !- View Factor to Ground
    autocalculate,            !- Number of Vertices
    28.9379,                  !- Vertex 1 Xcoordinate
    5.2433,                   !- Vertex 1 Ycoordinate
    24,                       !- Vertex 1 Zcoordinate
    28.9379,                  !- Vertex 2 Xcoordinate
    5.2433,                   !- Vertex 2 Ycoordinate
    0,                        !- Vertex 2 Zcoordinate
    23.1239,                  !- Vertex 3 Xcoordinate
    11.9973,                  !- Vertex 3 Ycoordinate
    0,                        !- Vertex 3 Zcoordinate
    23.1239,                  !- Vertex 4 Xcoordinate
    11.9973,                  !- Vertex 4 Ycoordinate
    24;                       !- Vertex 4 Zcoordinate

BUILDINGSURFACE:DETAILED,
    Block Build0_Alt0 Storey 0 Wall 0006,    !- Name
    wall,                     !- Surface Type
    Project Wall,             !- Construction Name
    Block Build0_Alt0 Storey 0,    !- Zone Name
    outdoors,                 !- Outside Boundary Condition
    ,                         !- Outside Boundary Condition Object
    SunExposed,               !- Sun Exposure
    WindExposed,              !- Wind Exposure
    autocalculate,            !- View Factor to Ground
    autocalculate,            !- Number of Vertices
    23.1239,                  !- Vertex 1 Xcoordinate
    11.9973,                  !- Vertex 1 Ycoordinate
    24,                       !- Vertex 1 Zcoordinate
    23.1239,                  !- Vertex 2 Xcoordinate
    11.9973,                  !- Vertex 2 Ycoordinate
    0,                        !- Vertex 2 Zcoordinate
    26.9039,                  !- Vertex 3 Xcoordinate
    15.2893,                  !- Vertex 3 Ycoordinate
    0,                        !- Vertex 3 Zcoordinate
    26.9039,                  !- Vertex 4 Xcoordinate
    15.2893,                  !- Vertex 4 Ycoordinate
    24;                       !- Vertex 4 Zcoordinate

BUILDINGSURFACE:DETAILED,
    Block Build0_Alt0 Storey 0 Wall 0007,    !- Name
    wall,                     !- Surface Type
    Project Wall,             !- Construction Name
    Block Build0_Alt0 Storey 0,    !- Zone Name
    outdoors,                 !- Outside Boundary Condition
    ,                         !- Outside Boundary Condition Object
    SunExposed,               !- Sun Exposure
    WindExposed,              !- Wind Exposure
    autocalculate,            !- View Factor to Ground
    autocalculate,            !- Number of Vertices
    26.9039,                  !- Vertex 1 Xcoordinate
    15.2893,                  !- Vertex 1 Ycoordinate
    24,                       !- Vertex 1 Zcoordinate
    26.9039,                  !- Vertex 2 Xcoordinate
    15.2893,                  !- Vertex 2 Ycoordinate
    0,                        !- Vertex 2 Zcoordinate
    20.3459,                  !- Vertex 3 Xcoordinate
    22.9513,                  !- Vertex 3 Ycoordinate
    0,                        !- Vertex 3 Zcoordinate
    20.3459,                  !- Vertex 4 Xcoordinate
    22.9513,                  !- Vertex 4 Ycoordinate
    24;                       !- Vertex 4 Zcoordinate

BUILDINGSURFACE:DETAILED,
    Block Build0_Alt0 Storey 0 Wall 0008,    !- Name
    wall,                     !- Surface Type
    Project Wall,             !- Construction Name
    Block Build0_Alt0 Storey 0,    !- Zone Name
    outdoors,                 !- Outside Boundary Condition
    ,                         !- Outside Boundary Condition Object
    SunExposed,               !- Sun Exposure
    WindExposed,              !- Wind Exposure
    autocalculate,            !- View Factor to Ground
    autocalculate,            !- Number of Vertices
    20.3459,                  !- Vertex 1 Xcoordinate
    22.9513,                  !- Vertex 1 Ycoordinate
    24,                       !- Vertex 1 Zcoordinate
    20.3459,                  !- Vertex 2 Xcoordinate
    22.9513,                  !- Vertex 2 Ycoordinate
    0,                        !- Vertex 2 Zcoordinate
    16.5479,                  !- Vertex 3 Xcoordinate
    19.6593,                  !- Vertex 3 Ycoordinate
    0,                        !- Vertex 3 Zcoordinate
    16.5479,                  !- Vertex 4 Xcoordinate
    19.6593,                  !- Vertex 4 Ycoordinate
    24;                       !- Vertex 4 Zcoordinate

BUILDINGSURFACE:DETAILED,
    Block Build0_Alt0 Storey 0 Wall 0009,    !- Name
    wall,                     !- Surface Type
    Project Wall,             !- Construction Name
    Block Build0_Alt0 Storey 0,    !- Zone Name
    outdoors,                 !- Outside Boundary Condition
    ,                         !- Outside Boundary Condition Object
    SunExposed,               !- Sun Exposure
    WindExposed,              !- Wind Exposure
    autocalculate,            !- View Factor to Ground
    autocalculate,            !- Number of Vertices
    16.5479,                  !- Vertex 1 Xcoordinate
    19.6593,                  !- Vertex 1 Ycoordinate
    24,                       !- Vertex 1 Zcoordinate
    16.5479,                  !- Vertex 2 Xcoordinate
    19.6593,                  !- Vertex 2 Ycoordinate
    0,                        !- Vertex 2 Zcoordinate
    10.7249,                  !- Vertex 3 Xcoordinate
    26.3863,                  !- Vertex 3 Ycoordinate
    0,                        !- Vertex 3 Zcoordinate
    10.7249,                  !- Vertex 4 Xcoordinate
    26.3863,                  !- Vertex 4 Ycoordinate
    24;                       !- Vertex 4 Zcoordinate

BUILDINGSURFACE:DETAILED,
    Block Build0_Alt0 Storey 0 Wall 0010,    !- Name
    wall,                     !- Surface Type
    Project Wall,             !- Construction Name
    Block Build0_Alt0 Storey 0,    !- Zone Name
    outdoors,                 !- Outside Boundary Condition
    ,                         !- Outside Boundary Condition Object
    SunExposed,               !- Sun Exposure
    WindExposed,              !- Wind Exposure
    autocalculate,            !- View Factor to Ground
    autocalculate,            !- Number of Vertices
    10.7249,                  !- Vertex 1 Xcoordinate
    26.3863,                  !- Vertex 1 Ycoordinate
    24,                       !- Vertex 1 Zcoordinate
    10.7249,                  !- Vertex 2 Xcoordinate
    26.3863,                  !- Vertex 2 Ycoordinate
    0,                        !- Vertex 2 Zcoordinate
    3.1229,                   !- Vertex 3 Xcoordinate
    19.7213,                  !- Vertex 3 Ycoordinate
    0,                        !- Vertex 3 Zcoordinate
    3.1229,                   !- Vertex 4 Xcoordinate
    19.7213,                  !- Vertex 4 Ycoordinate
    24;                       !- Vertex 4 Zcoordinate

BUILDINGSURFACE:DETAILED,
    Block Build0_Alt0 Storey 0 Wall 0011,    !- Name
    wall,                     !- Surface Type
    Project Wall,             !- Construction Name
    Block Build0_Alt0 Storey 0,    !- Zone Name
    outdoors,                 !- Outside Boundary Condition
    ,                         !- Outside Boundary Condition Object
    SunExposed,               !- Sun Exposure
    WindExposed,              !- Wind Exposure
    autocalculate,            !- View Factor to Ground
    autocalculate,            !- Number of Vertices
    3.1229,                   !- Vertex 1 Xcoordinate
    19.7213,                  !- Vertex 1 Ycoordinate
    24,                       !- Vertex 1 Zcoordinate
    3.1229,                   !- Vertex 2 Xcoordinate
    19.7213,                  !- Vertex 2 Ycoordinate
    0,                        !- Vertex 2 Zcoordinate
    9.4649,                   !- Vertex 3 Xcoordinate
    12.3983,                  !- Vertex 3 Ycoordinate
    0,                        !- Vertex 3 Zcoordinate
    9.4649,                   !- Vertex 4 Xcoordinate
    12.3983,                  !- Vertex 4 Ycoordinate
    24;                       !- Vertex 4 Zcoordinate

BUILDINGSURFACE:DETAILED,
    Block Build0_Alt0 Storey 0 Wall 0012,    !- Name
    wall,                     !- Surface Type
    Project Wall,             !- Construction Name
    Block Build0_Alt0 Storey 0,    !- Zone Name
    outdoors,                 !- Outside Boundary Condition
    ,                         !- Outside Boundary Condition Object
    SunExposed,               !- Sun Exposure
    WindExposed,              !- Wind Exposure
    autocalculate,            !- View Factor to Ground
    autocalculate,            !- Number of Vertices
    9.4649,                   !- Vertex 1 Xcoordinate
    12.3983,                  !- Vertex 1 Ycoordinate
    24,                       !- Vertex 1 Zcoordinate
    9.4649,                   !- Vertex 2 Xcoordinate
    12.3983,                  !- Vertex 2 Ycoordinate
    0,                        !- Vertex 2 Zcoordinate
    1.9829,                   !- Vertex 3 Xcoordinate
    5.9528,                   !- Vertex 3 Ycoordinate
    0,                        !- Vertex 3 Zcoordinate
    1.9829,                   !- Vertex 4 Xcoordinate
    5.9528,                   !- Vertex 4 Ycoordinate
    24;                       !- Vertex 4 Zcoordinate

BUILDINGSURFACE:DETAILED,
    Block Build1_Alt0 Storey -1 Wall 0001,    !- Name
    wall,                     !- Surface Type
    Project Basement Wall,    !- Construction Name
    Block Build1_Alt0 Storey -1,    !- Zone Name
    ground,                   !- Outside Boundary Condition
    ,                         !- Outside Boundary Condition Object
    NoSun,                    !- Sun Exposure
    NoWind,                   !- Wind Exposure
    autocalculate,            !- View Factor to Ground
    autocalculate,            !- Number of Vertices
    1.9829,                   !- Vertex 1 Xcoordinate
    5.9528,                   !- Vertex 1 Ycoordinate
    0,                        !- Vertex 1 Zcoordinate
    1.9829,                   !- Vertex 2 Xcoordinate
    5.9528,                   !- Vertex 2 Ycoordinate
    -2.5,                     !- Vertex 2 Zcoordinate
    -3.1901,                  !- Vertex 3 Xcoordinate
    1.4963,                   !- Vertex 3 Ycoordinate
    -2.5,                     !- Vertex 3 Zcoordinate
    -3.1901,                  !- Vertex 4 Xcoordinate
    1.4963,                   !- Vertex 4 Ycoordinate
    0;                        !- Vertex 4 Zcoordinate

BUILDINGSURFACE:DETAILED,
    Block Build1_Alt0 Storey -1 Wall 0002,    !- Name
    wall,                     !- Surface Type
    Project Basement Wall,    !- Construction Name
    Block Build1_Alt0 Storey -1,    !- Zone Name
    ground,                   !- Outside Boundary Condition
    ,                         !- Outside Boundary Condition Object
    NoSun,                    !- Sun Exposure
    NoWind,                   !- Wind Exposure
    autocalculate,            !- View Factor to Ground
    autocalculate,            !- Number of Vertices
    -3.1901,                  !- Vertex 1 Xcoordinate
    1.4963,                   !- Vertex 1 Ycoordinate
    0,                        !- Vertex 1 Zcoordinate
    -3.1901,                  !- Vertex 2 Xcoordinate
    1.4963,                   !- Vertex 2 Ycoordinate
    -2.5,                     !- Vertex 2 Zcoordinate
    -10.6511,                 !- Vertex 3 Xcoordinate
    10.0973,                  !- Vertex 3 Ycoordinate
    -2.5,                     !- Vertex 3 Zcoordinate
    -10.6511,                 !- Vertex 4 Xcoordinate
    10.0973,                  !- Vertex 4 Ycoordinate
    0;                        !- Vertex 4 Zcoordinate

BUILDINGSURFACE:DETAILED,
    Block Build1_Alt0 Storey -1 Wall 0003,    !- Name
    wall,                     !- Surface Type
    Project Basement Wall,    !- Construction Name
    Block Build1_Alt0 Storey -1,    !- Zone Name
    ground,                   !- Outside Boundary Condition
    ,                         !- Outside Boundary Condition Object
    NoSun,                    !- Sun Exposure
    NoWind,                   !- Wind Exposure
    autocalculate,            !- View Factor to Ground
    autocalculate,            !- Number of Vertices
    -10.6511,                 !- Vertex 1 Xcoordinate
    10.0973,                  !- Vertex 1 Ycoordinate
    0,                        !- Vertex 1 Zcoordinate
    -10.6511,                 !- Vertex 2 Xcoordinate
    10.0973,                  !- Vertex 2 Ycoordinate
    -2.5,                     !- Vertex 2 Zcoordinate
    -18.2951,                 !- Vertex 3 Xcoordinate
    3.5263,                   !- Vertex 3 Ycoordinate
    -2.5,                     !- Vertex 3 Zcoordinate
    -18.2951,                 !- Vertex 4 Xcoordinate
    3.5263,                   !- Vertex 4 Ycoordinate
    0;                        !- Vertex 4 Zcoordinate

BUILDINGSURFACE:DETAILED,
    Block Build1_Alt0 Storey -1 Wall 0004,    !- Name
    wall,                     !- Surface Type
    Project Basement Wall,    !- Construction Name
    Block Build1_Alt0 Storey -1,    !- Zone Name
    ground,                   !- Outside Boundary Condition
    ,                         !- Outside Boundary Condition Object
    NoSun,                    !- Sun Exposure
    NoWind,                   !- Wind Exposure
    autocalculate,            !- View Factor to Ground
    autocalculate,            !- Number of Vertices
    -18.2951,                 !- Vertex 1 Xcoordinate
    3.5263,                   !- Vertex 1 Ycoordinate
    0,                        !- Vertex 1 Zcoordinate
    -18.2951,                 !- Vertex 2 Xcoordinate
    3.5263,                   !- Vertex 2 Ycoordinate
    -2.5,                     !- Vertex 2 Zcoordinate
    -13.7321,                 !- Vertex 3 Xcoordinate
    -1.8067,                  !- Vertex 3 Ycoordinate
    -2.5,                     !- Vertex 3 Zcoordinate
    -13.7321,                 !- Vertex 4 Xcoordinate
    -1.8067,                  !- Vertex 4 Ycoordinate
    0;                        !- Vertex 4 Zcoordinate

BUILDINGSURFACE:DETAILED,
    Block Build1_Alt0 Storey -1 Wall 0005,    !- Name
    wall,                     !- Surface Type
    Project Basement Wall,    !- Construction Name
    Block Build1_Alt0 Storey -1,    !- Zone Name
    ground,                   !- Outside Boundary Condition
    ,                         !- Outside Boundary Condition Object
    NoSun,                    !- Sun Exposure
    NoWind,                   !- Wind Exposure
    autocalculate,            !- View Factor to Ground
    autocalculate,            !- Number of Vertices
    -13.7321,                 !- Vertex 1 Xcoordinate
    -1.8067,                  !- Vertex 1 Ycoordinate
    0,                        !- Vertex 1 Zcoordinate
    -13.7321,                 !- Vertex 2 Xcoordinate
    -1.8067,                  !- Vertex 2 Ycoordinate
    -2.5,                     !- Vertex 2 Zcoordinate
    -16.7791,                 !- Vertex 3 Xcoordinate
    -4.4007,                  !- Vertex 3 Ycoordinate
    -2.5,                     !- Vertex 3 Zcoordinate
    -16.7791,                 !- Vertex 4 Xcoordinate
    -4.4007,                  !- Vertex 4 Ycoordinate
    0;                        !- Vertex 4 Zcoordinate

BUILDINGSURFACE:DETAILED,
    Block Build1_Alt0 Storey -1 Wall 0006,    !- Name
    wall,                     !- Surface Type
    Project Basement Wall,    !- Construction Name
    Block Build1_Alt0 Storey -1,    !- Zone Name
    ground,                   !- Outside Boundary Condition
    ,                         !- Outside Boundary Condition Object
    NoSun,                    !- Sun Exposure
    NoWind,                   !- Wind Exposure
    autocalculate,            !- View Factor to Ground
    autocalculate,            !- Number of Vertices
    -16.7791,                 !- Vertex 1 Xcoordinate
    -4.4007,                  !- Vertex 1 Ycoordinate
    0,                        !- Vertex 1 Zcoordinate
    -16.7791,                 !- Vertex 2 Xcoordinate
    -4.4007,                  !- Vertex 2 Ycoordinate
    -2.5,                     !- Vertex 2 Zcoordinate
    -12.4301,                 !- Vertex 3 Xcoordinate
    -9.4827,                  !- Vertex 3 Ycoordinate
    -2.5,                     !- Vertex 3 Zcoordinate
    -12.4301,                 !- Vertex 4 Xcoordinate
    -9.4827,                  !- Vertex 4 Ycoordinate
    0;                        !- Vertex 4 Zcoordinate

BUILDINGSURFACE:DETAILED,
    Block Build1_Alt0 Storey -1 Wall 0007,    !- Name
    wall,                     !- Surface Type
    Project Basement Wall,    !- Construction Name
    Block Build1_Alt0 Storey -1,    !- Zone Name
    ground,                   !- Outside Boundary Condition
    ,                         !- Outside Boundary Condition Object
    NoSun,                    !- Sun Exposure
    NoWind,                   !- Wind Exposure
    autocalculate,            !- View Factor to Ground
    autocalculate,            !- Number of Vertices
    -12.4301,                 !- Vertex 1 Xcoordinate
    -9.4827,                  !- Vertex 1 Ycoordinate
    0,                        !- Vertex 1 Zcoordinate
    -12.4301,                 !- Vertex 2 Xcoordinate
    -9.4827,                  !- Vertex 2 Ycoordinate
    -2.5,                     !- Vertex 2 Zcoordinate
    -9.3591,                  !- Vertex 3 Xcoordinate
    -6.8687,                  !- Vertex 3 Ycoordinate
    -2.5,                     !- Vertex 3 Zcoordinate
    -9.3591,                  !- Vertex 4 Xcoordinate
    -6.8687,                  !- Vertex 4 Ycoordinate
    0;                        !- Vertex 4 Zcoordinate

BUILDINGSURFACE:DETAILED,
    Block Build1_Alt0 Storey -1 Wall 0008,    !- Name
    wall,                     !- Surface Type
    Project Basement Wall,    !- Construction Name
    Block Build1_Alt0 Storey -1,    !- Zone Name
    ground,                   !- Outside Boundary Condition
    ,                         !- Outside Boundary Condition Object
    NoSun,                    !- Sun Exposure
    NoWind,                   !- Wind Exposure
    autocalculate,            !- View Factor to Ground
    autocalculate,            !- Number of Vertices
    -9.3591,                  !- Vertex 1 Xcoordinate
    -6.8687,                  !- Vertex 1 Ycoordinate
    0,                        !- Vertex 1 Zcoordinate
    -9.3591,                  !- Vertex 2 Xcoordinate
    -6.8687,                  !- Vertex 2 Ycoordinate
    -2.5,                     !- Vertex 2 Zcoordinate
    -2.5401,                  !- Vertex 3 Xcoordinate
    -14.7437,                 !- Vertex 3 Ycoordinate
    -2.5,                     !- Vertex 3 Zcoordinate
    -2.5401,                  !- Vertex 4 Xcoordinate
    -14.7437,                 !- Vertex 4 Ycoordinate
    0;                        !- Vertex 4 Zcoordinate

BUILDINGSURFACE:DETAILED,
    Block Build1_Alt0 Storey -1 Wall 0009,    !- Name
    wall,                     !- Surface Type
    Project Basement Wall,    !- Construction Name
    Block Build1_Alt0 Storey -1,    !- Zone Name
    ground,                   !- Outside Boundary Condition
    ,                         !- Outside Boundary Condition Object
    NoSun,                    !- Sun Exposure
    NoWind,                   !- Wind Exposure
    autocalculate,            !- View Factor to Ground
    autocalculate,            !- Number of Vertices
    -2.5401,                  !- Vertex 1 Xcoordinate
    -14.7437,                 !- Vertex 1 Ycoordinate
    0,                        !- Vertex 1 Zcoordinate
    -2.5401,                  !- Vertex 2 Xcoordinate
    -14.7437,                 !- Vertex 2 Ycoordinate
    -2.5,                     !- Vertex 2 Zcoordinate
    5.0879,                   !- Vertex 3 Xcoordinate
    -8.1617,                  !- Vertex 3 Ycoordinate
    -2.5,                     !- Vertex 3 Zcoordinate
    5.0879,                   !- Vertex 4 Xcoordinate
    -8.1617,                  !- Vertex 4 Ycoordinate
    0;                        !- Vertex 4 Zcoordinate

BUILDINGSURFACE:DETAILED,
    Block Build1_Alt0 Storey -1 Wall 0010,    !- Name
    wall,                     !- Surface Type
    Project Basement Wall,    !- Construction Name
    Block Build1_Alt0 Storey -1,    !- Zone Name
    ground,                   !- Outside Boundary Condition
    ,                         !- Outside Boundary Condition Object
    NoSun,                    !- Sun Exposure
    NoWind,                   !- Wind Exposure
    autocalculate,            !- View Factor to Ground
    autocalculate,            !- Number of Vertices
    5.0879,                   !- Vertex 1 Xcoordinate
    -8.1617,                  !- Vertex 1 Ycoordinate
    0,                        !- Vertex 1 Zcoordinate
    5.0879,                   !- Vertex 2 Xcoordinate
    -8.1617,                  !- Vertex 2 Ycoordinate
    -2.5,                     !- Vertex 2 Zcoordinate
    2.4719,                   !- Vertex 3 Xcoordinate
    -5.1357,                  !- Vertex 3 Ycoordinate
    -2.5,                     !- Vertex 3 Zcoordinate
    2.4719,                   !- Vertex 4 Xcoordinate
    -5.1357,                  !- Vertex 4 Ycoordinate
    0;                        !- Vertex 4 Zcoordinate

BUILDINGSURFACE:DETAILED,
    Block Build1_Alt0 Storey -1 Wall 0011,    !- Name
    wall,                     !- Surface Type
    Project Basement Wall,    !- Construction Name
    Block Build1_Alt0 Storey -1,    !- Zone Name
    ground,                   !- Outside Boundary Condition
    ,                         !- Outside Boundary Condition Object
    NoSun,                    !- Sun Exposure
    NoWind,                   !- Wind Exposure
    autocalculate,            !- View Factor to Ground
    autocalculate,            !- Number of Vertices
    2.4719,                   !- Vertex 1 Xcoordinate
    -5.1357,                  !- Vertex 1 Ycoordinate
    0,                        !- Vertex 1 Zcoordinate
    2.4719,                   !- Vertex 2 Xcoordinate
    -5.1357,                  !- Vertex 2 Ycoordinate
    -2.5,                     !- Vertex 2 Zcoordinate
    7.7444,                   !- Vertex 3 Xcoordinate
    -0.5864,                  !- Vertex 3 Ycoordinate
    -2.5,                     !- Vertex 3 Zcoordinate
    7.7444,                   !- Vertex 4 Xcoordinate
    -0.5864,                  !- Vertex 4 Ycoordinate
    0;                        !- Vertex 4 Zcoordinate

BUILDINGSURFACE:DETAILED,
    Block Build1_Alt0 Storey -1 Floor 0001,    !- Name
    floor,                    !- Surface Type
    Project Basement Floor,    !- Construction Name
    Block Build1_Alt0 Storey -1,    !- Zone Name
    ground,                   !- Outside Boundary Condition
    ,                         !- Outside Boundary Condition Object
    NoSun,                    !- Sun Exposure
    NoWind,                   !- Wind Exposure
    autocalculate,            !- View Factor to Ground
    autocalculate,            !- Number of Vertices
    1.9829,                   !- Vertex 1 Xcoordinate
    5.9528,                   !- Vertex 1 Ycoordinate
    -2.5,                     !- Vertex 1 Zcoordinate
    7.7444,                   !- Vertex 2 Xcoordinate
    -0.5864,                  !- Vertex 2 Ycoordinate
    -2.5,                     !- Vertex 2 Zcoordinate
    2.4719,                   !- Vertex 3 Xcoordinate
    -5.1357,                  !- Vertex 3 Ycoordinate
    -2.5,                     !- Vertex 3 Zcoordinate
    5.0879,                   !- Vertex 4 Xcoordinate
    -8.1617,                  !- Vertex 4 Ycoordinate
    -2.5,                     !- Vertex 4 Zcoordinate
    -2.5401,                  !- Vertex 5 Xcoordinate
    -14.7437,                 !- Vertex 5 Ycoordinate
    -2.5,                     !- Vertex 5 Zcoordinate
    -9.3591,                  !- Vertex 6 Xcoordinate
    -6.8687,                  !- Vertex 6 Ycoordinate
    -2.5,                     !- Vertex 6 Zcoordinate
    -12.4301,                 !- Vertex 7 Xcoordinate
    -9.4827,                  !- Vertex 7 Ycoordinate
    -2.5,                     !- Vertex 7 Zcoordinate
    -16.7791,                 !- Vertex 8 Xcoordinate
    -4.4007,                  !- Vertex 8 Ycoordinate
    -2.5,                     !- Vertex 8 Zcoordinate
    -13.7321,                 !- Vertex 9 Xcoordinate
    -1.8067,                  !- Vertex 9 Ycoordinate
    -2.5,                     !- Vertex 9 Zcoordinate
    -18.2951,                 !- Vertex 10 Xcoordinate
    3.5263,                   !- Vertex 10 Ycoordinate
    -2.5,                     !- Vertex 10 Zcoordinate
    -10.6511,                 !- Vertex 11 Xcoordinate
    10.0973,                  !- Vertex 11 Ycoordinate
    -2.5,                     !- Vertex 11 Zcoordinate
    -3.1901,                  !- Vertex 12 Xcoordinate
    1.4963,                   !- Vertex 12 Ycoordinate
    -2.5;                     !- Vertex 12 Zcoordinate

BUILDINGSURFACE:DETAILED,
    Block Build1_Alt0 Storey 0 Wall 0001,    !- Name
    wall,                     !- Surface Type
    Project Wall,             !- Construction Name
    Block Build1_Alt0 Storey 0,    !- Zone Name
    outdoors,                 !- Outside Boundary Condition
    ,                         !- Outside Boundary Condition Object
    SunExposed,               !- Sun Exposure
    WindExposed,              !- Wind Exposure
    autocalculate,            !- View Factor to Ground
    autocalculate,            !- Number of Vertices
    1.9829,                   !- Vertex 1 Xcoordinate
    5.9528,                   !- Vertex 1 Ycoordinate
    12,                       !- Vertex 1 Zcoordinate
    1.9829,                   !- Vertex 2 Xcoordinate
    5.9528,                   !- Vertex 2 Ycoordinate
    0,                        !- Vertex 2 Zcoordinate
    -3.1901,                  !- Vertex 3 Xcoordinate
    1.4963,                   !- Vertex 3 Ycoordinate
    0,                        !- Vertex 3 Zcoordinate
    -3.1901,                  !- Vertex 4 Xcoordinate
    1.4963,                   !- Vertex 4 Ycoordinate
    12;                       !- Vertex 4 Zcoordinate

BUILDINGSURFACE:DETAILED,
    Block Build1_Alt0 Storey 0 Wall 0002,    !- Name
    wall,                     !- Surface Type
    Project Wall,             !- Construction Name
    Block Build1_Alt0 Storey 0,    !- Zone Name
    outdoors,                 !- Outside Boundary Condition
    ,                         !- Outside Boundary Condition Object
    SunExposed,               !- Sun Exposure
    WindExposed,              !- Wind Exposure
    autocalculate,            !- View Factor to Ground
    autocalculate,            !- Number of Vertices
    -3.1901,                  !- Vertex 1 Xcoordinate
    1.4963,                   !- Vertex 1 Ycoordinate
    12,                       !- Vertex 1 Zcoordinate
    -3.1901,                  !- Vertex 2 Xcoordinate
    1.4963,                   !- Vertex 2 Ycoordinate
    0,                        !- Vertex 2 Zcoordinate
    -10.6511,                 !- Vertex 3 Xcoordinate
    10.0973,                  !- Vertex 3 Ycoordinate
    0,                        !- Vertex 3 Zcoordinate
    -10.6511,                 !- Vertex 4 Xcoordinate
    10.0973,                  !- Vertex 4 Ycoordinate
    12;                       !- Vertex 4 Zcoordinate

BUILDINGSURFACE:DETAILED,
    Block Build1_Alt0 Storey 0 Wall 0003,    !- Name
    wall,                     !- Surface Type
    Project Wall,             !- Construction Name
    Block Build1_Alt0 Storey 0,    !- Zone Name
    outdoors,                 !- Outside Boundary Condition
    ,                         !- Outside Boundary Condition Object
    SunExposed,               !- Sun Exposure
    WindExposed,              !- Wind Exposure
    autocalculate,            !- View Factor to Ground
    autocalculate,            !- Number of Vertices
    -10.6511,                 !- Vertex 1 Xcoordinate
    10.0973,                  !- Vertex 1 Ycoordinate
    12,                       !- Vertex 1 Zcoordinate
    -10.6511,                 !- Vertex 2 Xcoordinate
    10.0973,                  !- Vertex 2 Ycoordinate
    0,                        !- Vertex 2 Zcoordinate
    -18.2951,                 !- Vertex 3 Xcoordinate
    3.5263,                   !- Vertex 3 Ycoordinate
    0,                        !- Vertex 3 Zcoordinate
    -18.2951,                 !- Vertex 4 Xcoordinate
    3.5263,                   !- Vertex 4 Ycoordinate
    12;                       !- Vertex 4 Zcoordinate

BUILDINGSURFACE:DETAILED,
    Block Build1_Alt0 Storey 0 Wall 0004,    !- Name
    wall,                     !- Surface Type
    Project Wall,             !- Construction Name
    Block Build1_Alt0 Storey 0,    !- Zone Name
    outdoors,                 !- Outside Boundary Condition
    ,                         !- Outside Boundary Condition Object
    SunExposed,               !- Sun Exposure
    WindExposed,              !- Wind Exposure
    autocalculate,            !- View Factor to Ground
    autocalculate,            !- Number of Vertices
    -18.2951,                 !- Vertex 1 Xcoordinate
    3.5263,                   !- Vertex 1 Ycoordinate
    12,                       !- Vertex 1 Zcoordinate
    -18.2951,                 !- Vertex 2 Xcoordinate
    3.5263,                   !- Vertex 2 Ycoordinate
    0,                        !- Vertex 2 Zcoordinate
    -13.7321,                 !- Vertex 3 Xcoordinate
    -1.8067,                  !- Vertex 3 Ycoordinate
    0,                        !- Vertex 3 Zcoordinate
    -13.7321,                 !- Vertex 4 Xcoordinate
    -1.8067,                  !- Vertex 4 Ycoordinate
    12;                       !- Vertex 4 Zcoordinate

BUILDINGSURFACE:DETAILED,
    Block Build1_Alt0 Storey 0 Wall 0005,    !- Name
    wall,                     !- Surface Type
    Project Wall,             !- Construction Name
    Block Build1_Alt0 Storey 0,    !- Zone Name
    outdoors,                 !- Outside Boundary Condition
    ,                         !- Outside Boundary Condition Object
    SunExposed,               !- Sun Exposure
    WindExposed,              !- Wind Exposure
    autocalculate,            !- View Factor to Ground
    autocalculate,            !- Number of Vertices
    -13.7321,                 !- Vertex 1 Xcoordinate
    -1.8067,                  !- Vertex 1 Ycoordinate
    12,                       !- Vertex 1 Zcoordinate
    -13.7321,                 !- Vertex 2 Xcoordinate
    -1.8067,                  !- Vertex 2 Ycoordinate
    0,                        !- Vertex 2 Zcoordinate
    -16.7791,                 !- Vertex 3 Xcoordinate
    -4.4007,                  !- Vertex 3 Ycoordinate
    0,                        !- Vertex 3 Zcoordinate
    -16.7791,                 !- Vertex 4 Xcoordinate
    -4.4007,                  !- Vertex 4 Ycoordinate
    12;                       !- Vertex 4 Zcoordinate

BUILDINGSURFACE:DETAILED,
    Block Build1_Alt0 Storey 0 Wall 0006,    !- Name
    wall,                     !- Surface Type
    Project Wall,             !- Construction Name
    Block Build1_Alt0 Storey 0,    !- Zone Name
    outdoors,                 !- Outside Boundary Condition
    ,                         !- Outside Boundary Condition Object
    SunExposed,               !- Sun Exposure
    WindExposed,              !- Wind Exposure
    autocalculate,            !- View Factor to Ground
    autocalculate,            !- Number of Vertices
    -16.7791,                 !- Vertex 1 Xcoordinate
    -4.4007,                  !- Vertex 1 Ycoordinate
    12,                       !- Vertex 1 Zcoordinate
    -16.7791,                 !- Vertex 2 Xcoordinate
    -4.4007,                  !- Vertex 2 Ycoordinate
    0,                        !- Vertex 2 Zcoordinate
    -12.4301,                 !- Vertex 3 Xcoordinate
    -9.4827,                  !- Vertex 3 Ycoordinate
    0,                        !- Vertex 3 Zcoordinate
    -12.4301,                 !- Vertex 4 Xcoordinate
    -9.4827,                  !- Vertex 4 Ycoordinate
    12;                       !- Vertex 4 Zcoordinate

BUILDINGSURFACE:DETAILED,
    Block Build1_Alt0 Storey 0 Wall 0007,    !- Name
    wall,                     !- Surface Type
    Project Wall,             !- Construction Name
    Block Build1_Alt0 Storey 0,    !- Zone Name
    outdoors,                 !- Outside Boundary Condition
    ,                         !- Outside Boundary Condition Object
    SunExposed,               !- Sun Exposure
    WindExposed,              !- Wind Exposure
    autocalculate,            !- View Factor to Ground
    autocalculate,            !- Number of Vertices
    -12.4301,                 !- Vertex 1 Xcoordinate
    -9.4827,                  !- Vertex 1 Ycoordinate
    12,                       !- Vertex 1 Zcoordinate
    -12.4301,                 !- Vertex 2 Xcoordinate
    -9.4827,                  !- Vertex 2 Ycoordinate
    0,                        !- Vertex 2 Zcoordinate
    -9.3591,                  !- Vertex 3 Xcoordinate
    -6.8687,                  !- Vertex 3 Ycoordinate
    0,                        !- Vertex 3 Zcoordinate
    -9.3591,                  !- Vertex 4 Xcoordinate
    -6.8687,                  !- Vertex 4 Ycoordinate
    12;                       !- Vertex 4 Zcoordinate

BUILDINGSURFACE:DETAILED,
    Block Build1_Alt0 Storey 0 Wall 0008,    !- Name
    wall,                     !- Surface Type
    Project Wall,             !- Construction Name
    Block Build1_Alt0 Storey 0,    !- Zone Name
    outdoors,                 !- Outside Boundary Condition
    ,                         !- Outside Boundary Condition Object
    SunExposed,               !- Sun Exposure
    WindExposed,              !- Wind Exposure
    autocalculate,            !- View Factor to Ground
    autocalculate,            !- Number of Vertices
    -9.3591,                  !- Vertex 1 Xcoordinate
    -6.8687,                  !- Vertex 1 Ycoordinate
    12,                       !- Vertex 1 Zcoordinate
    -9.3591,                  !- Vertex 2 Xcoordinate
    -6.8687,                  !- Vertex 2 Ycoordinate
    0,                        !- Vertex 2 Zcoordinate
    -2.5401,                  !- Vertex 3 Xcoordinate
    -14.7437,                 !- Vertex 3 Ycoordinate
    0,                        !- Vertex 3 Zcoordinate
    -2.5401,                  !- Vertex 4 Xcoordinate
    -14.7437,                 !- Vertex 4 Ycoordinate
    12;                       !- Vertex 4 Zcoordinate

BUILDINGSURFACE:DETAILED,
    Block Build1_Alt0 Storey 0 Wall 0009,    !- Name
    wall,                     !- Surface Type
    Project Wall,             !- Construction Name
    Block Build1_Alt0 Storey 0,    !- Zone Name
    outdoors,                 !- Outside Boundary Condition
    ,                         !- Outside Boundary Condition Object
    SunExposed,               !- Sun Exposure
    WindExposed,              !- Wind Exposure
    autocalculate,            !- View Factor to Ground
    autocalculate,            !- Number of Vertices
    -2.5401,                  !- Vertex 1 Xcoordinate
    -14.7437,                 !- Vertex 1 Ycoordinate
    12,                       !- Vertex 1 Zcoordinate
    -2.5401,                  !- Vertex 2 Xcoordinate
    -14.7437,                 !- Vertex 2 Ycoordinate
    0,                        !- Vertex 2 Zcoordinate
    5.0879,                   !- Vertex 3 Xcoordinate
    -8.1617,                  !- Vertex 3 Ycoordinate
    0,                        !- Vertex 3 Zcoordinate
    5.0879,                   !- Vertex 4 Xcoordinate
    -8.1617,                  !- Vertex 4 Ycoordinate
    12;                       !- Vertex 4 Zcoordinate

BUILDINGSURFACE:DETAILED,
    Block Build1_Alt0 Storey 0 Wall 0010,    !- Name
    wall,                     !- Surface Type
    Project Wall,             !- Construction Name
    Block Build1_Alt0 Storey 0,    !- Zone Name
    outdoors,                 !- Outside Boundary Condition
    ,                         !- Outside Boundary Condition Object
    SunExposed,               !- Sun Exposure
    WindExposed,              !- Wind Exposure
    autocalculate,            !- View Factor to Ground
    autocalculate,            !- Number of Vertices
    5.0879,                   !- Vertex 1 Xcoordinate
    -8.1617,                  !- Vertex 1 Ycoordinate
    12,                       !- Vertex 1 Zcoordinate
    5.0879,                   !- Vertex 2 Xcoordinate
    -8.1617,                  !- Vertex 2 Ycoordinate
    0,                        !- Vertex 2 Zcoordinate
    2.4719,                   !- Vertex 3 Xcoordinate
    -5.1357,                  !- Vertex 3 Ycoordinate
    0,                        !- Vertex 3 Zcoordinate
    2.4719,                   !- Vertex 4 Xcoordinate
    -5.1357,                  !- Vertex 4 Ycoordinate
    12;                       !- Vertex 4 Zcoordinate

BUILDINGSURFACE:DETAILED,
    Block Build1_Alt0 Storey 0 Wall 0011,    !- Name
    wall,                     !- Surface Type
    Project Wall,             !- Construction Name
    Block Build1_Alt0 Storey 0,    !- Zone Name
    outdoors,                 !- Outside Boundary Condition
    ,                         !- Outside Boundary Condition Object
    SunExposed,               !- Sun Exposure
    WindExposed,              !- Wind Exposure
    autocalculate,            !- View Factor to Ground
    autocalculate,            !- Number of Vertices
    2.4719,                   !- Vertex 1 Xcoordinate
    -5.1357,                  !- Vertex 1 Ycoordinate
    12,                       !- Vertex 1 Zcoordinate
    2.4719,                   !- Vertex 2 Xcoordinate
    -5.1357,                  !- Vertex 2 Ycoordinate
    0,                        !- Vertex 2 Zcoordinate
    7.7444,                   !- Vertex 3 Xcoordinate
    -0.5864,                  !- Vertex 3 Ycoordinate
    0,                        !- Vertex 3 Zcoordinate
    7.7444,                   !- Vertex 4 Xcoordinate
    -0.5864,                  !- Vertex 4 Ycoordinate
    12;                       !- Vertex 4 Zcoordinate

BUILDINGSURFACE:DETAILED,
    Block Build0_Alt0 Storey -1 Wall 0001_1,    !- Name
    wall,                     !- Surface Type
    Project Partition,        !- Construction Name
    Block Build0_Alt0 Storey -1,    !- Zone Name
    surface,                  !- Outside Boundary Condition
    Block Build1_Alt0 Storey -1 Wall 0012_1,    !- Outside Boundary Condition Object
    NoSun,                    !- Sun Exposure
    NoWind,                   !- Wind Exposure
    autocalculate,            !- View Factor to Ground
    autocalculate,            !- Number of Vertices
    1.9829000003341337,       !- Vertex 1 Xcoordinate
    5.9527999996207654,       !- Vertex 1 Ycoordinate
    0,                        !- Vertex 1 Zcoordinate
    1.9829000003341337,       !- Vertex 2 Xcoordinate
    5.9527999996207654,       !- Vertex 2 Ycoordinate
    -2.5,                     !- Vertex 2 Zcoordinate
    7.7443999999231945,       !- Vertex 3 Xcoordinate
    -5.864000e-01,            !- Vertex 3 Ycoordinate
    -2.5,                     !- Vertex 3 Zcoordinate
    7.7443999999231945,       !- Vertex 4 Xcoordinate
    -5.864000e-01,            !- Vertex 4 Ycoordinate
    0;                        !- Vertex 4 Zcoordinate

BUILDINGSURFACE:DETAILED,
    Block Build1_Alt0 Storey -1 Wall 0012_1,    !- Name
    wall,                     !- Surface Type
    Project Partition,        !- Construction Name
    Block Build1_Alt0 Storey -1,    !- Zone Name
    surface,                  !- Outside Boundary Condition
    Block Build0_Alt0 Storey -1 Wall 0001_1,    !- Outside Boundary Condition Object
    NoSun,                    !- Sun Exposure
    NoWind,                   !- Wind Exposure
    autocalculate,            !- View Factor to Ground
    autocalculate,            !- Number of Vertices
    7.7443999999231945,       !- Vertex 1 Xcoordinate
    -5.864000e-01,            !- Vertex 1 Ycoordinate
    0,                        !- Vertex 1 Zcoordinate
    7.7443999999231945,       !- Vertex 2 Xcoordinate
    -5.864000e-01,            !- Vertex 2 Ycoordinate
    -2.5,                     !- Vertex 2 Zcoordinate
    1.982900000334132,        !- Vertex 3 Xcoordinate
    5.9527999996207654,       !- Vertex 3 Ycoordinate
    -2.5,                     !- Vertex 3 Zcoordinate
    1.982900000334132,        !- Vertex 4 Xcoordinate
    5.9527999996207654,       !- Vertex 4 Ycoordinate
    0;                        !- Vertex 4 Zcoordinate

BUILDINGSURFACE:DETAILED,
    Block Build0_Alt0 Storey -1 Ceiling 0001_1,    !- Name
    ceiling,                  !- Surface Type
    Project Heated1rstFloor Rev,    !- Construction Name
    Block Build0_Alt0 Storey -1,    !- Zone Name
    surface,                  !- Outside Boundary Condition
    Block Build0_Alt0 Storey 0 Floor 0001_1,    !- Outside Boundary Condition Object
    NoSun,                    !- Sun Exposure
    NoWind,                   !- Wind Exposure
    autocalculate,            !- View Factor to Ground
    autocalculate,            !- Number of Vertices
    28.93789999978617,        !- Vertex 1 Xcoordinate
    5.243299999739975,        !- Vertex 1 Ycoordinate
    0,                        !- Vertex 1 Zcoordinate
    23.1238999995403,         !- Vertex 2 Xcoordinate
    11.997299999929965,       !- Vertex 2 Ycoordinate
    0,                        !- Vertex 2 Zcoordinate
    26.90389999980107,        !- Vertex 3 Xcoordinate
    15.289299999829382,       !- Vertex 3 Ycoordinate
    0,                        !- Vertex 3 Zcoordinate
    20.345899999607354,       !- Vertex 4 Xcoordinate
    22.951299999840558,       !- Vertex 4 Ycoordinate
    0,                        !- Vertex 4 Zcoordinate
    16.547899999655783,       !- Vertex 5 Xcoordinate
    19.65929999994114,        !- Vertex 5 Ycoordinate
    0,                        !- Vertex 5 Zcoordinate
    10.724899999797344,       !- Vertex 6 Xcoordinate
    26.386299999896437,       !- Vertex 6 Ycoordinate
    0,                        !- Vertex 6 Zcoordinate
    3.1228999998420477,       !- Vertex 7 Xcoordinate
    19.721299999859184,       !- Vertex 7 Ycoordinate
    0,                        !- Vertex 7 Zcoordinate
    9.4648999995552,          !- Vertex 8 Xcoordinate
    12.398299999535084,       !- Vertex 8 Ycoordinate
    0,                        !- Vertex 8 Zcoordinate
    1.9828999997116625,       !- Vertex 9 Xcoordinate
    5.9527999996207654,       !- Vertex 9 Ycoordinate
    0,                        !- Vertex 9 Zcoordinate
    7.744399999734014,        !- Vertex 10 Xcoordinate
    -5.864000e-01,            !- Vertex 10 Ycoordinate
    0,                        !- Vertex 10 Zcoordinate
    15.142899999860674,       !- Vertex 11 Xcoordinate
    5.7972999997437,          !- Vertex 11 Ycoordinate
    0,                        !- Vertex 11 Zcoordinate
    21.29989999998361,        !- Vertex 12 Xcoordinate
    -1.334700e+00,            !- Vertex 12 Ycoordinate
    0;                        !- Vertex 12 Zcoordinate

BUILDINGSURFACE:DETAILED,
    Block Build0_Alt0 Storey 0 Floor 0001_1,    !- Name
    floor,                    !- Surface Type
    Project Heated1rstFloor,    !- Construction Name
    Block Build0_Alt0 Storey 0,    !- Zone Name
    surface,                  !- Outside Boundary Condition
    Block Build0_Alt0 Storey -1 Ceiling 0001_1,    !- Outside Boundary Condition Object
    NoSun,                    !- Sun Exposure
    NoWind,                   !- Wind Exposure
    autocalculate,            !- View Factor to Ground
    autocalculate,            !- Number of Vertices
    20.345899999607354,       !- Vertex 1 Xcoordinate
    22.951299999840558,       !- Vertex 1 Ycoordinate
    0,                        !- Vertex 1 Zcoordinate
    26.90389999980107,        !- Vertex 2 Xcoordinate
    15.289299999829382,       !- Vertex 2 Ycoordinate
    0,                        !- Vertex 2 Zcoordinate
    23.1238999995403,         !- Vertex 3 Xcoordinate
    11.997299999929965,       !- Vertex 3 Ycoordinate
    0,                        !- Vertex 3 Zcoordinate
    28.93789999978617,        !- Vertex 4 Xcoordinate
    5.243299999739975,        !- Vertex 4 Ycoordinate
    0,                        !- Vertex 4 Zcoordinate
    21.29989999998361,        !- Vertex 5 Xcoordinate
    -1.334700e+00,            !- Vertex 5 Ycoordinate
    0,                        !- Vertex 5 Zcoordinate
    15.142899999860674,       !- Vertex 6 Xcoordinate
    5.7972999997437,          !- Vertex 6 Ycoordinate
    0,                        !- Vertex 6 Zcoordinate
    7.744399999734014,        !- Vertex 7 Xcoordinate
    -5.864000e-01,            !- Vertex 7 Ycoordinate
    0,                        !- Vertex 7 Zcoordinate
    1.9828999997116625,       !- Vertex 8 Xcoordinate
    5.9527999996207654,       !- Vertex 8 Ycoordinate
    0,                        !- Vertex 8 Zcoordinate
    9.4648999995552,          !- Vertex 9 Xcoordinate
    12.398299999535084,       !- Vertex 9 Ycoordinate
    0,                        !- Vertex 9 Zcoordinate
    3.1228999998420477,       !- Vertex 10 Xcoordinate
    19.721299999859184,       !- Vertex 10 Ycoordinate
    0,                        !- Vertex 10 Zcoordinate
    10.724899999797344,       !- Vertex 11 Xcoordinate
    26.386299999896437,       !- Vertex 11 Ycoordinate
    0,                        !- Vertex 11 Zcoordinate
    16.547899999655783,       !- Vertex 12 Xcoordinate
    19.65929999994114,        !- Vertex 12 Ycoordinate
    0;                        !- Vertex 12 Zcoordinate

BUILDINGSURFACE:DETAILED,
    Block Build0_Alt0 Storey 0 Wall 0001_1,    !- Name
    wall,                     !- Surface Type
    Project Partition,        !- Construction Name
    Block Build0_Alt0 Storey 0,    !- Zone Name
    surface,                  !- Outside Boundary Condition
    Block Build1_Alt0 Storey 0 Wall 0012_1,    !- Outside Boundary Condition Object
    NoSun,                    !- Sun Exposure
    NoWind,                   !- Wind Exposure
    autocalculate,            !- View Factor to Ground
    autocalculate,            !- Number of Vertices
    1.982900000334133,        !- Vertex 1 Xcoordinate
    5.9527999996207654,       !- Vertex 1 Ycoordinate
    12,                       !- Vertex 1 Zcoordinate
    1.982900000334133,        !- Vertex 2 Xcoordinate
    5.9527999996207654,       !- Vertex 2 Ycoordinate
    0,                        !- Vertex 2 Zcoordinate
    7.744399999923195,        !- Vertex 3 Xcoordinate
    -5.864000e-01,            !- Vertex 3 Ycoordinate
    0,                        !- Vertex 3 Zcoordinate
    7.744399999923195,        !- Vertex 4 Xcoordinate
    -5.864000e-01,            !- Vertex 4 Ycoordinate
    12;                       !- Vertex 4 Zcoordinate

BUILDINGSURFACE:DETAILED,
    Block Build0_Alt0 Storey 0 Wall 0001_2,    !- Name
    wall,                     !- Surface Type
    Project Wall,             !- Construction Name
    Block Build0_Alt0 Storey 0,    !- Zone Name
    outdoors,                 !- Outside Boundary Condition
    ,                         !- Outside Boundary Condition Object
    SunExposed,               !- Sun Exposure
    WindExposed,              !- Wind Exposure
    autocalculate,            !- View Factor to Ground
    autocalculate,            !- Number of Vertices
    1.982900000334133,        !- Vertex 1 Xcoordinate
    5.9527999996207654,       !- Vertex 1 Ycoordinate
    24,                       !- Vertex 1 Zcoordinate
    1.982900000334133,        !- Vertex 2 Xcoordinate
    5.9527999996207654,       !- Vertex 2 Ycoordinate
    12,                       !- Vertex 2 Zcoordinate
    7.744399999923195,        !- Vertex 3 Xcoordinate
    -5.864000e-01,            !- Vertex 3 Ycoordinate
    12,                       !- Vertex 3 Zcoordinate
    7.744399999923195,        !- Vertex 4 Xcoordinate
    -5.864000e-01,            !- Vertex 4 Ycoordinate
    24;                       !- Vertex 4 Zcoordinate

BUILDINGSURFACE:DETAILED,
    Block Build1_Alt0 Storey 0 Wall 0012_1,    !- Name
    wall,                     !- Surface Type
    Project Partition,        !- Construction Name
    Block Build1_Alt0 Storey 0,    !- Zone Name
    surface,                  !- Outside Boundary Condition
    Block Build0_Alt0 Storey 0 Wall 0001_1,    !- Outside Boundary Condition Object
    NoSun,                    !- Sun Exposure
    NoWind,                   !- Wind Exposure
    autocalculate,            !- View Factor to Ground
    autocalculate,            !- Number of Vertices
    7.7443999999231945,       !- Vertex 1 Xcoordinate
    -5.864000e-01,            !- Vertex 1 Ycoordinate
    12,                       !- Vertex 1 Zcoordinate
    7.7443999999231945,       !- Vertex 2 Xcoordinate
    -5.864000e-01,            !- Vertex 2 Ycoordinate
    0,                        !- Vertex 2 Zcoordinate
    1.982900000334132,        !- Vertex 3 Xcoordinate
    5.9527999996207654,       !- Vertex 3 Ycoordinate
    0,                        !- Vertex 3 Zcoordinate
    1.982900000334132,        !- Vertex 4 Xcoordinate
    5.9527999996207654,       !- Vertex 4 Ycoordinate
    12;                       !- Vertex 4 Zcoordinate

BUILDINGSURFACE:DETAILED,
    Block Build1_Alt0 Storey -1 Ceiling 0001_1,    !- Name
    ceiling,                  !- Surface Type
    Project Heated1rstFloor Rev,    !- Construction Name
    Block Build1_Alt0 Storey -1,    !- Zone Name
    surface,                  !- Outside Boundary Condition
    Block Build1_Alt0 Storey 0 Floor 0001_1,    !- Outside Boundary Condition Object
    NoSun,                    !- Sun Exposure
    NoWind,                   !- Wind Exposure
    autocalculate,            !- View Factor to Ground
    autocalculate,            !- Number of Vertices
    5.087899999693036,        !- Vertex 1 Xcoordinate
    -8.161699999589473,       !- Vertex 1 Ycoordinate
    0,                        !- Vertex 1 Zcoordinate
    2.471899999771267,        !- Vertex 2 Xcoordinate
    -5.135699999984354,       !- Vertex 2 Ycoordinate
    0,                        !- Vertex 2 Zcoordinate
    7.744399999734014,        !- Vertex 3 Xcoordinate
    -5.864000e-01,            !- Vertex 3 Ycoordinate
    0,                        !- Vertex 3 Zcoordinate
    1.9828999997116625,       !- Vertex 4 Xcoordinate
    5.9527999996207654,       !- Vertex 4 Ycoordinate
    0,                        !- Vertex 4 Zcoordinate
    -3.190100e+00,            !- Vertex 5 Xcoordinate
    1.4962999997660518,       !- Vertex 5 Ycoordinate
    0,                        !- Vertex 5 Zcoordinate
    -1.065110e+01,            !- Vertex 6 Xcoordinate
    10.097299999557436,       !- Vertex 6 Ycoordinate
    0,                        !- Vertex 6 Zcoordinate
    -18.29509999975562,       !- Vertex 7 Xcoordinate
    3.526299999561161,        !- Vertex 7 Ycoordinate
    0,                        !- Vertex 7 Zcoordinate
    -1.373210e+01,            !- Vertex 8 Xcoordinate
    -1.806700e+00,            !- Vertex 8 Ycoordinate
    0,                        !- Vertex 8 Zcoordinate
    -1.677910e+01,            !- Vertex 9 Xcoordinate
    -4.400699999649078,       !- Vertex 9 Ycoordinate
    0,                        !- Vertex 9 Zcoordinate
    -1.243010e+01,            !- Vertex 10 Xcoordinate
    -9.482699999585748,       !- Vertex 10 Ycoordinate
    0,                        !- Vertex 10 Zcoordinate
    -9.359099999535829,       !- Vertex 11 Xcoordinate
    -6.868699999991804,       !- Vertex 11 Ycoordinate
    0,                        !- Vertex 11 Zcoordinate
    -2.540100e+00,            !- Vertex 12 Xcoordinate
    -1.474370e+01,            !- Vertex 12 Ycoordinate
    0;                        !- Vertex 12 Zcoordinate

BUILDINGSURFACE:DETAILED,
    Block Build1_Alt0 Storey 0 Floor 0001_1,    !- Name
    floor,                    !- Surface Type
    Project Heated1rstFloor,    !- Construction Name
    Block Build1_Alt0 Storey 0,    !- Zone Name
    surface,                  !- Outside Boundary Condition
    Block Build1_Alt0 Storey -1 Ceiling 0001_1,    !- Outside Boundary Condition Object
    NoSun,                    !- Sun Exposure
    NoWind,                   !- Wind Exposure
    autocalculate,            !- View Factor to Ground
    autocalculate,            !- Number of Vertices
    1.9828999997116625,       !- Vertex 1 Xcoordinate
    5.9527999996207654,       !- Vertex 1 Ycoordinate
    0,                        !- Vertex 1 Zcoordinate
    7.744399999734014,        !- Vertex 2 Xcoordinate
    -5.864000e-01,            !- Vertex 2 Ycoordinate
    0,                        !- Vertex 2 Zcoordinate
    2.471899999771267,        !- Vertex 3 Xcoordinate
    -5.135699999984354,       !- Vertex 3 Ycoordinate
    0,                        !- Vertex 3 Zcoordinate
    5.087899999693036,        !- Vertex 4 Xcoordinate
    -8.161699999589473,       !- Vertex 4 Ycoordinate
    0,                        !- Vertex 4 Zcoordinate
    -2.540100e+00,            !- Vertex 5 Xcoordinate
    -1.474370e+01,            !- Vertex 5 Ycoordinate
    0,                        !- Vertex 5 Zcoordinate
    -9.359099999535829,       !- Vertex 6 Xcoordinate
    -6.868699999991804,       !- Vertex 6 Ycoordinate
    0,                        !- Vertex 6 Zcoordinate
    -1.243010e+01,            !- Vertex 7 Xcoordinate
    -9.482699999585748,       !- Vertex 7 Ycoordinate
    0,                        !- Vertex 7 Zcoordinate
    -1.677910e+01,            !- Vertex 8 Xcoordinate
    -4.400699999649078,       !- Vertex 8 Ycoordinate
    0,                        !- Vertex 8 Zcoordinate
    -1.373210e+01,            !- Vertex 9 Xcoordinate
    -1.806700e+00,            !- Vertex 9 Ycoordinate
    0,                        !- Vertex 9 Zcoordinate
    -18.29509999975562,       !- Vertex 10 Xcoordinate
    3.526299999561161,        !- Vertex 10 Ycoordinate
    0,                        !- Vertex 10 Zcoordinate
    -1.065110e+01,            !- Vertex 11 Xcoordinate
    10.097299999557436,       !- Vertex 11 Ycoordinate
    0,                        !- Vertex 11 Zcoordinate
    -3.190100e+00,            !- Vertex 12 Xcoordinate
    1.4962999997660518,       !- Vertex 12 Ycoordinate
    0;                        !- Vertex 12 Zcoordinate

BUILDINGSURFACE:DETAILED,
    Block Build0_Alt0 Storey 0 Roof 0001_0,    !- Name
    roof,                     !- Surface Type
    Project Flat Roof,        !- Construction Name
    Block Build0_Alt0 Storey 0,    !- Zone Name
    outdoors,                 !- Outside Boundary Condition
    ,                         !- Outside Boundary Condition Object
    SunExposed,               !- Sun Exposure
    WindExposed,              !- Wind Exposure
    autocalculate,            !- View Factor to Ground
    autocalculate,            !- Number of Vertices
    15.1429,                  !- Vertex 1 Xcoordinate
    5.7973,                   !- Vertex 1 Ycoordinate
    24,                       !- Vertex 1 Zcoordinate
    9.4649,                   !- Vertex 2 Xcoordinate
    12.3983,                  !- Vertex 2 Ycoordinate
    24,                       !- Vertex 2 Zcoordinate
    1.9829,                   !- Vertex 3 Xcoordinate
    5.9528,                   !- Vertex 3 Ycoordinate
    24,                       !- Vertex 3 Zcoordinate
    7.7444,                   !- Vertex 4 Xcoordinate
    -0.5864,                  !- Vertex 4 Ycoordinate
    24;                       !- Vertex 4 Zcoordinate

BUILDINGSURFACE:DETAILED,
    Block Build0_Alt0 Storey 0 Roof 0001_1,    !- Name
    roof,                     !- Surface Type
    Project Flat Roof,        !- Construction Name
    Block Build0_Alt0 Storey 0,    !- Zone Name
    outdoors,                 !- Outside Boundary Condition
    ,                         !- Outside Boundary Condition Object
    SunExposed,               !- Sun Exposure
    WindExposed,              !- Wind Exposure
    autocalculate,            !- View Factor to Ground
    autocalculate,            !- Number of Vertices
    28.9379,                  !- Vertex 1 Xcoordinate
    5.2433,                   !- Vertex 1 Ycoordinate
    24,                       !- Vertex 1 Zcoordinate
    23.1239,                  !- Vertex 2 Xcoordinate
    11.9973,                  !- Vertex 2 Ycoordinate
    24,                       !- Vertex 2 Zcoordinate
    15.1429,                  !- Vertex 3 Xcoordinate
    5.7973,                   !- Vertex 3 Ycoordinate
    24,                       !- Vertex 3 Zcoordinate
    21.2999,                  !- Vertex 4 Xcoordinate
    -1.3347,                  !- Vertex 4 Ycoordinate
    24;                       !- Vertex 4 Zcoordinate

BUILDINGSURFACE:DETAILED,
    Block Build0_Alt0 Storey 0 Roof 0001_2,    !- Name
    roof,                     !- Surface Type
    Project Flat Roof,        !- Construction Name
    Block Build0_Alt0 Storey 0,    !- Zone Name
    outdoors,                 !- Outside Boundary Condition
    ,                         !- Outside Boundary Condition Object
    SunExposed,               !- Sun Exposure
    WindExposed,              !- Wind Exposure
    autocalculate,            !- View Factor to Ground
    autocalculate,            !- Number of Vertices
    9.4649,                   !- Vertex 1 Xcoordinate
    12.3983,                  !- Vertex 1 Ycoordinate
    24,                       !- Vertex 1 Zcoordinate
    16.5479,                  !- Vertex 2 Xcoordinate
    19.6593,                  !- Vertex 2 Ycoordinate
    24,                       !- Vertex 2 Zcoordinate
    10.7249,                  !- Vertex 3 Xcoordinate
    26.3863,                  !- Vertex 3 Ycoordinate
    24,                       !- Vertex 3 Zcoordinate
    3.1229,                   !- Vertex 4 Xcoordinate
    19.7213,                  !- Vertex 4 Ycoordinate
    24;                       !- Vertex 4 Zcoordinate

BUILDINGSURFACE:DETAILED,
    Block Build0_Alt0 Storey 0 Roof 0001_3,    !- Name
    roof,                     !- Surface Type
    Project Flat Roof,        !- Construction Name
    Block Build0_Alt0 Storey 0,    !- Zone Name
    outdoors,                 !- Outside Boundary Condition
    ,                         !- Outside Boundary Condition Object
    SunExposed,               !- Sun Exposure
    WindExposed,              !- Wind Exposure
    autocalculate,            !- View Factor to Ground
    autocalculate,            !- Number of Vertices
    23.1239,                  !- Vertex 1 Xcoordinate
    11.9973,                  !- Vertex 1 Ycoordinate
    24,                       !- Vertex 1 Zcoordinate
    26.9039,                  !- Vertex 2 Xcoordinate
    15.2893,                  !- Vertex 2 Ycoordinate
    24,                       !- Vertex 2 Zcoordinate
    20.3459,                  !- Vertex 3 Xcoordinate
    22.9513,                  !- Vertex 3 Ycoordinate
    24,                       !- Vertex 3 Zcoordinate
    16.5479,                  !- Vertex 4 Xcoordinate
    19.6593,                  !- Vertex 4 Ycoordinate
    24,                       !- Vertex 4 Zcoordinate
    9.4649,                   !- Vertex 5 Xcoordinate
    12.3983,                  !- Vertex 5 Ycoordinate
    24,                       !- Vertex 5 Zcoordinate
    15.1429,                  !- Vertex 6 Xcoordinate
    5.7973,                   !- Vertex 6 Ycoordinate
    24;                       !- Vertex 6 Zcoordinate

BUILDINGSURFACE:DETAILED,
    Block Build1_Alt0 Storey 0 Roof 0001_0,    !- Name
    roof,                     !- Surface Type
    Project Flat Roof,        !- Construction Name
    Block Build1_Alt0 Storey 0,    !- Zone Name
    outdoors,                 !- Outside Boundary Condition
    ,                         !- Outside Boundary Condition Object
    SunExposed,               !- Sun Exposure
    WindExposed,              !- Wind Exposure
    autocalculate,            !- View Factor to Ground
    autocalculate,            !- Number of Vertices
    5.0879,                   !- Vertex 1 Xcoordinate
    -8.1617,                  !- Vertex 1 Ycoordinate
    12,                       !- Vertex 1 Zcoordinate
    2.4719,                   !- Vertex 2 Xcoordinate
    -5.1357,                  !- Vertex 2 Ycoordinate
    12,                       !- Vertex 2 Zcoordinate
    -9.3591,                  !- Vertex 3 Xcoordinate
    -6.8687,                  !- Vertex 3 Ycoordinate
    12,                       !- Vertex 3 Zcoordinate
    -2.5401,                  !- Vertex 4 Xcoordinate
    -14.7437,                 !- Vertex 4 Ycoordinate
    12;                       !- Vertex 4 Zcoordinate

BUILDINGSURFACE:DETAILED,
    Block Build1_Alt0 Storey 0 Roof 0001_1,    !- Name
    roof,                     !- Surface Type
    Project Flat Roof,        !- Construction Name
    Block Build1_Alt0 Storey 0,    !- Zone Name
    outdoors,                 !- Outside Boundary Condition
    ,                         !- Outside Boundary Condition Object
    SunExposed,               !- Sun Exposure
    WindExposed,              !- Wind Exposure
    autocalculate,            !- View Factor to Ground
    autocalculate,            !- Number of Vertices
    -9.3591,                  !- Vertex 1 Xcoordinate
    -6.8687,                  !- Vertex 1 Ycoordinate
    12,                       !- Vertex 1 Zcoordinate
    -3.1901,                  !- Vertex 2 Xcoordinate
    1.4963,                   !- Vertex 2 Ycoordinate
    12,                       !- Vertex 2 Zcoordinate
    -13.7321,                 !- Vertex 3 Xcoordinate
    -1.8067,                  !- Vertex 3 Ycoordinate
    12,                       !- Vertex 3 Zcoordinate
    -16.7791,                 !- Vertex 4 Xcoordinate
    -4.4007,                  !- Vertex 4 Ycoordinate
    12,                       !- Vertex 4 Zcoordinate
    -12.4301,                 !- Vertex 5 Xcoordinate
    -9.4827,                  !- Vertex 5 Ycoordinate
    12;                       !- Vertex 5 Zcoordinate

BUILDINGSURFACE:DETAILED,
    Block Build1_Alt0 Storey 0 Roof 0001_2,    !- Name
    roof,                     !- Surface Type
    Project Flat Roof,        !- Construction Name
    Block Build1_Alt0 Storey 0,    !- Zone Name
    outdoors,                 !- Outside Boundary Condition
    ,                         !- Outside Boundary Condition Object
    SunExposed,               !- Sun Exposure
    WindExposed,              !- Wind Exposure
    autocalculate,            !- View Factor to Ground
    autocalculate,            !- Number of Vertices
    -3.1901,                  !- Vertex 1 Xcoordinate
    1.4963,                   !- Vertex 1 Ycoordinate
    12,                       !- Vertex 1 Zcoordinate
    -10.6511,                 !- Vertex 2 Xcoordinate
    10.0973,                  !- Vertex 2 Ycoordinate
    12,                       !- Vertex 2 Zcoordinate
    -18.2951,                 !- Vertex 3 Xcoordinate
    3.5263,                   !- Vertex 3 Ycoordinate
    12,                       !- Vertex 3 Zcoordinate
    -13.7321,                 !- Vertex 4 Xcoordinate
    -1.8067,                  !- Vertex 4 Ycoordinate
    12;                       !- Vertex 4 Zcoordinate

BUILDINGSURFACE:DETAILED,
    Block Build1_Alt0 Storey 0 Roof 0001_3,    !- Name
    roof,                     !- Surface Type
    Project Flat Roof,        !- Construction Name
    Block Build1_Alt0 Storey 0,    !- Zone Name
    outdoors,                 !- Outside Boundary Condition
    ,                         !- Outside Boundary Condition Object
    SunExposed,               !- Sun Exposure
    WindExposed,              !- Wind Exposure
    autocalculate,            !- View Factor to Ground
    autocalculate,            !- Number of Vertices
    2.4719,                   !- Vertex 1 Xcoordinate
    -5.1357,                  !- Vertex 1 Ycoordinate
    12,                       !- Vertex 1 Zcoordinate
    7.7444,                   !- Vertex 2 Xcoordinate
    -0.5864,                  !- Vertex 2 Ycoordinate
    12,                       !- Vertex 2 Zcoordinate
    1.9829,                   !- Vertex 3 Xcoordinate
    5.9528,                   !- Vertex 3 Ycoordinate
    12,                       !- Vertex 3 Zcoordinate
    -3.1901,                  !- Vertex 4 Xcoordinate
    1.4963,                   !- Vertex 4 Ycoordinate
    12,                       !- Vertex 4 Zcoordinate
    -9.3591,                  !- Vertex 5 Xcoordinate
    -6.8687,                  !- Vertex 5 Ycoordinate
    12;                       !- Vertex 5 Zcoordinate

FENESTRATIONSURFACE:DETAILED,
    Block Build0_Alt0 Storey 0 Wall 0002 window,    !- Name
    Window,                   !- Surface Type
    Project External Window,    !- Construction Name
    Block Build0_Alt0 Storey 0 Wall 0002,    !- Building Surface Name
    ,                         !- Outside Boundary Condition Object
    autocalculate,            !- View Factor to Ground
    ,                         !- Frame and Divider Name
    1.0,                      !- Multiplier
    autocalculate,            !- Number of Vertices
    7.748099249999999,        !- Vertex 1 Xcoordinate
    -5.832081e-01,            !- Vertex 1 Ycoordinate
    15.6,                     !- Vertex 1 Zcoordinate
    7.748099249999999,        !- Vertex 2 Xcoordinate
    -5.832081e-01,            !- Vertex 2 Ycoordinate
    8.4,                      !- Vertex 2 Zcoordinate
    15.139200749999999,       !- Vertex 3 Xcoordinate
    5.79410815,               !- Vertex 3 Ycoordinate
    8.4,                      !- Vertex 3 Zcoordinate
    15.139200749999999,       !- Vertex 4 Xcoordinate
    5.79410815,               !- Vertex 4 Ycoordinate
    15.6;                     !- Vertex 4 Zcoordinate

FENESTRATIONSURFACE:DETAILED,
    Block Build0_Alt0 Storey 0 Wall 0003 window,    !- Name
    Window,                   !- Surface Type
    Project External Window,    !- Construction Name
    Block Build0_Alt0 Storey 0 Wall 0003,    !- Building Surface Name
    ,                         !- Outside Boundary Condition Object
    autocalculate,            !- View Factor to Ground
    ,                         !- Frame and Divider Name
    1.0,                      !- Multiplier
    autocalculate,            !- Number of Vertices
    15.145978499999998,       !- Vertex 1 Xcoordinate
    5.793734,                 !- Vertex 1 Ycoordinate
    15.6,                     !- Vertex 1 Zcoordinate
    15.145978499999998,       !- Vertex 2 Xcoordinate
    5.793734,                 !- Vertex 2 Ycoordinate
    8.4,                      !- Vertex 2 Zcoordinate
    21.2968215,               !- Vertex 3 Xcoordinate
    -1.331134e+00,            !- Vertex 3 Ycoordinate
    8.4,                      !- Vertex 3 Zcoordinate
    21.2968215,               !- Vertex 4 Xcoordinate
    -1.331134e+00,            !- Vertex 4 Ycoordinate
    15.6;                     !- Vertex 4 Zcoordinate

FENESTRATIONSURFACE:DETAILED,
    Block Build0_Alt0 Storey 0 Wall 0004 window,    !- Name
    Window,                   !- Surface Type
    Project External Window,    !- Construction Name
    Block Build0_Alt0 Storey 0 Wall 0004,    !- Building Surface Name
    ,                         !- Outside Boundary Condition Object
    autocalculate,            !- View Factor to Ground
    ,                         !- Frame and Divider Name
    1.0,                      !- Multiplier
    autocalculate,            !- Number of Vertices
    21.303719,                !- Vertex 1 Xcoordinate
    -1.331411e+00,            !- Vertex 1 Ycoordinate
    15.6,                     !- Vertex 1 Zcoordinate
    21.303719,                !- Vertex 2 Xcoordinate
    -1.331411e+00,            !- Vertex 2 Ycoordinate
    8.4,                      !- Vertex 2 Zcoordinate
    28.934081,                !- Vertex 3 Xcoordinate
    5.240010999999999,        !- Vertex 3 Ycoordinate
    8.4,                      !- Vertex 3 Zcoordinate
    28.934081,                !- Vertex 4 Xcoordinate
    5.240010999999999,        !- Vertex 4 Ycoordinate
    15.6;                     !- Vertex 4 Zcoordinate

FENESTRATIONSURFACE:DETAILED,
    Block Build0_Alt0 Storey 0 Wall 0005 window,    !- Name
    Window,                   !- Surface Type
    Project External Window,    !- Construction Name
    Block Build0_Alt0 Storey 0 Wall 0005,    !- Building Surface Name
    ,                         !- Outside Boundary Condition Object
    autocalculate,            !- View Factor to Ground
    ,                         !- Frame and Divider Name
    1.0,                      !- Multiplier
    autocalculate,            !- Number of Vertices
    28.934993,                !- Vertex 1 Xcoordinate
    5.246677,                 !- Vertex 1 Ycoordinate
    15.6,                     !- Vertex 1 Zcoordinate
    28.934993,                !- Vertex 2 Xcoordinate
    5.246677,                 !- Vertex 2 Ycoordinate
    8.4,                      !- Vertex 2 Zcoordinate
    23.126807,                !- Vertex 3 Xcoordinate
    11.993922999999999,       !- Vertex 3 Ycoordinate
    8.4,                      !- Vertex 3 Zcoordinate
    23.126807,                !- Vertex 4 Xcoordinate
    11.993922999999999,       !- Vertex 4 Ycoordinate
    15.6;                     !- Vertex 4 Zcoordinate

FENESTRATIONSURFACE:DETAILED,
    Block Build0_Alt0 Storey 0 Wall 0006 window,    !- Name
    Window,                   !- Surface Type
    Project External Window,    !- Construction Name
    Block Build0_Alt0 Storey 0 Wall 0006,    !- Building Surface Name
    ,                         !- Outside Boundary Condition Object
    autocalculate,            !- View Factor to Ground
    ,                         !- Frame and Divider Name
    1.0,                      !- Multiplier
    autocalculate,            !- Number of Vertices
    23.12579,                 !- Vertex 1 Xcoordinate
    11.998946,                !- Vertex 1 Ycoordinate
    15.6,                     !- Vertex 1 Zcoordinate
    23.12579,                 !- Vertex 2 Xcoordinate
    11.998946,                !- Vertex 2 Ycoordinate
    8.4,                      !- Vertex 2 Zcoordinate
    26.90201,                 !- Vertex 3 Xcoordinate
    15.287654,                !- Vertex 3 Ycoordinate
    8.4,                      !- Vertex 3 Zcoordinate
    26.90201,                 !- Vertex 4 Xcoordinate
    15.287654,                !- Vertex 4 Ycoordinate
    15.6;                     !- Vertex 4 Zcoordinate

FENESTRATIONSURFACE:DETAILED,
    Block Build0_Alt0 Storey 0 Wall 0007 window,    !- Name
    Window,                   !- Surface Type
    Project External Window,    !- Construction Name
    Block Build0_Alt0 Storey 0 Wall 0007,    !- Building Surface Name
    ,                         !- Outside Boundary Condition Object
    autocalculate,            !- View Factor to Ground
    ,                         !- Frame and Divider Name
    1.0,                      !- Multiplier
    autocalculate,            !- Number of Vertices
    26.900621,                !- Vertex 1 Xcoordinate
    15.293131,                !- Vertex 1 Ycoordinate
    15.6,                     !- Vertex 1 Zcoordinate
    26.900621,                !- Vertex 2 Xcoordinate
    15.293131,                !- Vertex 2 Ycoordinate
    8.4,                      !- Vertex 2 Zcoordinate
    20.349179,                !- Vertex 3 Xcoordinate
    22.947468999999998,       !- Vertex 3 Ycoordinate
    8.4,                      !- Vertex 3 Zcoordinate
    20.349179,                !- Vertex 4 Xcoordinate
    22.947468999999998,       !- Vertex 4 Ycoordinate
    15.6;                     !- Vertex 4 Zcoordinate

FENESTRATIONSURFACE:DETAILED,
    Block Build0_Alt0 Storey 0 Wall 0008 window,    !- Name
    Window,                   !- Surface Type
    Project External Window,    !- Construction Name
    Block Build0_Alt0 Storey 0 Wall 0008,    !- Building Surface Name
    ,                         !- Outside Boundary Condition Object
    autocalculate,            !- View Factor to Ground
    ,                         !- Frame and Divider Name
    1.0,                      !- Multiplier
    autocalculate,            !- Number of Vertices
    20.344001,                !- Vertex 1 Xcoordinate
    22.949654,                !- Vertex 1 Ycoordinate
    15.6,                     !- Vertex 1 Zcoordinate
    20.344001,                !- Vertex 2 Xcoordinate
    22.949654,                !- Vertex 2 Ycoordinate
    8.4,                      !- Vertex 2 Zcoordinate
    16.549799,                !- Vertex 3 Xcoordinate
    19.660946000000003,       !- Vertex 3 Ycoordinate
    8.4,                      !- Vertex 3 Zcoordinate
    16.549799,                !- Vertex 4 Xcoordinate
    19.660946000000003,       !- Vertex 4 Ycoordinate
    15.6;                     !- Vertex 4 Zcoordinate

FENESTRATIONSURFACE:DETAILED,
    Block Build0_Alt0 Storey 0 Wall 0009 window,    !- Name
    Window,                   !- Surface Type
    Project External Window,    !- Construction Name
    Block Build0_Alt0 Storey 0 Wall 0009,    !- Building Surface Name
    ,                         !- Outside Boundary Condition Object
    autocalculate,            !- View Factor to Ground
    ,                         !- Frame and Divider Name
    1.0,                      !- Multiplier
    autocalculate,            !- Number of Vertices
    16.5449885,               !- Vertex 1 Xcoordinate
    19.6626635,               !- Vertex 1 Ycoordinate
    15.6,                     !- Vertex 1 Zcoordinate
    16.5449885,               !- Vertex 2 Xcoordinate
    19.6626635,               !- Vertex 2 Ycoordinate
    8.4,                      !- Vertex 2 Zcoordinate
    10.7278115,               !- Vertex 3 Xcoordinate
    26.3829365,               !- Vertex 3 Ycoordinate
    8.4,                      !- Vertex 3 Zcoordinate
    10.7278115,               !- Vertex 4 Xcoordinate
    26.3829365,               !- Vertex 4 Ycoordinate
    15.6;                     !- Vertex 4 Zcoordinate

FENESTRATIONSURFACE:DETAILED,
    Block Build0_Alt0 Storey 0 Wall 0010 window,    !- Name
    Window,                   !- Surface Type
    Project External Window,    !- Construction Name
    Block Build0_Alt0 Storey 0 Wall 0010,    !- Building Surface Name
    ,                         !- Outside Boundary Condition Object
    autocalculate,            !- View Factor to Ground
    ,                         !- Frame and Divider Name
    1.0,                      !- Multiplier
    autocalculate,            !- Number of Vertices
    10.721098999999999,       !- Vertex 1 Xcoordinate
    26.3829675,               !- Vertex 1 Ycoordinate
    15.6,                     !- Vertex 1 Zcoordinate
    10.721098999999999,       !- Vertex 2 Xcoordinate
    26.3829675,               !- Vertex 2 Ycoordinate
    8.4,                      !- Vertex 2 Zcoordinate
    3.126701,                 !- Vertex 3 Xcoordinate
    19.7246325,               !- Vertex 3 Ycoordinate
    8.4,                      !- Vertex 3 Zcoordinate
    3.126701,                 !- Vertex 4 Xcoordinate
    19.7246325,               !- Vertex 4 Ycoordinate
    15.6;                     !- Vertex 4 Zcoordinate

FENESTRATIONSURFACE:DETAILED,
    Block Build0_Alt0 Storey 0 Wall 0011 window,    !- Name
    Window,                   !- Surface Type
    Project External Window,    !- Construction Name
    Block Build0_Alt0 Storey 0 Wall 0011,    !- Building Surface Name
    ,                         !- Outside Boundary Condition Object
    autocalculate,            !- View Factor to Ground
    ,                         !- Frame and Divider Name
    1.0,                      !- Multiplier
    autocalculate,            !- Number of Vertices
    3.126071,                 !- Vertex 1 Xcoordinate
    19.7176385,               !- Vertex 1 Ycoordinate
    15.6,                     !- Vertex 1 Zcoordinate
    3.126071,                 !- Vertex 2 Xcoordinate
    19.7176385,               !- Vertex 2 Ycoordinate
    8.4,                      !- Vertex 2 Zcoordinate
    9.461729,                 !- Vertex 3 Xcoordinate
    12.4019615,               !- Vertex 3 Ycoordinate
    8.4,                      !- Vertex 3 Zcoordinate
    9.461729,                 !- Vertex 4 Xcoordinate
    12.4019615,               !- Vertex 4 Ycoordinate
    15.6;                     !- Vertex 4 Zcoordinate

FENESTRATIONSURFACE:DETAILED,
    Block Build0_Alt0 Storey 0 Wall 0012 window,    !- Name
    Window,                   !- Surface Type
    Project External Window,    !- Construction Name
    Block Build0_Alt0 Storey 0 Wall 0012,    !- Building Surface Name
    ,                         !- Outside Boundary Condition Object
    autocalculate,            !- View Factor to Ground
    ,                         !- Frame and Divider Name
    1.0,                      !- Multiplier
    autocalculate,            !- Number of Vertices
    9.461159,                 !- Vertex 1 Xcoordinate
    12.39507725,              !- Vertex 1 Ycoordinate
    15.6,                     !- Vertex 1 Zcoordinate
    9.461159,                 !- Vertex 2 Xcoordinate
    12.39507725,              !- Vertex 2 Ycoordinate
    8.4,                      !- Vertex 2 Zcoordinate
    1.986641,                 !- Vertex 3 Xcoordinate
    5.95602275,               !- Vertex 3 Ycoordinate
    8.4,                      !- Vertex 3 Zcoordinate
    1.986641,                 !- Vertex 4 Xcoordinate
    5.95602275,               !- Vertex 4 Ycoordinate
    15.6;                     !- Vertex 4 Zcoordinate

FENESTRATIONSURFACE:DETAILED,
    Block Build1_Alt0 Storey 0 Wall 0001 window,    !- Name
    Window,                   !- Surface Type
    Project External Window,    !- Construction Name
    Block Build1_Alt0 Storey 0 Wall 0001,    !- Building Surface Name
    ,                         !- Outside Boundary Condition Object
    autocalculate,            !- View Factor to Ground
    ,                         !- Frame and Divider Name
    1.0,                      !- Multiplier
    autocalculate,            !- Number of Vertices
    1.9803134999999998,       !- Vertex 1 Xcoordinate
    5.95057175,               !- Vertex 1 Ycoordinate
    7.8,                      !- Vertex 1 Zcoordinate
    1.9803134999999998,       !- Vertex 2 Xcoordinate
    5.95057175,               !- Vertex 2 Ycoordinate
    4.2,                      !- Vertex 2 Zcoordinate
    -3.1875135,               !- Vertex 3 Xcoordinate
    1.4985282499999997,       !- Vertex 3 Ycoordinate
    4.2,                      !- Vertex 3 Zcoordinate
    -3.1875135,               !- Vertex 4 Xcoordinate
    1.4985282499999997,       !- Vertex 4 Ycoordinate
    7.8;                      !- Vertex 4 Zcoordinate

FENESTRATIONSURFACE:DETAILED,
    Block Build1_Alt0 Storey 0 Wall 0002 window,    !- Name
    Window,                   !- Surface Type
    Project External Window,    !- Construction Name
    Block Build1_Alt0 Storey 0 Wall 0002,    !- Building Surface Name
    ,                         !- Outside Boundary Condition Object
    autocalculate,            !- View Factor to Ground
    ,                         !- Frame and Divider Name
    1.0,                      !- Multiplier
    autocalculate,            !- Number of Vertices
    -3.193831e+00,            !- Vertex 1 Xcoordinate
    1.5006005,                !- Vertex 1 Ycoordinate
    7.8,                      !- Vertex 1 Zcoordinate
    -3.193831e+00,            !- Vertex 2 Xcoordinate
    1.5006005,                !- Vertex 2 Ycoordinate
    4.2,                      !- Vertex 2 Zcoordinate
    -10.6473695,              !- Vertex 3 Xcoordinate
    10.092999500000001,       !- Vertex 3 Ycoordinate
    4.2,                      !- Vertex 3 Zcoordinate
    -10.6473695,              !- Vertex 4 Xcoordinate
    10.092999500000001,       !- Vertex 4 Ycoordinate
    7.8;                      !- Vertex 4 Zcoordinate

FENESTRATIONSURFACE:DETAILED,
    Block Build1_Alt0 Storey 0 Wall 0003 window,    !- Name
    Window,                   !- Surface Type
    Project External Window,    !- Construction Name
    Block Build1_Alt0 Storey 0 Wall 0003,    !- Building Surface Name
    ,                         !- Outside Boundary Condition Object
    autocalculate,            !- View Factor to Ground
    ,                         !- Frame and Divider Name
    1.0,                      !- Multiplier
    autocalculate,            !- Number of Vertices
    -10.654922,               !- Vertex 1 Xcoordinate
    10.0940145,               !- Vertex 1 Ycoordinate
    7.8,                      !- Vertex 1 Zcoordinate
    -10.654922,               !- Vertex 2 Xcoordinate
    10.0940145,               !- Vertex 2 Ycoordinate
    4.2,                      !- Vertex 2 Zcoordinate
    -1.829128e+01,            !- Vertex 3 Xcoordinate
    3.5295855,                !- Vertex 3 Ycoordinate
    4.2,                      !- Vertex 3 Zcoordinate
    -1.829128e+01,            !- Vertex 4 Xcoordinate
    3.5295855,                !- Vertex 4 Ycoordinate
    7.8;                      !- Vertex 4 Zcoordinate

FENESTRATIONSURFACE:DETAILED,
    Block Build1_Alt0 Storey 0 Wall 0004 window,    !- Name
    Window,                   !- Surface Type
    Project External Window,    !- Construction Name
    Block Build1_Alt0 Storey 0 Wall 0004,    !- Building Surface Name
    ,                         !- Outside Boundary Condition Object
    autocalculate,            !- View Factor to Ground
    ,                         !- Frame and Divider Name
    1.0,                      !- Multiplier
    autocalculate,            !- Number of Vertices
    -1.829282e+01,            !- Vertex 1 Xcoordinate
    3.5236335,                !- Vertex 1 Ycoordinate
    7.8,                      !- Vertex 1 Zcoordinate
    -1.829282e+01,            !- Vertex 2 Xcoordinate
    3.5236335,                !- Vertex 2 Ycoordinate
    4.2,                      !- Vertex 2 Zcoordinate
    -1.373438e+01,            !- Vertex 3 Xcoordinate
    -1.8040335,               !- Vertex 3 Ycoordinate
    4.2,                      !- Vertex 3 Zcoordinate
    -1.373438e+01,            !- Vertex 4 Xcoordinate
    -1.8040335,               !- Vertex 4 Ycoordinate
    7.8;                      !- Vertex 4 Zcoordinate

FENESTRATIONSURFACE:DETAILED,
    Block Build1_Alt0 Storey 0 Wall 0005 window,    !- Name
    Window,                   !- Surface Type
    Project External Window,    !- Construction Name
    Block Build1_Alt0 Storey 0 Wall 0005,    !- Building Surface Name
    ,                         !- Outside Boundary Condition Object
    autocalculate,            !- View Factor to Ground
    ,                         !- Frame and Divider Name
    1.0,                      !- Multiplier
    autocalculate,            !- Number of Vertices
    -13.7336235,              !- Vertex 1 Xcoordinate
    -1.807997,                !- Vertex 1 Ycoordinate
    7.8,                      !- Vertex 1 Zcoordinate
    -13.7336235,              !- Vertex 2 Xcoordinate
    -1.807997,                !- Vertex 2 Ycoordinate
    4.2,                      !- Vertex 2 Zcoordinate
    -16.7775765,              !- Vertex 3 Xcoordinate
    -4.399403e+00,            !- Vertex 3 Ycoordinate
    4.2,                      !- Vertex 3 Zcoordinate
    -16.7775765,              !- Vertex 4 Xcoordinate
    -4.399403e+00,            !- Vertex 4 Ycoordinate
    7.8;                      !- Vertex 4 Zcoordinate

FENESTRATIONSURFACE:DETAILED,
    Block Build1_Alt0 Storey 0 Wall 0006 window,    !- Name
    Window,                   !- Surface Type
    Project External Window,    !- Construction Name
    Block Build1_Alt0 Storey 0 Wall 0006,    !- Building Surface Name
    ,                         !- Outside Boundary Condition Object
    autocalculate,            !- View Factor to Ground
    ,                         !- Frame and Divider Name
    1.0,                      !- Multiplier
    autocalculate,            !- Number of Vertices
    -16.7769255,              !- Vertex 1 Xcoordinate
    -4.403241e+00,            !- Vertex 1 Ycoordinate
    7.8,                      !- Vertex 1 Zcoordinate
    -16.7769255,              !- Vertex 2 Xcoordinate
    -4.403241e+00,            !- Vertex 2 Ycoordinate
    4.2,                      !- Vertex 2 Zcoordinate
    -12.4322745,              !- Vertex 3 Xcoordinate
    -9.480159,                !- Vertex 3 Ycoordinate
    4.2,                      !- Vertex 3 Zcoordinate
    -12.4322745,              !- Vertex 4 Xcoordinate
    -9.480159,                !- Vertex 4 Ycoordinate
    7.8;                      !- Vertex 4 Zcoordinate

FENESTRATIONSURFACE:DETAILED,
    Block Build1_Alt0 Storey 0 Wall 0007 window,    !- Name
    Window,                   !- Surface Type
    Project External Window,    !- Construction Name
    Block Build1_Alt0 Storey 0 Wall 0007,    !- Building Surface Name
    ,                         !- Outside Boundary Condition Object
    autocalculate,            !- View Factor to Ground
    ,                         !- Frame and Divider Name
    1.0,                      !- Multiplier
    autocalculate,            !- Number of Vertices
    -12.4285645,              !- Vertex 1 Xcoordinate
    -9.481392999999999,       !- Vertex 1 Ycoordinate
    7.8,                      !- Vertex 1 Zcoordinate
    -12.4285645,              !- Vertex 2 Xcoordinate
    -9.481392999999999,       !- Vertex 2 Ycoordinate
    4.2,                      !- Vertex 2 Zcoordinate
    -9.360635499999999,       !- Vertex 3 Xcoordinate
    -6.870006999999999,       !- Vertex 3 Ycoordinate
    4.2,                      !- Vertex 3 Zcoordinate
    -9.360635499999999,       !- Vertex 4 Xcoordinate
    -6.870006999999999,       !- Vertex 4 Ycoordinate
    7.8;                      !- Vertex 4 Zcoordinate

FENESTRATIONSURFACE:DETAILED,
    Block Build1_Alt0 Storey 0 Wall 0008 window,    !- Name
    Window,                   !- Surface Type
    Project External Window,    !- Construction Name
    Block Build1_Alt0 Storey 0 Wall 0008,    !- Building Surface Name
    ,                         !- Outside Boundary Condition Object
    autocalculate,            !- View Factor to Ground
    ,                         !- Frame and Divider Name
    1.0,                      !- Multiplier
    autocalculate,            !- Number of Vertices
    -9.3556905,               !- Vertex 1 Xcoordinate
    -6.8726375,               !- Vertex 1 Ycoordinate
    7.8,                      !- Vertex 1 Zcoordinate
    -9.3556905,               !- Vertex 2 Xcoordinate
    -6.8726375,               !- Vertex 2 Ycoordinate
    4.2,                      !- Vertex 2 Zcoordinate
    -2.5435095,               !- Vertex 3 Xcoordinate
    -1.473976e+01,            !- Vertex 3 Ycoordinate
    4.2,                      !- Vertex 3 Zcoordinate
    -2.5435095,               !- Vertex 4 Xcoordinate
    -1.473976e+01,            !- Vertex 4 Ycoordinate
    7.8;                      !- Vertex 4 Zcoordinate

FENESTRATIONSURFACE:DETAILED,
    Block Build1_Alt0 Storey 0 Wall 0009 window,    !- Name
    Window,                   !- Surface Type
    Project External Window,    !- Construction Name
    Block Build1_Alt0 Storey 0 Wall 0009,    !- Building Surface Name
    ,                         !- Outside Boundary Condition Object
    autocalculate,            !- View Factor to Ground
    ,                         !- Frame and Divider Name
    1.0,                      !- Multiplier
    autocalculate,            !- Number of Vertices
    -2.536286e+00,            !- Vertex 1 Xcoordinate
    -14.740409,               !- Vertex 1 Ycoordinate
    7.8,                      !- Vertex 1 Zcoordinate
    -2.536286e+00,            !- Vertex 2 Xcoordinate
    -14.740409,               !- Vertex 2 Ycoordinate
    4.2,                      !- Vertex 2 Zcoordinate
    5.084086,                 !- Vertex 3 Xcoordinate
    -8.164991,                !- Vertex 3 Ycoordinate
    4.2,                      !- Vertex 3 Zcoordinate
    5.084086,                 !- Vertex 4 Xcoordinate
    -8.164991,                !- Vertex 4 Ycoordinate
    7.8;                      !- Vertex 4 Zcoordinate

FENESTRATIONSURFACE:DETAILED,
    Block Build1_Alt0 Storey 0 Wall 0010 window,    !- Name
    Window,                   !- Surface Type
    Project External Window,    !- Construction Name
    Block Build1_Alt0 Storey 0 Wall 0010,    !- Building Surface Name
    ,                         !- Outside Boundary Condition Object
    autocalculate,            !- View Factor to Ground
    ,                         !- Frame and Divider Name
    1.0,                      !- Multiplier
    autocalculate,            !- Number of Vertices
    5.0865920000000004,       !- Vertex 1 Xcoordinate
    -8.160187,                !- Vertex 1 Ycoordinate
    7.8,                      !- Vertex 1 Zcoordinate
    5.0865920000000004,       !- Vertex 2 Xcoordinate
    -8.160187,                !- Vertex 2 Ycoordinate
    4.2,                      !- Vertex 2 Zcoordinate
    2.4732080000000005,       !- Vertex 3 Xcoordinate
    -5.137213,                !- Vertex 3 Ycoordinate
    4.2,                      !- Vertex 3 Zcoordinate
    2.4732080000000005,       !- Vertex 4 Xcoordinate
    -5.137213,                !- Vertex 4 Ycoordinate
    7.8;                      !- Vertex 4 Zcoordinate

FENESTRATIONSURFACE:DETAILED,
    Block Build1_Alt0 Storey 0 Wall 0011 window,    !- Name
    Window,                   !- Surface Type
    Project External Window,    !- Construction Name
    Block Build1_Alt0 Storey 0 Wall 0011,    !- Building Surface Name
    ,                         !- Outside Boundary Condition Object
    autocalculate,            !- View Factor to Ground
    ,                         !- Frame and Divider Name
    1.0,                      !- Multiplier
    autocalculate,            !- Number of Vertices
    2.4745362500000003,       !- Vertex 1 Xcoordinate
    -5.133425e+00,            !- Vertex 1 Ycoordinate
    7.8,                      !- Vertex 1 Zcoordinate
    2.4745362500000003,       !- Vertex 2 Xcoordinate
    -5.133425e+00,            !- Vertex 2 Ycoordinate
    4.2,                      !- Vertex 2 Zcoordinate
    7.74176375,               !- Vertex 3 Xcoordinate
    -5.886747e-01,            !- Vertex 3 Ycoordinate
    4.2,                      !- Vertex 3 Zcoordinate
    7.74176375,               !- Vertex 4 Xcoordinate
    -5.886747e-01,            !- Vertex 4 Ycoordinate
    7.8;                      !- Vertex 4 Zcoordinate

FENESTRATIONSURFACE:DETAILED,
    Block Build0_Alt0 Storey 0 Wall 0001_2 window,    !- Name
    Window,                   !- Surface Type
    Project External Window,    !- Construction Name
    Block Build0_Alt0 Storey 0 Wall 0001_2,    !- Building Surface Name
    ,                         !- Outside Boundary Condition Object
    autocalculate,            !- View Factor to Ground
    ,                         !- Frame and Divider Name
    1.0,                      !- Multiplier
    autocalculate,            !- Number of Vertices
    1.9857807503339275,       !- Vertex 1 Xcoordinate
    5.949530399620999,        !- Vertex 1 Ycoordinate
    19.8,                     !- Vertex 1 Zcoordinate
    1.9857807503339275,       !- Vertex 2 Xcoordinate
    5.949530399620999,        !- Vertex 2 Ycoordinate
    16.2,                     !- Vertex 2 Zcoordinate
    7.741519249923401,        !- Vertex 3 Xcoordinate
    -5.831304e-01,            !- Vertex 3 Ycoordinate
    16.2,                     !- Vertex 3 Zcoordinate
    7.741519249923401,        !- Vertex 4 Xcoordinate
    -5.831304e-01,            !- Vertex 4 Ycoordinate
    19.8;                     !- Vertex 4 Zcoordinate

INTERNALMASS,
    Block Build0_Alt0 Storey -1IntMass,    !- Name
    NonHeatedZoneIntMassObj,    !- Construction Name
    Block Build0_Alt0 Storey -1,    !- Zone or ZoneList Name
    835;                      !- Surface Area

INTERNALMASS,
    Block Build1_Alt0 Storey -1IntMass,    !- Name
    NonHeatedZoneIntMassObj,    !- Construction Name
    Block Build1_Alt0 Storey -1,    !- Zone or ZoneList Name
    661;                      !- Surface Area

INTERNALMASS,
    Block Build0_Alt0 Storey 0IntMass,    !- Name
    HeatedZoneIntMassObj,     !- Construction Name
    Block Build0_Alt0 Storey 0,    !- Zone or ZoneList Name
    6681;                     !- Surface Area

INTERNALMASS,
    Block Build1_Alt0 Storey 0IntMass,    !- Name
    HeatedZoneIntMassObj,     !- Construction Name
    Block Build1_Alt0 Storey 0,    !- Zone or ZoneList Name
    2646;                     !- Surface Area

SHADING:SITE:DETAILED,
    Shading_V33_1,            !- Name
    ,                         !- Transmittance Schedule Name
    autocalculate,            !- Number of Vertices
    -31.6861,                 !- Vertex 1 Xcoordinate
    13.0123,                  !- Vertex 1 Ycoordinate
    12.4,                     !- Vertex 1 Zcoordinate
    -31.6861,                 !- Vertex 2 Xcoordinate
    13.0123,                  !- Vertex 2 Ycoordinate
    0,                        !- Vertex 2 Zcoordinate
    -28.6621,                 !- Vertex 3 Xcoordinate
    15.6323,                  !- Vertex 3 Ycoordinate
    0,                        !- Vertex 3 Zcoordinate
    -28.6621,                 !- Vertex 4 Xcoordinate
    15.6323,                  !- Vertex 4 Ycoordinate
    12.4;                     !- Vertex 4 Zcoordinate

SHADING:SITE:DETAILED,
    Shading_V70_1,            !- Name
    ,                         !- Transmittance Schedule Name
    autocalculate,            !- Number of Vertices
    -82.3271,                 !- Vertex 1 Xcoordinate
    -42.0217,                 !- Vertex 1 Ycoordinate
    15,                       !- Vertex 1 Zcoordinate
    -82.3271,                 !- Vertex 2 Xcoordinate
    -42.0217,                 !- Vertex 2 Ycoordinate
    0,                        !- Vertex 2 Zcoordinate
    -77.2991,                 !- Vertex 3 Xcoordinate
    -37.7187,                 !- Vertex 3 Ycoordinate
    0,                        !- Vertex 3 Zcoordinate
    -77.2991,                 !- Vertex 4 Xcoordinate
    -37.7187,                 !- Vertex 4 Ycoordinate
    15;                       !- Vertex 4 Zcoordinate

SHADING:SITE:DETAILED,
    Shading_V71_1,            !- Name
    ,                         !- Transmittance Schedule Name
    autocalculate,            !- Number of Vertices
    -77.2991,                 !- Vertex 1 Xcoordinate
    -37.7187,                 !- Vertex 1 Ycoordinate
    15,                       !- Vertex 1 Zcoordinate
    -77.2991,                 !- Vertex 2 Xcoordinate
    -37.7187,                 !- Vertex 2 Ycoordinate
    0,                        !- Vertex 2 Zcoordinate
    -80.4821,                 !- Vertex 3 Xcoordinate
    -34.1017,                 !- Vertex 3 Ycoordinate
    0,                        !- Vertex 3 Zcoordinate
    -80.4821,                 !- Vertex 4 Xcoordinate
    -34.1017,                 !- Vertex 4 Ycoordinate
    15;                       !- Vertex 4 Zcoordinate

SHADING:SITE:DETAILED,
    Shading_V74_1,            !- Name
    ,                         !- Transmittance Schedule Name
    autocalculate,            !- Number of Vertices
    -64.8591,                 !- Vertex 1 Xcoordinate
    -27.0737,                 !- Vertex 1 Ycoordinate
    15,                       !- Vertex 1 Zcoordinate
    -64.8591,                 !- Vertex 2 Xcoordinate
    -27.0737,                 !- Vertex 2 Ycoordinate
    0,                        !- Vertex 2 Zcoordinate
    -59.7771,                 !- Vertex 3 Xcoordinate
    -22.7237,                 !- Vertex 3 Ycoordinate
    0,                        !- Vertex 3 Zcoordinate
    -59.7771,                 !- Vertex 4 Xcoordinate
    -22.7237,                 !- Vertex 4 Ycoordinate
    15;                       !- Vertex 4 Zcoordinate

SHADING:SITE:DETAILED,
    Shading_V75_1,            !- Name
    ,                         !- Transmittance Schedule Name
    autocalculate,            !- Number of Vertices
    -59.7771,                 !- Vertex 1 Xcoordinate
    -22.7237,                 !- Vertex 1 Ycoordinate
    15,                       !- Vertex 1 Zcoordinate
    -59.7771,                 !- Vertex 2 Xcoordinate
    -22.7237,                 !- Vertex 2 Ycoordinate
    0,                        !- Vertex 2 Zcoordinate
    -62.9761,                 !- Vertex 3 Xcoordinate
    -19.0207,                 !- Vertex 3 Ycoordinate
    0,                        !- Vertex 3 Zcoordinate
    -62.9761,                 !- Vertex 4 Xcoordinate
    -19.0207,                 !- Vertex 4 Ycoordinate
    15;                       !- Vertex 4 Zcoordinate

SHADING:SITE:DETAILED,
    Shading_V98_1,            !- Name
    ,                         !- Transmittance Schedule Name
    autocalculate,            !- Number of Vertices
    -53.0641,                 !- Vertex 1 Xcoordinate
    -30.6537,                 !- Vertex 1 Ycoordinate
    15.5,                     !- Vertex 1 Zcoordinate
    -53.0641,                 !- Vertex 2 Xcoordinate
    -30.6537,                 !- Vertex 2 Ycoordinate
    0,                        !- Vertex 2 Zcoordinate
    -58.0811,                 !- Vertex 3 Xcoordinate
    -34.8637,                 !- Vertex 3 Ycoordinate
    0,                        !- Vertex 3 Zcoordinate
    -58.0811,                 !- Vertex 4 Xcoordinate
    -34.8637,                 !- Vertex 4 Ycoordinate
    15.5;                     !- Vertex 4 Zcoordinate

SHADING:SITE:DETAILED,
    Shading_V102_1,           !- Name
    ,                         !- Transmittance Schedule Name
    autocalculate,            !- Number of Vertices
    -70.7161,                 !- Vertex 1 Xcoordinate
    -45.4617,                 !- Vertex 1 Ycoordinate
    15.5,                     !- Vertex 1 Zcoordinate
    -70.7161,                 !- Vertex 2 Xcoordinate
    -45.4617,                 !- Vertex 2 Ycoordinate
    0,                        !- Vertex 2 Zcoordinate
    -75.8651,                 !- Vertex 3 Xcoordinate
    -49.7797,                 !- Vertex 3 Ycoordinate
    0,                        !- Vertex 3 Zcoordinate
    -75.8651,                 !- Vertex 4 Xcoordinate
    -49.7797,                 !- Vertex 4 Ycoordinate
    15.5;                     !- Vertex 4 Zcoordinate

SHADING:SITE:DETAILED,
    Shading_V215_1,           !- Name
    ,                         !- Transmittance Schedule Name
    autocalculate,            !- Number of Vertices
    -17.7361,                 !- Vertex 1 Xcoordinate
    -19.0577,                 !- Vertex 1 Ycoordinate
    14.3,                     !- Vertex 1 Zcoordinate
    -17.7361,                 !- Vertex 2 Xcoordinate
    -19.0577,                 !- Vertex 2 Ycoordinate
    0,                        !- Vertex 2 Zcoordinate
    -23.0271,                 !- Vertex 3 Xcoordinate
    -12.8737,                 !- Vertex 3 Ycoordinate
    0,                        !- Vertex 3 Zcoordinate
    -23.0271,                 !- Vertex 4 Xcoordinate
    -12.8737,                 !- Vertex 4 Ycoordinate
    14.3;                     !- Vertex 4 Zcoordinate

SHADING:SITE:DETAILED,
    Shading_V216_1,           !- Name
    ,                         !- Transmittance Schedule Name
    autocalculate,            !- Number of Vertices
    -23.0271,                 !- Vertex 1 Xcoordinate
    -12.8737,                 !- Vertex 1 Ycoordinate
    14.3,                     !- Vertex 1 Zcoordinate
    -23.0271,                 !- Vertex 2 Xcoordinate
    -12.8737,                 !- Vertex 2 Ycoordinate
    0,                        !- Vertex 2 Zcoordinate
    -28.9791,                 !- Vertex 3 Xcoordinate
    -17.9827,                 !- Vertex 3 Ycoordinate
    0,                        !- Vertex 3 Zcoordinate
    -28.9791,                 !- Vertex 4 Xcoordinate
    -17.9827,                 !- Vertex 4 Ycoordinate
    14.3;                     !- Vertex 4 Zcoordinate

SHADING:SITE:DETAILED,
    Shading_V217_1,           !- Name
    ,                         !- Transmittance Schedule Name
    autocalculate,            !- Number of Vertices
    -28.9791,                 !- Vertex 1 Xcoordinate
    -17.9827,                 !- Vertex 1 Ycoordinate
    14.3,                     !- Vertex 1 Zcoordinate
    -28.9791,                 !- Vertex 2 Xcoordinate
    -17.9827,                 !- Vertex 2 Ycoordinate
    0,                        !- Vertex 2 Zcoordinate
    -32.7011,                 !- Vertex 3 Xcoordinate
    -13.6407,                 !- Vertex 3 Ycoordinate
    0,                        !- Vertex 3 Zcoordinate
    -32.7011,                 !- Vertex 4 Xcoordinate
    -13.6407,                 !- Vertex 4 Ycoordinate
    14.3;                     !- Vertex 4 Zcoordinate

SHADING:SITE:DETAILED,
    Shading_V218_1,           !- Name
    ,                         !- Transmittance Schedule Name
    autocalculate,            !- Number of Vertices
    -32.7011,                 !- Vertex 1 Xcoordinate
    -13.6407,                 !- Vertex 1 Ycoordinate
    14.3,                     !- Vertex 1 Zcoordinate
    -32.7011,                 !- Vertex 2 Xcoordinate
    -13.6407,                 !- Vertex 2 Ycoordinate
    0,                        !- Vertex 2 Zcoordinate
    -40.1261,                 !- Vertex 3 Xcoordinate
    -19.8327,                 !- Vertex 3 Ycoordinate
    0,                        !- Vertex 3 Zcoordinate
    -40.1261,                 !- Vertex 4 Xcoordinate
    -19.8327,                 !- Vertex 4 Ycoordinate
    14.3;                     !- Vertex 4 Zcoordinate

SHADING:SITE:DETAILED,
    Shading_V283_1,           !- Name
    ,                         !- Transmittance Schedule Name
    autocalculate,            !- Number of Vertices
    -115.5781,                !- Vertex 1 Xcoordinate
    -71.7127,                 !- Vertex 1 Ycoordinate
    18.7,                     !- Vertex 1 Zcoordinate
    -115.5781,                !- Vertex 2 Xcoordinate
    -71.7127,                 !- Vertex 2 Ycoordinate
    0,                        !- Vertex 2 Zcoordinate
    -107.9361,                !- Vertex 3 Xcoordinate
    -65.1247,                 !- Vertex 3 Ycoordinate
    0,                        !- Vertex 3 Zcoordinate
    -107.9361,                !- Vertex 4 Xcoordinate
    -65.1247,                 !- Vertex 4 Ycoordinate
    18.7;                     !- Vertex 4 Zcoordinate

SHADING:SITE:DETAILED,
    Shading_V284_1,           !- Name
    ,                         !- Transmittance Schedule Name
    autocalculate,            !- Number of Vertices
    -107.9361,                !- Vertex 1 Xcoordinate
    -65.1247,                 !- Vertex 1 Ycoordinate
    18.7,                     !- Vertex 1 Zcoordinate
    -107.9361,                !- Vertex 2 Xcoordinate
    -65.1247,                 !- Vertex 2 Ycoordinate
    0,                        !- Vertex 2 Zcoordinate
    -113.7631,                !- Vertex 3 Xcoordinate
    -58.3587,                 !- Vertex 3 Ycoordinate
    0,                        !- Vertex 3 Zcoordinate
    -113.7631,                !- Vertex 4 Xcoordinate
    -58.3587,                 !- Vertex 4 Ycoordinate
    18.7;                     !- Vertex 4 Zcoordinate

SHADING:SITE:DETAILED,
    Shading_V412_1,           !- Name
    ,                         !- Transmittance Schedule Name
    autocalculate,            !- Number of Vertices
    -63.6461,                 !- Vertex 1 Xcoordinate
    22.3173,                  !- Vertex 1 Ycoordinate
    15.9,                     !- Vertex 1 Zcoordinate
    -63.6461,                 !- Vertex 2 Xcoordinate
    22.3173,                  !- Vertex 2 Ycoordinate
    0,                        !- Vertex 2 Zcoordinate
    -62.3741,                 !- Vertex 3 Xcoordinate
    38.7173,                  !- Vertex 3 Ycoordinate
    0,                        !- Vertex 3 Zcoordinate
    -62.3741,                 !- Vertex 4 Xcoordinate
    38.7173,                  !- Vertex 4 Ycoordinate
    15.9;                     !- Vertex 4 Zcoordinate

SHADING:SITE:DETAILED,
    Shading_V427_1,           !- Name
    ,                         !- Transmittance Schedule Name
    autocalculate,            !- Number of Vertices
    -47.3441,                 !- Vertex 1 Xcoordinate
    -12.0847,                 !- Vertex 1 Ycoordinate
    15.9,                     !- Vertex 1 Zcoordinate
    -47.3441,                 !- Vertex 2 Xcoordinate
    -12.0847,                 !- Vertex 2 Ycoordinate
    0,                        !- Vertex 2 Zcoordinate
    -39.6591,                 !- Vertex 3 Xcoordinate
    -5.5087,                  !- Vertex 3 Ycoordinate
    0,                        !- Vertex 3 Zcoordinate
    -39.6591,                 !- Vertex 4 Xcoordinate
    -5.5087,                  !- Vertex 4 Ycoordinate
    15.9;                     !- Vertex 4 Zcoordinate

SHADING:SITE:DETAILED,
    Shading_V428_1,           !- Name
    ,                         !- Transmittance Schedule Name
    autocalculate,            !- Number of Vertices
    -39.6591,                 !- Vertex 1 Xcoordinate
    -5.5087,                  !- Vertex 1 Ycoordinate
    15.9,                     !- Vertex 1 Zcoordinate
    -39.6591,                 !- Vertex 2 Xcoordinate
    -5.5087,                  !- Vertex 2 Ycoordinate
    0,                        !- Vertex 2 Zcoordinate
    -43.7401,                 !- Vertex 3 Xcoordinate
    -0.7667,                  !- Vertex 3 Ycoordinate
    0,                        !- Vertex 3 Zcoordinate
    -43.7401,                 !- Vertex 4 Xcoordinate
    -0.7667,                  !- Vertex 4 Ycoordinate
    15.9;                     !- Vertex 4 Zcoordinate

SHADING:SITE:DETAILED,
    Shading_V429_1,           !- Name
    ,                         !- Transmittance Schedule Name
    autocalculate,            !- Number of Vertices
    -43.7401,                 !- Vertex 1 Xcoordinate
    -0.7667,                  !- Vertex 1 Ycoordinate
    15.9,                     !- Vertex 1 Zcoordinate
    -43.7401,                 !- Vertex 2 Xcoordinate
    -0.7667,                  !- Vertex 2 Ycoordinate
    0,                        !- Vertex 2 Zcoordinate
    -37.7861,                 !- Vertex 3 Xcoordinate
    4.3713,                   !- Vertex 3 Ycoordinate
    0,                        !- Vertex 3 Zcoordinate
    -37.7861,                 !- Vertex 4 Xcoordinate
    4.3713,                   !- Vertex 4 Ycoordinate
    15.9;                     !- Vertex 4 Zcoordinate

SHADING:SITE:DETAILED,
    Shading_V430_1,           !- Name
    ,                         !- Transmittance Schedule Name
    autocalculate,            !- Number of Vertices
    -37.7861,                 !- Vertex 1 Xcoordinate
    4.3713,                   !- Vertex 1 Ycoordinate
    15.9,                     !- Vertex 1 Zcoordinate
    -37.7861,                 !- Vertex 2 Xcoordinate
    4.3713,                   !- Vertex 2 Ycoordinate
    0,                        !- Vertex 2 Zcoordinate
    -43.0291,                 !- Vertex 3 Xcoordinate
    10.4983,                  !- Vertex 3 Ycoordinate
    0,                        !- Vertex 3 Zcoordinate
    -43.0291,                 !- Vertex 4 Xcoordinate
    10.4983,                  !- Vertex 4 Ycoordinate
    15.9;                     !- Vertex 4 Zcoordinate

SHADING:SITE:DETAILED,
    Shading_V37_1,            !- Name
    ,                         !- Transmittance Schedule Name
    autocalculate,            !- Number of Vertices
    -23.9091,                 !- Vertex 1 Xcoordinate
    25.5063,                  !- Vertex 1 Ycoordinate
    12.4,                     !- Vertex 1 Zcoordinate
    -23.9091,                 !- Vertex 2 Xcoordinate
    25.5063,                  !- Vertex 2 Ycoordinate
    0,                        !- Vertex 2 Zcoordinate
    -18.4752,                 !- Vertex 3 Xcoordinate
    29.9591,                  !- Vertex 3 Ycoordinate
    0,                        !- Vertex 3 Zcoordinate
    -18.4752,                 !- Vertex 4 Xcoordinate
    29.9591,                  !- Vertex 4 Ycoordinate
    12.4;                     !- Vertex 4 Zcoordinate

SHADING:SITE:DETAILED,
    Shading_V399_1,           !- Name
    ,                         !- Transmittance Schedule Name
    autocalculate,            !- Number of Vertices
    -18.4752,                 !- Vertex 1 Xcoordinate
    29.9591,                  !- Vertex 1 Ycoordinate
    23.9,                     !- Vertex 1 Zcoordinate
    -18.4752,                 !- Vertex 2 Xcoordinate
    29.9591,                  !- Vertex 2 Ycoordinate
    0,                        !- Vertex 2 Zcoordinate
    -10.9271,                 !- Vertex 3 Xcoordinate
    36.1443,                  !- Vertex 3 Ycoordinate
    0,                        !- Vertex 3 Zcoordinate
    -10.9271,                 !- Vertex 4 Xcoordinate
    36.1443,                  !- Vertex 4 Ycoordinate
    23.9;                     !- Vertex 4 Zcoordinate

SHADING:SITE:DETAILED,
    Shading_V400_1,           !- Name
    ,                         !- Transmittance Schedule Name
    autocalculate,            !- Number of Vertices
    -10.9271,                 !- Vertex 1 Xcoordinate
    36.1443,                  !- Vertex 1 Ycoordinate
    23.9,                     !- Vertex 1 Zcoordinate
    -10.9271,                 !- Vertex 2 Xcoordinate
    36.1443,                  !- Vertex 2 Ycoordinate
    0,                        !- Vertex 2 Zcoordinate
    -5.9411,                  !- Vertex 3 Xcoordinate
    30.3423,                  !- Vertex 3 Ycoordinate
    0,                        !- Vertex 3 Zcoordinate
    -5.9411,                  !- Vertex 4 Xcoordinate
    30.3423,                  !- Vertex 4 Ycoordinate
    23.9;                     !- Vertex 4 Zcoordinate

SHADING:SITE:DETAILED,
    Shading_V401_1,           !- Name
    ,                         !- Transmittance Schedule Name
    autocalculate,            !- Number of Vertices
    -5.9411,                  !- Vertex 1 Xcoordinate
    30.3423,                  !- Vertex 1 Ycoordinate
    23.9,                     !- Vertex 1 Zcoordinate
    -5.9411,                  !- Vertex 2 Xcoordinate
    30.3423,                  !- Vertex 2 Ycoordinate
    0,                        !- Vertex 2 Zcoordinate
    1.7389,                   !- Vertex 3 Xcoordinate
    36.9333,                  !- Vertex 3 Ycoordinate
    0,                        !- Vertex 3 Zcoordinate
    1.7389,                   !- Vertex 4 Xcoordinate
    36.9333,                  !- Vertex 4 Ycoordinate
    23.9;                     !- Vertex 4 Zcoordinate

SHADING:SITE:DETAILED,
    Shading_V210_1,           !- Name
    ,                         !- Transmittance Schedule Name
    autocalculate,            !- Number of Vertices
    19.5229,                  !- Vertex 1 Xcoordinate
    -44.1917,                 !- Vertex 1 Ycoordinate
    14.3,                     !- Vertex 1 Zcoordinate
    19.5229,                  !- Vertex 2 Xcoordinate
    -44.1917,                 !- Vertex 2 Ycoordinate
    0,                        !- Vertex 2 Zcoordinate
    12.8819,                  !- Vertex 3 Xcoordinate
    -36.4317,                 !- Vertex 3 Ycoordinate
    0,                        !- Vertex 3 Zcoordinate
    12.8819,                  !- Vertex 4 Xcoordinate
    -36.4317,                 !- Vertex 4 Ycoordinate
    14.3;                     !- Vertex 4 Zcoordinate

SHADING:SITE:DETAILED,
    Shading_V211_1,           !- Name
    ,                         !- Transmittance Schedule Name
    autocalculate,            !- Number of Vertices
    12.8819,                  !- Vertex 1 Xcoordinate
    -36.4317,                 !- Vertex 1 Ycoordinate
    14.3,                     !- Vertex 1 Zcoordinate
    12.8819,                  !- Vertex 2 Xcoordinate
    -36.4317,                 !- Vertex 2 Ycoordinate
    0,                        !- Vertex 2 Zcoordinate
    7.6009,                   !- Vertex 3 Xcoordinate
    -40.9007,                 !- Vertex 3 Ycoordinate
    0,                        !- Vertex 3 Zcoordinate
    7.6009,                   !- Vertex 4 Xcoordinate
    -40.9007,                 !- Vertex 4 Ycoordinate
    14.3;                     !- Vertex 4 Zcoordinate

SHADING:SITE:DETAILED,
    Shading_V212_1,           !- Name
    ,                         !- Transmittance Schedule Name
    autocalculate,            !- Number of Vertices
    7.6009,                   !- Vertex 1 Xcoordinate
    -40.9007,                 !- Vertex 1 Ycoordinate
    14.3,                     !- Vertex 1 Zcoordinate
    7.6009,                   !- Vertex 2 Xcoordinate
    -40.9007,                 !- Vertex 2 Ycoordinate
    0,                        !- Vertex 2 Zcoordinate
    -10.4201,                 !- Vertex 3 Xcoordinate
    -39.5367,                 !- Vertex 3 Ycoordinate
    0,                        !- Vertex 3 Zcoordinate
    -10.4201,                 !- Vertex 4 Xcoordinate
    -39.5367,                 !- Vertex 4 Ycoordinate
    14.3;                     !- Vertex 4 Zcoordinate

SHADING:SITE:DETAILED,
    Shading_V213_1,           !- Name
    ,                         !- Transmittance Schedule Name
    autocalculate,            !- Number of Vertices
    -10.4201,                 !- Vertex 1 Xcoordinate
    -39.5367,                 !- Vertex 1 Ycoordinate
    14.3,                     !- Vertex 1 Zcoordinate
    -10.4201,                 !- Vertex 2 Xcoordinate
    -39.5367,                 !- Vertex 2 Ycoordinate
    0,                        !- Vertex 2 Zcoordinate
    -23.6321,                 !- Vertex 3 Xcoordinate
    -24.1417,                 !- Vertex 3 Ycoordinate
    0,                        !- Vertex 3 Zcoordinate
    -23.6321,                 !- Vertex 4 Xcoordinate
    -24.1417,                 !- Vertex 4 Ycoordinate
    14.3;                     !- Vertex 4 Zcoordinate

SHADING:SITE:DETAILED,
    Shading_V250_1,           !- Name
    ,                         !- Transmittance Schedule Name
    autocalculate,            !- Number of Vertices
    19.4879,                  !- Vertex 1 Xcoordinate
    -31.5007,                 !- Vertex 1 Ycoordinate
    16.1,                     !- Vertex 1 Zcoordinate
    19.4879,                  !- Vertex 2 Xcoordinate
    -31.5007,                 !- Vertex 2 Ycoordinate
    0,                        !- Vertex 2 Zcoordinate
    25.6059,                  !- Vertex 3 Xcoordinate
    -38.5697,                 !- Vertex 3 Ycoordinate
    0,                        !- Vertex 3 Zcoordinate
    25.6059,                  !- Vertex 4 Xcoordinate
    -38.5697,                 !- Vertex 4 Ycoordinate
    16.1;                     !- Vertex 4 Zcoordinate

SHADING:SITE:DETAILED,
    Shading_V473_1,           !- Name
    ,                         !- Transmittance Schedule Name
    autocalculate,            !- Number of Vertices
    62.1109,                  !- Vertex 1 Xcoordinate
    -77.6497,                 !- Vertex 1 Ycoordinate
    12.8,                     !- Vertex 1 Zcoordinate
    62.1109,                  !- Vertex 2 Xcoordinate
    -77.6497,                 !- Vertex 2 Ycoordinate
    0,                        !- Vertex 2 Zcoordinate
    54.4699,                  !- Vertex 3 Xcoordinate
    -84.2087,                 !- Vertex 3 Ycoordinate
    0,                        !- Vertex 3 Zcoordinate
    54.4699,                  !- Vertex 4 Xcoordinate
    -84.2087,                 !- Vertex 4 Ycoordinate
    12.8;                     !- Vertex 4 Zcoordinate

SHADING:SITE:DETAILED,
    Shading_V494_1,           !- Name
    ,                         !- Transmittance Schedule Name
    autocalculate,            !- Number of Vertices
    36.5889,                  !- Vertex 1 Xcoordinate
    -51.3847,                 !- Vertex 1 Ycoordinate
    16.4,                     !- Vertex 1 Zcoordinate
    36.5889,                  !- Vertex 2 Xcoordinate
    -51.3847,                 !- Vertex 2 Ycoordinate
    0,                        !- Vertex 2 Zcoordinate
    42.7719,                  !- Vertex 3 Xcoordinate
    -58.5337,                 !- Vertex 3 Ycoordinate
    0,                        !- Vertex 3 Zcoordinate
    42.7719,                  !- Vertex 4 Xcoordinate
    -58.5337,                 !- Vertex 4 Ycoordinate
    16.4;                     !- Vertex 4 Zcoordinate

SHADING:SITE:DETAILED,
    Shading_V263_1,           !- Name
    ,                         !- Transmittance Schedule Name
    autocalculate,            !- Number of Vertices
    46.9869,                  !- Vertex 1 Xcoordinate
    5.6333,                   !- Vertex 1 Ycoordinate
    16.1,                     !- Vertex 1 Zcoordinate
    46.9869,                  !- Vertex 2 Xcoordinate
    5.6333,                   !- Vertex 2 Ycoordinate
    0,                        !- Vertex 2 Zcoordinate
    39.3189,                  !- Vertex 3 Xcoordinate
    -0.9267,                  !- Vertex 3 Ycoordinate
    0,                        !- Vertex 3 Zcoordinate
    39.3189,                  !- Vertex 4 Xcoordinate
    -0.9267,                  !- Vertex 4 Ycoordinate
    16.1;                     !- Vertex 4 Zcoordinate

SHADING:SITE:DETAILED,
    Shading_V264_1,           !- Name
    ,                         !- Transmittance Schedule Name
    autocalculate,            !- Number of Vertices
    39.3189,                  !- Vertex 1 Xcoordinate
    -0.9267,                  !- Vertex 1 Ycoordinate
    16.1,                     !- Vertex 1 Zcoordinate
    39.3189,                  !- Vertex 2 Xcoordinate
    -0.9267,                  !- Vertex 2 Ycoordinate
    0,                        !- Vertex 2 Zcoordinate
    46.0199,                  !- Vertex 3 Xcoordinate
    -8.7077,                  !- Vertex 3 Ycoordinate
    0,                        !- Vertex 3 Zcoordinate
    46.0199,                  !- Vertex 4 Xcoordinate
    -8.7077,                  !- Vertex 4 Ycoordinate
    16.1;                     !- Vertex 4 Zcoordinate

SHADING:SITE:DETAILED,
    Shading_V265_1,           !- Name
    ,                         !- Transmittance Schedule Name
    autocalculate,            !- Number of Vertices
    46.0199,                  !- Vertex 1 Xcoordinate
    -8.7077,                  !- Vertex 1 Ycoordinate
    16.1,                     !- Vertex 1 Zcoordinate
    46.0199,                  !- Vertex 2 Xcoordinate
    -8.7077,                  !- Vertex 2 Ycoordinate
    0,                        !- Vertex 2 Zcoordinate
    29.0672,                  !- Vertex 3 Xcoordinate
    -23.2122,                 !- Vertex 3 Ycoordinate
    0,                        !- Vertex 3 Zcoordinate
    29.0672,                  !- Vertex 4 Xcoordinate
    -23.2122,                 !- Vertex 4 Ycoordinate
    16.1;                     !- Vertex 4 Zcoordinate

SHADING:SITE:DETAILED,
    Shading_V370_1,           !- Name
    ,                         !- Transmittance Schedule Name
    autocalculate,            !- Number of Vertices
    26.2359,                  !- Vertex 1 Xcoordinate
    -58.1897,                 !- Vertex 1 Ycoordinate
    14.2,                     !- Vertex 1 Zcoordinate
    26.2359,                  !- Vertex 2 Xcoordinate
    -58.1897,                 !- Vertex 2 Ycoordinate
    0,                        !- Vertex 2 Zcoordinate
    23.6359,                  !- Vertex 3 Xcoordinate
    -55.1497,                 !- Vertex 3 Ycoordinate
    0,                        !- Vertex 3 Zcoordinate
    23.6359,                  !- Vertex 4 Xcoordinate
    -55.1497,                 !- Vertex 4 Ycoordinate
    14.2;                     !- Vertex 4 Zcoordinate

SHADING:SITE:DETAILED,
    Shading_V468_1,           !- Name
    ,                         !- Transmittance Schedule Name
    autocalculate,            !- Number of Vertices
    22.6419,                  !- Vertex 1 Xcoordinate
    -15.7417,                 !- Vertex 1 Ycoordinate
    12,                       !- Vertex 1 Zcoordinate
    22.6419,                  !- Vertex 2 Xcoordinate
    -15.7417,                 !- Vertex 2 Ycoordinate
    0,                        !- Vertex 2 Zcoordinate
    16.0469,                  !- Vertex 3 Xcoordinate
    -21.4117,                 !- Vertex 3 Ycoordinate
    0,                        !- Vertex 3 Zcoordinate
    16.0469,                  !- Vertex 4 Xcoordinate
    -21.4117,                 !- Vertex 4 Ycoordinate
    12;                       !- Vertex 4 Zcoordinate

SHADING:SITE:DETAILED,
    Shading_V34_1,            !- Name
    ,                         !- Transmittance Schedule Name
    autocalculate,            !- Number of Vertices
    -28.6621,                 !- Vertex 1 Xcoordinate
    15.6323,                  !- Vertex 1 Ycoordinate
    12.4,                     !- Vertex 1 Zcoordinate
    -28.6621,                 !- Vertex 2 Xcoordinate
    15.6323,                  !- Vertex 2 Ycoordinate
    0,                        !- Vertex 2 Zcoordinate
    -24.0811,                 !- Vertex 3 Xcoordinate
    10.3413,                  !- Vertex 3 Ycoordinate
    0,                        !- Vertex 3 Zcoordinate
    -24.0811,                 !- Vertex 4 Xcoordinate
    10.3413,                  !- Vertex 4 Ycoordinate
    12.4;                     !- Vertex 4 Zcoordinate

SHADING:SITE:DETAILED,
    Shading_V76_1,            !- Name
    ,                         !- Transmittance Schedule Name
    autocalculate,            !- Number of Vertices
    -62.9761,                 !- Vertex 1 Xcoordinate
    -19.0207,                 !- Vertex 1 Ycoordinate
    15,                       !- Vertex 1 Zcoordinate
    -62.9761,                 !- Vertex 2 Xcoordinate
    -19.0207,                 !- Vertex 2 Ycoordinate
    0,                        !- Vertex 2 Zcoordinate
    -56.7841,                 !- Vertex 3 Xcoordinate
    -13.7377,                 !- Vertex 3 Ycoordinate
    0,                        !- Vertex 3 Zcoordinate
    -56.7841,                 !- Vertex 4 Xcoordinate
    -13.7377,                 !- Vertex 4 Ycoordinate
    15;                       !- Vertex 4 Zcoordinate

SHADING:SITE:DETAILED,
    Shading_V413_1,           !- Name
    ,                         !- Transmittance Schedule Name
    autocalculate,            !- Number of Vertices
    -62.3741,                 !- Vertex 1 Xcoordinate
    38.7173,                  !- Vertex 1 Ycoordinate
    15.9,                     !- Vertex 1 Zcoordinate
    -62.3741,                 !- Vertex 2 Xcoordinate
    38.7173,                  !- Vertex 2 Ycoordinate
    0,                        !- Vertex 2 Zcoordinate
    -53.0001,                 !- Vertex 3 Xcoordinate
    37.9943,                  !- Vertex 3 Ycoordinate
    0,                        !- Vertex 3 Zcoordinate
    -53.0001,                 !- Vertex 4 Xcoordinate
    37.9943,                  !- Vertex 4 Ycoordinate
    15.9;                     !- Vertex 4 Zcoordinate

SHADING:SITE:DETAILED,
    Shading_V32_1,            !- Name
    ,                         !- Transmittance Schedule Name
    autocalculate,            !- Number of Vertices
    -36.0671,                 !- Vertex 1 Xcoordinate
    18.0713,                  !- Vertex 1 Ycoordinate
    12.4,                     !- Vertex 1 Zcoordinate
    -36.0671,                 !- Vertex 2 Xcoordinate
    18.0713,                  !- Vertex 2 Ycoordinate
    0,                        !- Vertex 2 Zcoordinate
    -31.6861,                 !- Vertex 3 Xcoordinate
    13.0123,                  !- Vertex 3 Ycoordinate
    0,                        !- Vertex 3 Zcoordinate
    -31.6861,                 !- Vertex 4 Xcoordinate
    13.0123,                  !- Vertex 4 Ycoordinate
    12.4;                     !- Vertex 4 Zcoordinate

SHADING:SITE:DETAILED,
    Shading_V214_1,           !- Name
    ,                         !- Transmittance Schedule Name
    autocalculate,            !- Number of Vertices
    -23.6321,                 !- Vertex 1 Xcoordinate
    -24.1417,                 !- Vertex 1 Ycoordinate
    14.3,                     !- Vertex 1 Zcoordinate
    -23.6321,                 !- Vertex 2 Xcoordinate
    -24.1417,                 !- Vertex 2 Ycoordinate
    0,                        !- Vertex 2 Zcoordinate
    -17.7361,                 !- Vertex 3 Xcoordinate
    -19.0577,                 !- Vertex 3 Ycoordinate
    0,                        !- Vertex 3 Zcoordinate
    -17.7361,                 !- Vertex 4 Xcoordinate
    -19.0577,                 !- Vertex 4 Ycoordinate
    14.3;                     !- Vertex 4 Zcoordinate

SHADING:SITE:DETAILED,
    Shading_V369_1,           !- Name
    ,                         !- Transmittance Schedule Name
    autocalculate,            !- Number of Vertices
    31.9349,                  !- Vertex 1 Xcoordinate
    -53.3117,                 !- Vertex 1 Ycoordinate
    14.2,                     !- Vertex 1 Zcoordinate
    31.9349,                  !- Vertex 2 Xcoordinate
    -53.3117,                 !- Vertex 2 Ycoordinate
    0,                        !- Vertex 2 Zcoordinate
    26.2359,                  !- Vertex 3 Xcoordinate
    -58.1897,                 !- Vertex 3 Ycoordinate
    0,                        !- Vertex 3 Zcoordinate
    26.2359,                  !- Vertex 4 Xcoordinate
    -58.1897,                 !- Vertex 4 Ycoordinate
    14.2;                     !- Vertex 4 Zcoordinate

SHADING:SITE:DETAILED,
    Shading_V467_1,           !- Name
    ,                         !- Transmittance Schedule Name
    autocalculate,            !- Number of Vertices
    29.0672,                  !- Vertex 1 Xcoordinate
    -23.2122,                 !- Vertex 1 Ycoordinate
    12,                       !- Vertex 1 Zcoordinate
    29.0672,                  !- Vertex 2 Xcoordinate
    -23.2122,                 !- Vertex 2 Ycoordinate
    0,                        !- Vertex 2 Zcoordinate
    22.6419,                  !- Vertex 3 Xcoordinate
    -15.7417,                 !- Vertex 3 Ycoordinate
    0,                        !- Vertex 3 Zcoordinate
    22.6419,                  !- Vertex 4 Xcoordinate
    -15.7417,                 !- Vertex 4 Ycoordinate
    12;                       !- Vertex 4 Zcoordinate

SHADING:SITE:DETAILED,
    Shading_V35_1,            !- Name
    ,                         !- Transmittance Schedule Name
    autocalculate,            !- Number of Vertices
    -24.0811,                 !- Vertex 1 Xcoordinate
    10.3413,                  !- Vertex 1 Ycoordinate
    12.4,                     !- Vertex 1 Zcoordinate
    -24.0811,                 !- Vertex 2 Xcoordinate
    10.3413,                  !- Vertex 2 Ycoordinate
    0,                        !- Vertex 2 Zcoordinate
    -16.4731,                 !- Vertex 3 Xcoordinate
    16.8843,                  !- Vertex 3 Ycoordinate
    0,                        !- Vertex 3 Zcoordinate
    -16.4731,                 !- Vertex 4 Xcoordinate
    16.8843,                  !- Vertex 4 Ycoordinate
    12.4;                     !- Vertex 4 Zcoordinate

SHADING:SITE:DETAILED,
    Shading_V36_1,            !- Name
    ,                         !- Transmittance Schedule Name
    autocalculate,            !- Number of Vertices
    -16.4731,                 !- Vertex 1 Xcoordinate
    16.8843,                  !- Vertex 1 Ycoordinate
    12.4,                     !- Vertex 1 Zcoordinate
    -16.4731,                 !- Vertex 2 Xcoordinate
    16.8843,                  !- Vertex 2 Ycoordinate
    0,                        !- Vertex 2 Zcoordinate
    -23.9091,                 !- Vertex 3 Xcoordinate
    25.5063,                  !- Vertex 3 Ycoordinate
    0,                        !- Vertex 3 Zcoordinate
    -23.9091,                 !- Vertex 4 Xcoordinate
    25.5063,                  !- Vertex 4 Ycoordinate
    12.4;                     !- Vertex 4 Zcoordinate

SHADING:SITE:DETAILED,
    Shading_V402_1,           !- Name
    ,                         !- Transmittance Schedule Name
    autocalculate,            !- Number of Vertices
    1.7389,                   !- Vertex 1 Xcoordinate
    36.9333,                  !- Vertex 1 Ycoordinate
    23.9,                     !- Vertex 1 Zcoordinate
    1.7389,                   !- Vertex 2 Xcoordinate
    36.9333,                  !- Vertex 2 Ycoordinate
    0,                        !- Vertex 2 Zcoordinate
    -4.1341,                  !- Vertex 3 Xcoordinate
    43.7393,                  !- Vertex 3 Ycoordinate
    0,                        !- Vertex 3 Zcoordinate
    -4.1341,                  !- Vertex 4 Xcoordinate
    43.7393,                  !- Vertex 4 Ycoordinate
    23.9;                     !- Vertex 4 Zcoordinate

SHADING:SITE:DETAILED,
    Shading_V403_1,           !- Name
    ,                         !- Transmittance Schedule Name
    autocalculate,            !- Number of Vertices
    -4.1341,                  !- Vertex 1 Xcoordinate
    43.7393,                  !- Vertex 1 Ycoordinate
    23.9,                     !- Vertex 1 Zcoordinate
    -4.1341,                  !- Vertex 2 Xcoordinate
    43.7393,                  !- Vertex 2 Ycoordinate
    0,                        !- Vertex 2 Zcoordinate
    -0.1531,                  !- Vertex 3 Xcoordinate
    47.0883,                  !- Vertex 3 Ycoordinate
    0,                        !- Vertex 3 Zcoordinate
    -0.1531,                  !- Vertex 4 Xcoordinate
    47.0883,                  !- Vertex 4 Ycoordinate
    23.9;                     !- Vertex 4 Zcoordinate

SHADING:SITE:DETAILED,
    Shading_V432_1,           !- Name
    ,                         !- Transmittance Schedule Name
    autocalculate,            !- Number of Vertices
    -49.0231,                 !- Vertex 1 Xcoordinate
    5.4163,                   !- Vertex 1 Ycoordinate
    15.9,                     !- Vertex 1 Zcoordinate
    -49.0231,                 !- Vertex 2 Xcoordinate
    5.4163,                   !- Vertex 2 Ycoordinate
    0,                        !- Vertex 2 Zcoordinate
    -63.6461,                 !- Vertex 3 Xcoordinate
    22.3173,                  !- Vertex 3 Ycoordinate
    0,                        !- Vertex 3 Zcoordinate
    -63.6461,                 !- Vertex 4 Xcoordinate
    22.3173,                  !- Vertex 4 Ycoordinate
    15.9;                     !- Vertex 4 Zcoordinate

SHADING:SITE:DETAILED,
    Shading_V368_1,           !- Name
    ,                         !- Transmittance Schedule Name
    autocalculate,            !- Number of Vertices
    39.5089,                  !- Vertex 1 Xcoordinate
    -62.1627,                 !- Vertex 1 Ycoordinate
    14.2,                     !- Vertex 1 Zcoordinate
    39.5089,                  !- Vertex 2 Xcoordinate
    -62.1627,                 !- Vertex 2 Ycoordinate
    0,                        !- Vertex 2 Zcoordinate
    31.9349,                  !- Vertex 3 Xcoordinate
    -53.3117,                 !- Vertex 3 Ycoordinate
    0,                        !- Vertex 3 Zcoordinate
    31.9349,                  !- Vertex 4 Xcoordinate
    -53.3117,                 !- Vertex 4 Ycoordinate
    14.2;                     !- Vertex 4 Zcoordinate

SHADING:SITE:DETAILED,
    Shading_V469_1,           !- Name
    ,                         !- Transmittance Schedule Name
    autocalculate,            !- Number of Vertices
    16.0469,                  !- Vertex 1 Xcoordinate
    -21.4117,                 !- Vertex 1 Ycoordinate
    12,                       !- Vertex 1 Zcoordinate
    16.0469,                  !- Vertex 2 Xcoordinate
    -21.4117,                 !- Vertex 2 Ycoordinate
    0,                        !- Vertex 2 Zcoordinate
    22.5187,                  !- Vertex 3 Xcoordinate
    -28.8905,                 !- Vertex 3 Ycoordinate
    0,                        !- Vertex 3 Zcoordinate
    22.5187,                  !- Vertex 4 Xcoordinate
    -28.8905,                 !- Vertex 4 Ycoordinate
    12;                       !- Vertex 4 Zcoordinate

ELECTRICEQUIPMENT,
    Block Build0_Alt0 Storey 0Load,    !- Name
    Block Build0_Alt0 Storey 0,    !- Zone or ZoneList Name
    LoadSchedule,             !- Schedule Name
    Watts/Area,               !- Design Level Calculation Method
    ,                         !- Design Level
    0.08,                     !- Watts per Zone Floor Area
    ,                         !- Watts per Person
    0,                        !- Fraction Latent
    0,                        !- Fraction Radiant
    0,                        !- Fraction Lost
    General;                  !- EndUse Subcategory

ELECTRICEQUIPMENT,
    Block Build1_Alt0 Storey 0Load,    !- Name
    Block Build1_Alt0 Storey 0,    !- Zone or ZoneList Name
    LoadSchedule,             !- Schedule Name
    Watts/Area,               !- Design Level Calculation Method
    ,                         !- Design Level
    0.04,                     !- Watts per Zone Floor Area
    ,                         !- Watts per Person
    0,                        !- Fraction Latent
    0,                        !- Fraction Radiant
    0,                        !- Fraction Lost
    General;                  !- EndUse Subcategory

ZONEINFILTRATION:DESIGNFLOWRATE,
    Block Build0_Alt0 Storey -1Leak,    !- Name
    Block Build0_Alt0 Storey -1,    !- Zone or ZoneList Name
    AlwaysON,                 !- Schedule Name
    AirChanges/Hour,          !- Design Flow Rate Calculation Method
    ,                         !- Design Flow Rate
    ,                         !- Flow per Zone Floor Area
    ,                         !- Flow per Exterior Surface Area
    1,                        !- Air Changes per Hour
    1,                        !- Constant Term Coefficient
    0,                        !- Temperature Term Coefficient
    0,                        !- Velocity Term Coefficient
    0;                        !- Velocity Squared Term Coefficient

ZONEINFILTRATION:DESIGNFLOWRATE,
    Block Build1_Alt0 Storey -1Leak,    !- Name
    Block Build1_Alt0 Storey -1,    !- Zone or ZoneList Name
    AlwaysON,                 !- Schedule Name
    AirChanges/Hour,          !- Design Flow Rate Calculation Method
    ,                         !- Design Flow Rate
    ,                         !- Flow per Zone Floor Area
    ,                         !- Flow per Exterior Surface Area
    1,                        !- Air Changes per Hour
    1,                        !- Constant Term Coefficient
    0,                        !- Temperature Term Coefficient
    0,                        !- Velocity Term Coefficient
    0;                        !- Velocity Squared Term Coefficient

ZONEINFILTRATION:FLOWCOEFFICIENT,
    Block Build0_Alt0 Storey 0Leak,    !- Name
    Block Build0_Alt0 Storey 0,    !- Zone Name
    AlwaysON,                 !- Schedule Name
    0.2095154384349134,       !- Flow Coefficient
    0.107,                    !- Stack Coefficient
    0.667,                    !- Pressure Exponent
    0.167,                    !- Wind Coefficient
    0.61;                     !- Shelter Factor

ZONEINFILTRATION:FLOWCOEFFICIENT,
    Block Build1_Alt0 Storey 0Leak,    !- Name
    Block Build1_Alt0 Storey 0,    !- Zone Name
    AlwaysON,                 !- Schedule Name
    9.629355e-02,             !- Flow Coefficient
    0.107,                    !- Stack Coefficient
    0.667,                    !- Pressure Exponent
    0.167,                    !- Wind Coefficient
    0.61;                     !- Shelter Factor

ZONEVENTILATION:DESIGNFLOWRATE,
    Block Build0_Alt0 Storey 0FreeCool,    !- Name
    Block Build0_Alt0 Storey 0,    !- Zone or ZoneList Name
    AlwaysON,                 !- Schedule Name
    AirChanges/Hour,          !- Design Flow Rate Calculation Method
    ,                         !- Design Flow Rate
    ,                         !- Flow Rate per Zone Floor Area
    ,                         !- Flow Rate per Person
    4,                        !- Air Changes per Hour
    Natural,                  !- Ventilation Type
    0,                        !- Fan Pressure Rise
    1,                        !- Fan Total Efficiency
    1,                        !- Constant Term Coefficient
    0,                        !- Temperature Term Coefficient
    0,                        !- Velocity Term Coefficient
    0,                        !- Velocity Squared Term Coefficient
    26,                       !- Minimum Indoor Temperature
    ,                         !- Minimum Indoor Temperature Schedule Name
    100,                      !- Maximum Indoor Temperature
    ,                         !- Maximum Indoor Temperature Schedule Name
    1,                        !- Delta Temperature
    ,                         !- Delta Temperature Schedule Name
    -100,                     !- Minimum Outdoor Temperature
    ,                         !- Minimum Outdoor Temperature Schedule Name
    100,                      !- Maximum Outdoor Temperature
    ,                         !- Maximum Outdoor Temperature Schedule Name
    40;                       !- Maximum Wind Speed

ZONEVENTILATION:DESIGNFLOWRATE,
    Block Build1_Alt0 Storey 0FreeCool,    !- Name
    Block Build1_Alt0 Storey 0,    !- Zone or ZoneList Name
    AlwaysON,                 !- Schedule Name
    AirChanges/Hour,          !- Design Flow Rate Calculation Method
    ,                         !- Design Flow Rate
    ,                         !- Flow Rate per Zone Floor Area
    ,                         !- Flow Rate per Person
    4,                        !- Air Changes per Hour
    Natural,                  !- Ventilation Type
    0,                        !- Fan Pressure Rise
    1,                        !- Fan Total Efficiency
    1,                        !- Constant Term Coefficient
    0,                        !- Temperature Term Coefficient
    0,                        !- Velocity Term Coefficient
    0,                        !- Velocity Squared Term Coefficient
    26,                       !- Minimum Indoor Temperature
    ,                         !- Minimum Indoor Temperature Schedule Name
    100,                      !- Maximum Indoor Temperature
    ,                         !- Maximum Indoor Temperature Schedule Name
    1,                        !- Delta Temperature
    ,                         !- Delta Temperature Schedule Name
    -100,                     !- Minimum Outdoor Temperature
    ,                         !- Minimum Outdoor Temperature Schedule Name
    100,                      !- Maximum Outdoor Temperature
    ,                         !- Maximum Outdoor Temperature Schedule Name
    40;                       !- Maximum Wind Speed

HVACTEMPLATE:THERMOSTAT,
    ResidZone,                !- Name
    ,                         !- Heating Setpoint Schedule Name
    21,                       !- Constant Heating Setpoint
    ,                         !- Cooling Setpoint Schedule Name
    50;                       !- Constant Cooling Setpoint

HVACTEMPLATE:ZONE:IDEALLOADSAIRSYSTEM,
    Block Build0_Alt0 Storey 0,    !- Zone Name
    ResidZone,                !- Template Thermostat Name
    ,                         !- System Availability Schedule Name
    50,                       !- Maximum Heating Supply Air Temperature
    13,                       !- Minimum Cooling Supply Air Temperature
    0.0156,                   !- Maximum Heating Supply Air Humidity Ratio
    0.0077,                   !- Minimum Cooling Supply Air Humidity Ratio
    NoLimit,                  !- Heating Limit
    ,                         !- Maximum Heating Air Flow Rate
    83514.28727405595,        !- Maximum Sensible Heating Capacity
    NoLimit,                  !- Cooling Limit
    ,                         !- Maximum Cooling Air Flow Rate
    ,                         !- Maximum Total Cooling Capacity
    ,                         !- Heating Availability Schedule Name
    ,                         !- Cooling Availability Schedule Name
    ConstantSensibleHeatRatio,    !- Dehumidification Control Type
    0.7,                      !- Cooling Sensible Heat Ratio
    60,                       !- Dehumidification Setpoint
    None,                     !- Humidification Control Type
    30,                       !- Humidification Setpoint
    Flow/Area,                !- Outdoor Air Method
    0.007,                    !- Outdoor Air Flow Rate per Person
    2.800000e-03,             !- Outdoor Air Flow Rate per Zone Floor Area
    0,                        !- Outdoor Air Flow Rate per Zone
    ,                         !- Design Specification Outdoor Air Object Name
    None,                     !- Demand Controlled Ventilation Type
    NoEconomizer,             !- Outdoor Air Economizer Type
    Sensible,                 !- Heat Recovery Type
    0.65,                     !- Sensible Heat Recovery Effectiveness
    0;                        !- Latent Heat Recovery Effectiveness

HVACTEMPLATE:ZONE:IDEALLOADSAIRSYSTEM,
    Block Build1_Alt0 Storey 0,    !- Zone Name
    ResidZone,                !- Template Thermostat Name
    ,                         !- System Availability Schedule Name
    50,                       !- Maximum Heating Supply Air Temperature
    13,                       !- Minimum Cooling Supply Air Temperature
    0.0156,                   !- Maximum Heating Supply Air Humidity Ratio
    0.0077,                   !- Minimum Cooling Supply Air Humidity Ratio
    NoLimit,                  !- Heating Limit
    ,                         !- Maximum Heating Air Flow Rate
    33070.302495635464,       !- Maximum Sensible Heating Capacity
    NoLimit,                  !- Cooling Limit
    ,                         !- Maximum Cooling Air Flow Rate
    ,                         !- Maximum Total Cooling Capacity
    ,                         !- Heating Availability Schedule Name
    ,                         !- Cooling Availability Schedule Name
    ConstantSensibleHeatRatio,    !- Dehumidification Control Type
    0.7,                      !- Cooling Sensible Heat Ratio
    60,                       !- Dehumidification Setpoint
    None,                     !- Humidification Control Type
    30,                       !- Humidification Setpoint
    Flow/Area,                !- Outdoor Air Method
    0.007,                    !- Outdoor Air Flow Rate per Person
    1.400000e-03,             !- Outdoor Air Flow Rate per Zone Floor Area
    0,                        !- Outdoor Air Flow Rate per Zone
    ,                         !- Design Specification Outdoor Air Object Name
    None,                     !- Demand Controlled Ventilation Type
    NoEconomizer,             !- Outdoor Air Economizer Type
    Sensible,                 !- Heat Recovery Type
    0.65,                     !- Sensible Heat Recovery Effectiveness
    0;                        !- Latent Heat Recovery Effectiveness

OUTDOORAIR:NODE,
    Block Build0_Alt0 Storey 0 IDEAL LOADS OUTDOOR AIR INLET,    !- Name
    -1,                       !- Height Above Ground
    ,                         !- Drybulb Temperature Schedule Name
    ,                         !- Wetbulb Temperature Schedule Name
    ,                         !- Wind Speed Schedule Name
    ,                         !- Wind Direction Schedule Name
    ,                         !- Wind Pressure Coefficient Curve Name
    No,                       !- Symmetric Wind Pressure Coefficient Curve
    Absolute;                 !- Wind Angle Type

OUTDOORAIR:NODE,
    Block Build1_Alt0 Storey 0 IDEAL LOADS OUTDOOR AIR INLET,    !- Name
    -1,                       !- Height Above Ground
    ,                         !- Drybulb Temperature Schedule Name
    ,                         !- Wetbulb Temperature Schedule Name
    ,                         !- Wind Speed Schedule Name
    ,                         !- Wind Direction Schedule Name
    ,                         !- Wind Pressure Coefficient Curve Name
    No,                       !- Symmetric Wind Pressure Coefficient Curve
    Absolute;                 !- Wind Angle Type

ENERGYMANAGEMENTSYSTEM:SENSOR,
    T0,                       !- Name
    Block Build0_Alt0 Storey 0,    !- OutputVariable or OutputMeter Index Key Name
    Zone Mean Air Temperature;    !- OutputVariable or OutputMeter Name

ENERGYMANAGEMENTSYSTEM:SENSOR,
    T1,                       !- Name
    Block Build1_Alt0 Storey 0,    !- OutputVariable or OutputMeter Index Key Name
    Zone Mean Air Temperature;    !- OutputVariable or OutputMeter Name

ENERGYMANAGEMENTSYSTEM:SENSOR,
    Pow0,                     !- Name
    Block Build0_Alt0 Storey 0 IDEAL LOADS AIR SYSTEM,    !- OutputVariable or OutputMeter Index Key Name
    Zone Ideal Loads Supply Air Total Heating Rate;    !- OutputVariable or OutputMeter Name

ENERGYMANAGEMENTSYSTEM:SENSOR,
    Pow1,                     !- Name
    Block Build1_Alt0 Storey 0 IDEAL LOADS AIR SYSTEM,    !- OutputVariable or OutputMeter Index Key Name
    Zone Ideal Loads Supply Air Total Heating Rate;    !- OutputVariable or OutputMeter Name

ENERGYMANAGEMENTSYSTEM:SENSOR,
    DHWPow,                   !- Name
    DHW,                      !- OutputVariable or OutputMeter Index Key Name
    Water Use Equipment Heating Rate;    !- OutputVariable or OutputMeter Name

ENERGYMANAGEMENTSYSTEM:PROGRAMCALLINGMANAGER,
    Average Building Temperature,    !- Name
    EndOfZoneTimestepBeforeZoneReporting,    !- EnergyPlus Model Calling Point
    AverageZoneTemps;         !- Program Name 1

ENERGYMANAGEMENTSYSTEM:PROGRAMCALLINGMANAGER,
    Compute Total Building Heat Pow,    !- Name
    EndOfZoneTimestepBeforeZoneReporting,    !- EnergyPlus Model Calling Point
    TotZonePow;               !- Program Name 1

ENERGYMANAGEMENTSYSTEM:PROGRAMCALLINGMANAGER,
    Compute Total DHW Heat Pow,    !- Name
    EndOfZoneTimestepBeforeZoneReporting,    !- EnergyPlus Model Calling Point
    prgmDHWPow;               !- Program Name 1

ENERGYMANAGEMENTSYSTEM:PROGRAM,
    AverageZoneTemps,         !- Name
    SET SumNumerator = T0*Vol0+T1*Vol1,    !- Program Line 1
    SET SumDenominator  = Vol0+Vol1,    !- Program Line 2
    SET AverageBuildingTemp  = SumNumerator / SumDenominator;    !- Program Line 3

ENERGYMANAGEMENTSYSTEM:PROGRAM,
    TotZonePow,               !- Name
    SET TotBuildPow = Pow0+Pow1;    !- Program Line 1

ENERGYMANAGEMENTSYSTEM:PROGRAM,
    prgmDHWPow,               !- Name
    SET TotDHWPow = DHWPow;    !- Program Line 1

ENERGYMANAGEMENTSYSTEM:GLOBALVARIABLE,
    AverageBuildingTemp;      !- Erl Variable 1 Name

ENERGYMANAGEMENTSYSTEM:GLOBALVARIABLE,
    TotBuildPow;              !- Erl Variable 1 Name

ENERGYMANAGEMENTSYSTEM:GLOBALVARIABLE,
    TotDHWPow;                !- Erl Variable 1 Name

ENERGYMANAGEMENTSYSTEM:OUTPUTVARIABLE,
    Mean Heated Zones Air Temperature,    !- Name
    AverageBuildingTemp,      !- EMS Variable Name
    Averaged,                 !- Type of Data in Variable
    ZoneTimeStep;             !- Update Frequency

ENERGYMANAGEMENTSYSTEM:OUTPUTVARIABLE,
    Total Building Heating Power,    !- Name
    TotBuildPow,              !- EMS Variable Name
    Averaged,                 !- Type of Data in Variable
    ZoneTimeStep;             !- Update Frequency

ENERGYMANAGEMENTSYSTEM:OUTPUTVARIABLE,
    Total DHW Heating Power,    !- Name
    TotDHWPow,                !- EMS Variable Name
    Averaged,                 !- Type of Data in Variable
    ZoneTimeStep;             !- Update Frequency

ENERGYMANAGEMENTSYSTEM:INTERNALVARIABLE,
    Vol0,                     !- Name
    Block Build0_Alt0 Storey 0,    !- Internal Data Index Key Name
    Zone Air Volume;          !- Internal Data Type

ENERGYMANAGEMENTSYSTEM:INTERNALVARIABLE,
    Vol1,                     !- Name
    Block Build1_Alt0 Storey 0,    !- Internal Data Index Key Name
    Zone Air Volume;          !- Internal Data Type

WATERUSE:EQUIPMENT,
    DHW,                      !- Name
    General,                  !- EndUse Subcategory
    1.568274e-08,             !- Peak Flow Rate
    WaterTaps,                !- Flow Rate Fraction Schedule Name
    TargetWaterTemp,          !- Target Temperature Schedule Name
    HotWaterTemp,             !- Hot Water Supply Temperature Schedule Name
    ColdWaterTemp;            !- Cold Water Supply Temperature Schedule Name

Output:VariableDictionary,
    Regular;                  !- Key Field

OUTPUT:ENERGYMANAGEMENTSYSTEM,
    Verbose,                  !- Actuator Availability Dictionary Reporting
    Verbose,                  !- Internal Variable Availability Dictionary Reporting
    Verbose;                  !- EMS Runtime Language Debug Output Level

Output:Table:SummaryReports,
    AllSummary;               !- Report 1 Name

OutputControl:Table:Style,
    HTML;                     !- Column Separator

OUTPUT:VARIABLE,
    *,                        !- Key Value
    Site Outdoor Air Drybulb Temperature,    !- Variable Name
    Hourly;                   !- Reporting Frequency

OUTPUT:VARIABLE,
    *,                        !- Key Value
    Site Outdoor Air Relative Humidity,    !- Variable Name
    Hourly;                   !- Reporting Frequency

OUTPUT:VARIABLE,
    *,                        !- Key Value
    Site Outdoor Air Barometric Pressure,    !- Variable Name
    Hourly;                   !- Reporting Frequency

OUTPUT:VARIABLE,
    *,                        !- Key Value
    Site Wind Speed,          !- Variable Name
    Hourly;                   !- Reporting Frequency

OUTPUT:VARIABLE,
    *,                        !- Key Value
    Site Diffuse Solar Radiation Rate per Area,    !- Variable Name
    Hourly;                   !- Reporting Frequency

OUTPUT:VARIABLE,
    *,                        !- Key Value
    Site Direct Solar Radiation Rate per Area,    !- Variable Name
    Hourly;                   !- Reporting Frequency

OUTPUT:VARIABLE,
    *,                        !- Key Value
    Zone Electric Equipment Electric Power,    !- Variable Name
    Hourly;                   !- Reporting Frequency

OUTPUT:VARIABLE,
    *,                        !- Key Value
    Zone Electric Equipment Total Heating Rate,    !- Variable Name
    Hourly;                   !- Reporting Frequency

OUTPUT:VARIABLE,
    *,                        !- Key Value
    Surface Outside Face Incident Solar Radiation Rate per Area,    !- Variable Name
    Hourly;                   !- Reporting Frequency

OUTPUT:VARIABLE,
    *,                        !- Key Value
    Surface Outside Face Incident Beam Solar Radiation Rate per Area,    !- Variable Name
    Hourly;                   !- Reporting Frequency

OUTPUT:VARIABLE,
    *,                        !- Key Value
    Zone Ideal Loads Supply Air Total Heating Rate,    !- Variable Name
    Hourly;                   !- Reporting Frequency

OUTPUT:VARIABLE,
    *,                        !- Key Value
    Water Use Equipment Hot Water Mass Flow Rate,    !- Variable Name
    Hourly;                   !- Reporting Frequency

OUTPUT:VARIABLE,
    *,                        !- Key Value
    Water Use Equipment Cold Water Mass Flow Rate,    !- Variable Name
    Hourly;                   !- Reporting Frequency

OUTPUT:VARIABLE,
    *,                        !- Key Value
    Water Use Equipment Hot Water Temperature,    !- Variable Name
    Hourly;                   !- Reporting Frequency

OUTPUT:VARIABLE,
    *,                        !- Key Value
    Water Use Equipment Cold Water Temperature,    !- Variable Name
    Hourly;                   !- Reporting Frequency

OUTPUT:VARIABLE,
    *,                        !- Key Value
    Water Use Equipment Heating Rate,    !- Variable Name
    Hourly;                   !- Reporting Frequency

OUTPUT:VARIABLE,
    *,                        !- Key Value
    Mean Heated Zones Air Temperature,    !- Variable Name
    Hourly;                   !- Reporting Frequency

OUTPUT:VARIABLE,
    *,                        !- Key Value
    Total Building Heating Power,    !- Variable Name
    Hourly;                   !- Reporting Frequency

OUTPUT:VARIABLE,
    *,                        !- Key Value
    Total DHW Heating Power,    !- Variable Name
    Hourly;                   !- Reporting Frequency

OUTPUT:DIAGNOSTICS,
    DISPLAYEXTRAWARNINGS,     !- Key 1
    DisplayAdvancedReportVariables;    !- Key 2