!- Darwin Line endings 

Version,
    9.5;                      !- Version Identifier

SimulationControl,
    No,                       !- Do Zone Sizing Calculation
    No,                       !- Do System Sizing Calculation
    No,                       !- Do Plant Sizing Calculation
    No,                       !- Run Simulation for Sizing Periods
    Yes,                      !- Run Simulation for Weather File Run Periods
    No,                       !- Do HVAC Sizing Simulation for Sizing Periods
    1;                        !- Maximum Number of HVAC Sizing Simulation Passes

Building,
    None,                     !- Name
    0,                        !- North Axis
    Suburbs,                  !- Terrain
    0.04,                     !- Loads Convergence Tolerance Value
    0.4,                      !- Temperature Convergence Tolerance Value
    FullExterior,             !- Solar Distribution
    25,                       !- Maximum Number of Warmup Days
    6;                        !- Minimum Number of Warmup Days

SHADOWCALCULATION,
    PolygonClipping,          !- Shading Calculation Method
    Periodic,                 !- Shading Calculation Update Frequency Method
    20,                       !- Shading Calculation Update Frequency
    25000,                    !- Maximum Figures in Shadow Overlap Calculations
    SutherlandHodgman,        !- Polygon Clipping Algorithm
    512,                      !- Pixel Counting Resolution
    SimpleSkyDiffuseModeling,    !- Sky Diffuse Modeling Algorithm
    No,                       !- Output External Shading Calculation Results
    No,                       !- Disable SelfShading Within Shading Zone Groups
    No;                       !- Disable SelfShading From Shading Zone Groups to Other Zones

Timestep,
    4;                        !- Number of Timesteps per Hour

Site:Location,
    WeatherData/USA_CA_San.Francisco.Intl.AP.724940_TMY3.epw,    !- Name
    37.62,                    !- Latitude
    -122.4,                   !- Longitude
    -8,                       !- Time Zone
    2;                        !- Elevation

SizingPeriod:DesignDay,
    DENVER_STAPLETON Ann Htg 99.6% Condns DB,    !- Name
    12,                       !- Month
    21,                       !- Day of Month
    WinterDesignDay,          !- Day Type
    -20,                      !- Maximum DryBulb Temperature
    0,                        !- Daily DryBulb Temperature Range
    ,                         !- DryBulb Temperature Range Modifier Type
    ,                         !- DryBulb Temperature Range Modifier Day Schedule Name
    Wetbulb,                  !- Humidity Condition Type
    -20,                      !- Wetbulb or DewPoint at Maximum DryBulb
    ,                         !- Humidity Condition Day Schedule Name
    ,                         !- Humidity Ratio at Maximum DryBulb
    ,                         !- Enthalpy at Maximum DryBulb
    ,                         !- Daily WetBulb Temperature Range
    100594,                   !- Barometric Pressure
    2.3,                      !- Wind Speed
    180,                      !- Wind Direction
    No,                       !- Rain Indicator
    No,                       !- Snow Indicator
    No,                       !- Daylight Saving Time Indicator
    ASHRAEClearSky,           !- Solar Model Indicator
    ,                         !- Beam Solar Day Schedule Name
    ,                         !- Diffuse Solar Day Schedule Name
    ,                         !- ASHRAE Clear Sky Optical Depth for Beam Irradiance taub
    ,                         !- ASHRAE Clear Sky Optical Depth for Diffuse Irradiance taud
    0;                        !- Sky Clearness

SizingPeriod:DesignDay,
    DENVER_STAPLETON Ann Clg .4% Condns DB=>MWB,    !- Name
    7,                        !- Month
    21,                       !- Day of Month
    SummerDesignDay,          !- Day Type
    34.1,                     !- Maximum DryBulb Temperature
    15.2,                     !- Daily DryBulb Temperature Range
    ,                         !- DryBulb Temperature Range Modifier Type
    ,                         !- DryBulb Temperature Range Modifier Day Schedule Name
    Wetbulb,                  !- Humidity Condition Type
    15.8,                     !- Wetbulb or DewPoint at Maximum DryBulb
    ,                         !- Humidity Condition Day Schedule Name
    ,                         !- Humidity Ratio at Maximum DryBulb
    ,                         !- Enthalpy at Maximum DryBulb
    ,                         !- Daily WetBulb Temperature Range
    100594,                   !- Barometric Pressure
    4,                        !- Wind Speed
    120,                      !- Wind Direction
    No,                       !- Rain Indicator
    No,                       !- Snow Indicator
    No,                       !- Daylight Saving Time Indicator
    ASHRAEClearSky,           !- Solar Model Indicator
    ,                         !- Beam Solar Day Schedule Name
    ,                         !- Diffuse Solar Day Schedule Name
    ,                         !- ASHRAE Clear Sky Optical Depth for Beam Irradiance taub
    ,                         !- ASHRAE Clear Sky Optical Depth for Diffuse Irradiance taud
    1;                        !- Sky Clearness

RunPeriod,
    Run Period 1,             !- Name
    1,                        !- Begin Month
    1,                        !- Begin Day of Month
    ,                         !- Begin Year
    12,                       !- End Month
    31,                       !- End Day of Month
    ,                         !- End Year
    Tuesday,                  !- Day of Week for Start Day
    Yes,                      !- Use Weather File Holidays and Special Days
    Yes,                      !- Use Weather File Daylight Saving Period
    No,                       !- Apply Weekend Holiday Rule
    Yes,                      !- Use Weather File Rain Indicators
    Yes;                      !- Use Weather File Snow Indicators

SITE:GROUNDTEMPERATURE:BUILDINGSURFACE,
    15,                       !- January Ground Temperature
    15,                       !- February Ground Temperature
    15,                       !- March Ground Temperature
    15,                       !- April Ground Temperature
    15,                       !- May Ground Temperature
    15,                       !- June Ground Temperature
    15,                       !- July Ground Temperature
    15,                       !- August Ground Temperature
    15,                       !- September Ground Temperature
    15,                       !- October Ground Temperature
    15,                       !- November Ground Temperature
    15;                       !- December Ground Temperature

SCHEDULETYPELIMITS,
    Any Number,               !- Name
    ,                         !- Lower Limit Value
    ,                         !- Upper Limit Value
    ,                         !- Numeric Type
    Dimensionless;            !- Unit Type

SCHEDULE:COMPACT,
    AlwaysON,                 !- Name
    Any Number,               !- Schedule Type Limits Name
    Through: 12/31,           !- Field 1
    For: AllDays,             !- Field 2
    Until: 24:00,             !- Field 3
    1;                        !- Field 4

SCHEDULE:COMPACT,
    OccupActivity,            !- Name
    Any Number,               !- Schedule Type Limits Name
    Through: 12/31,           !- Field 1
    For: AllDays,             !- Field 2
    Until: 24:00,             !- Field 3
    70;                       !- Field 4

SCHEDULE:COMPACT,
    HotWaterTemp,             !- Name
    Any Number,               !- Schedule Type Limits Name
    Through: 12/31,           !- Field 1
    For: AllDays,             !- Field 2
    Until: 24:00,             !- Field 3
    55;                       !- Field 4

SCHEDULE:COMPACT,
    TargetWaterTemp,          !- Name
    Any Number,               !- Schedule Type Limits Name
    Through: 12/31,           !- Field 1
    For: AllDays,             !- Field 2
    Until: 24:00,             !- Field 3
    37;                       !- Field 4

SCHEDULE:FILE,
    LoadSchedule,             !- Name
    Any Number,               !- Schedule Type Limits Name
    /Users/alizad/PycharmProjects/mubes-ubem/examples/ForTest/InputFiles/Building19_winter.txt,    !- File Name
    1,                        !- Column Number
    0,                        !- Rows to Skip at Top
    8760,                     !- Number of Hours of Data
    Comma,                    !- Column Separator
    No;                       !- Interpolate to Timestep

SCHEDULE:FILE,
    Watertaps,                !- Name
    Any Number,               !- Schedule Type Limits Name
    /Users/alizad/PycharmProjects/mubes-ubem/examples/ForTest/InputFiles/domestic_hot_water_40_apartments.txt,    !- File Name
    1,                        !- Column Number
    0,                        !- Rows to Skip at Top
    8760,                     !- Number of Hours of Data
    Comma,                    !- Column Separator
    No;                       !- Interpolate to Timestep

SCHEDULE:FILE,
    ColdWaterTemp,            !- Name
    Any Number,               !- Schedule Type Limits Name
    /Users/alizad/PycharmProjects/mubes-ubem/examples/ForTest/InputFiles/cold_water_temperature_stockholm.txt,    !- File Name
    1,                        !- Column Number
    0,                        !- Rows to Skip at Top
    8760,                     !- Number of Hours of Data
    Comma,                    !- Column Separator
    No;                       !- Interpolate to Timestep

MATERIAL,
    DefaultMaterial,          !- Name
    Rough,                    !- Roughness
    0.1,                      !- Thickness
    0.1,                      !- Conductivity
    1000,                     !- Density
    1000,                     !- Specific Heat
    0.9,                      !- Thermal Absorptance
    0.7,                      !- Solar Absorptance
    0.7;                      !- Visible Absorptance

MATERIAL,
    Basement Floor,           !- Name
    Rough,                    !- Roughness
    0.1,                      !- Thickness
    0.9,                      !- Conductivity
    2300,                     !- Density
    1000,                     !- Specific Heat
    0.9,                      !- Thermal Absorptance
    0.7,                      !- Solar Absorptance
    0.7;                      !- Visible Absorptance

MATERIAL,
    Heated1rstFloor Inertia,    !- Name
    Rough,                    !- Roughness
    0.1,                      !- Thickness
    0.9,                      !- Conductivity
    2300,                     !- Density
    1000,                     !- Specific Heat
    0.9,                      !- Thermal Absorptance
    0.7,                      !- Solar Absorptance
    0.7;                      !- Visible Absorptance

MATERIAL,
    Heated1rstFloor Insulation,    !- Name
    Rough,                    !- Roughness
    0.15,                     !- Thickness
    0.035,                    !- Conductivity
    150,                      !- Density
    1000,                     !- Specific Heat
    0.9,                      !- Thermal Absorptance
    0.7,                      !- Solar Absorptance
    0.7;                      !- Visible Absorptance

MATERIAL,
    Roof Insulation,          !- Name
    Rough,                    !- Roughness
    0.3,                      !- Thickness
    0.03,                     !- Conductivity
    150,                      !- Density
    1000,                     !- Specific Heat
    0.9,                      !- Thermal Absorptance
    0.7,                      !- Solar Absorptance
    0.7;                      !- Visible Absorptance

MATERIAL,
    Wall Inertia,             !- Name
    Rough,                    !- Roughness
    0.2,                      !- Thickness
    0.9,                      !- Conductivity
    2300,                     !- Density
    1000,                     !- Specific Heat
    0.9,                      !- Thermal Absorptance
    0.7,                      !- Solar Absorptance
    0.7;                      !- Visible Absorptance

MATERIAL,
    Wall Insulation,          !- Name
    Rough,                    !- Roughness
    0.2,                      !- Thickness
    0.03,                     !- Conductivity
    150,                      !- Density
    1000,                     !- Specific Heat
    0.9,                      !- Thermal Absorptance
    0.7,                      !- Solar Absorptance
    0.7;                      !- Visible Absorptance

MATERIAL,
    HeatedZoneIntMass,        !- Name
    Rough,                    !- Roughness
    0.1,                      !- Thickness
    0.3,                      !- Conductivity
    600,                      !- Density
    1400,                     !- Specific Heat
    0.9,                      !- Thermal Absorptance
    0.7,                      !- Solar Absorptance
    0.7;                      !- Visible Absorptance

MATERIAL,
    NonHeatedZoneIntMass,     !- Name
    Rough,                    !- Roughness
    0.1,                      !- Thickness
    0.3,                      !- Conductivity
    600,                      !- Density
    1400,                     !- Specific Heat
    0.9,                      !- Thermal Absorptance
    0.7,                      !- Solar Absorptance
    0.7;                      !- Visible Absorptance

MATERIAL,
    AirWallMaterial,          !- Name
    MediumSmooth,             !- Roughness
    0.01,                     !- Thickness
    0.6,                      !- Conductivity
    800,                      !- Density
    1000,                     !- Specific Heat
    0.95,                     !- Thermal Absorptance
    0.7,                      !- Solar Absorptance
    0.7;                      !- Visible Absorptance

WINDOWMATERIAL:SIMPLEGLAZINGSYSTEM,
    DefaultGlazing,           !- Name
    2.7,                      !- UFactor
    0.763,                    !- Solar Heat Gain Coefficient
    0.8;                      !- Visible Transmittance

WINDOWMATERIAL:SIMPLEGLAZINGSYSTEM,
    Window,                   !- Name
    1.9,                      !- UFactor
    0.7,                      !- Solar Heat Gain Coefficient
    0.8;                      !- Visible Transmittance

CONSTRUCTION,
    Project Wall,             !- Name
    Wall Inertia,             !- Outside Layer
    Wall Insulation;          !- Layer 2

CONSTRUCTION,
    Project Basement Wall,    !- Name
    Wall Inertia;             !- Outside Layer

CONSTRUCTION,
    Project Partition,        !- Name
    AirWallMaterial;          !- Outside Layer

CONSTRUCTION,
    Project Basement Floor,    !- Name
    Basement Floor;           !- Outside Layer

CONSTRUCTION,
    Project Flat Roof,        !- Name
    Roof Insulation;          !- Outside Layer

CONSTRUCTION,
    Project External Window,    !- Name
    Window;                   !- Outside Layer

CONSTRUCTION,
    Project Heated1rstFloor,    !- Name
    Heated1rstFloor Inertia,    !- Outside Layer
    Heated1rstFloor Insulation;    !- Layer 2

CONSTRUCTION,
    Project Heated1rstFloor Rev,    !- Name
    Heated1rstFloor Insulation,    !- Outside Layer
    Heated1rstFloor Inertia;    !- Layer 2

CONSTRUCTION,
    HeatedZoneIntMassObj,     !- Name
    HeatedZoneIntMass;        !- Outside Layer

CONSTRUCTION,
    NonHeatedZoneIntMassObj,    !- Name
    NonHeatedZoneIntMass;     !- Outside Layer

GlobalGeometryRules,
    UpperLeftCorner,          !- Starting Vertex Position
    CounterClockWise,         !- Vertex Entry Direction
    World;                    !- Coordinate System

ZONE,
    Block Build0_Alt0 Storey -1,    !- Name
    0,                        !- Direction of Relative North
    0,                        !- X Origin
    0,                        !- Y Origin
    0,                        !- Z Origin
    1,                        !- Type
    1,                        !- Multiplier
    autocalculate,            !- Ceiling Height
    autocalculate,            !- Volume
    autocalculate,            !- Floor Area
    ,                         !- Zone Inside Convection Algorithm
    ,                         !- Zone Outside Convection Algorithm
    Yes;                      !- Part of Total Floor Area

ZONE,
    Block Build0_Alt0 Storey 0,    !- Name
    0,                        !- Direction of Relative North
    0,                        !- X Origin
    0,                        !- Y Origin
    0,                        !- Z Origin
    1,                        !- Type
    1,                        !- Multiplier
    autocalculate,            !- Ceiling Height
    autocalculate,            !- Volume
    autocalculate,            !- Floor Area
    ,                         !- Zone Inside Convection Algorithm
    ,                         !- Zone Outside Convection Algorithm
    Yes;                      !- Part of Total Floor Area

ZONE,
    Block Build1_Alt0 Storey -1,    !- Name
    0,                        !- Direction of Relative North
    0,                        !- X Origin
    0,                        !- Y Origin
    0,                        !- Z Origin
    1,                        !- Type
    1,                        !- Multiplier
    autocalculate,            !- Ceiling Height
    autocalculate,            !- Volume
    autocalculate,            !- Floor Area
    ,                         !- Zone Inside Convection Algorithm
    ,                         !- Zone Outside Convection Algorithm
    Yes;                      !- Part of Total Floor Area

ZONE,
    Block Build1_Alt0 Storey 0,    !- Name
    0,                        !- Direction of Relative North
    0,                        !- X Origin
    0,                        !- Y Origin
    0,                        !- Z Origin
    1,                        !- Type
    1,                        !- Multiplier
    autocalculate,            !- Ceiling Height
    autocalculate,            !- Volume
    autocalculate,            !- Floor Area
    ,                         !- Zone Inside Convection Algorithm
    ,                         !- Zone Outside Convection Algorithm
    Yes;                      !- Part of Total Floor Area

ZONE,
    Block Build2_Alt0 Storey -1,    !- Name
    0,                        !- Direction of Relative North
    0,                        !- X Origin
    0,                        !- Y Origin
    0,                        !- Z Origin
    1,                        !- Type
    1,                        !- Multiplier
    autocalculate,            !- Ceiling Height
    autocalculate,            !- Volume
    autocalculate,            !- Floor Area
    ,                         !- Zone Inside Convection Algorithm
    ,                         !- Zone Outside Convection Algorithm
    Yes;                      !- Part of Total Floor Area

ZONE,
    Block Build2_Alt0 Storey 0,    !- Name
    0,                        !- Direction of Relative North
    0,                        !- X Origin
    0,                        !- Y Origin
    0,                        !- Z Origin
    1,                        !- Type
    1,                        !- Multiplier
    autocalculate,            !- Ceiling Height
    autocalculate,            !- Volume
    autocalculate,            !- Floor Area
    ,                         !- Zone Inside Convection Algorithm
    ,                         !- Zone Outside Convection Algorithm
    Yes;                      !- Part of Total Floor Area

BUILDINGSURFACE:DETAILED,
    Block Build0_Alt0 Storey -1 Wall 0002,    !- Name
    wall,                     !- Surface Type
    Project Basement Wall,    !- Construction Name
    Block Build0_Alt0 Storey -1,    !- Zone Name
    ground,                   !- Outside Boundary Condition
    ,                         !- Outside Boundary Condition Object
    NoSun,                    !- Sun Exposure
    NoWind,                   !- Wind Exposure
    autocalculate,            !- View Factor to Ground
    autocalculate,            !- Number of Vertices
    4.4798,                   !- Vertex 1 Xcoordinate
    14.4437,                  !- Vertex 1 Ycoordinate
    0,                        !- Vertex 1 Zcoordinate
    4.4798,                   !- Vertex 2 Xcoordinate
    14.4437,                  !- Vertex 2 Ycoordinate
    -2.5,                     !- Vertex 2 Zcoordinate
    10.0242,                  !- Vertex 3 Xcoordinate
    8.0504,                   !- Vertex 3 Ycoordinate
    -2.5,                     !- Vertex 3 Zcoordinate
    10.0242,                  !- Vertex 4 Xcoordinate
    8.0504,                   !- Vertex 4 Ycoordinate
    0;                        !- Vertex 4 Zcoordinate

BUILDINGSURFACE:DETAILED,
    Block Build0_Alt0 Storey -1 Wall 0003,    !- Name
    wall,                     !- Surface Type
    Project Basement Wall,    !- Construction Name
    Block Build0_Alt0 Storey -1,    !- Zone Name
    ground,                   !- Outside Boundary Condition
    ,                         !- Outside Boundary Condition Object
    NoSun,                    !- Sun Exposure
    NoWind,                   !- Wind Exposure
    autocalculate,            !- View Factor to Ground
    autocalculate,            !- Number of Vertices
    10.0242,                  !- Vertex 1 Xcoordinate
    8.0504,                   !- Vertex 1 Ycoordinate
    0,                        !- Vertex 1 Zcoordinate
    10.0242,                  !- Vertex 2 Xcoordinate
    8.0504,                   !- Vertex 2 Ycoordinate
    -2.5,                     !- Vertex 2 Zcoordinate
    2.3635,                   !- Vertex 3 Xcoordinate
    1.6396,                   !- Vertex 3 Ycoordinate
    -2.5,                     !- Vertex 3 Zcoordinate
    2.3635,                   !- Vertex 4 Xcoordinate
    1.6396,                   !- Vertex 4 Ycoordinate
    0;                        !- Vertex 4 Zcoordinate

BUILDINGSURFACE:DETAILED,
    Block Build0_Alt0 Storey -1 Wall 0005,    !- Name
    wall,                     !- Surface Type
    Project Basement Wall,    !- Construction Name
    Block Build0_Alt0 Storey -1,    !- Zone Name
    ground,                   !- Outside Boundary Condition
    ,                         !- Outside Boundary Condition Object
    NoSun,                    !- Sun Exposure
    NoWind,                   !- Wind Exposure
    autocalculate,            !- View Factor to Ground
    autocalculate,            !- Number of Vertices
    10.7051,                  !- Vertex 1 Xcoordinate
    -7.8058,                  !- Vertex 1 Ycoordinate
    0,                        !- Vertex 1 Zcoordinate
    10.7051,                  !- Vertex 2 Xcoordinate
    -7.8058,                  !- Vertex 2 Ycoordinate
    -2.5,                     !- Vertex 2 Zcoordinate
    18.2532,                  !- Vertex 3 Xcoordinate
    -1.6206,                  !- Vertex 3 Ycoordinate
    -2.5,                     !- Vertex 3 Zcoordinate
    18.2532,                  !- Vertex 4 Xcoordinate
    -1.6206,                  !- Vertex 4 Ycoordinate
    0;                        !- Vertex 4 Zcoordinate

BUILDINGSURFACE:DETAILED,
    Block Build0_Alt0 Storey -1 Wall 0006,    !- Name
    wall,                     !- Surface Type
    Project Basement Wall,    !- Construction Name
    Block Build0_Alt0 Storey -1,    !- Zone Name
    ground,                   !- Outside Boundary Condition
    ,                         !- Outside Boundary Condition Object
    NoSun,                    !- Sun Exposure
    NoWind,                   !- Wind Exposure
    autocalculate,            !- View Factor to Ground
    autocalculate,            !- Number of Vertices
    18.2532,                  !- Vertex 1 Xcoordinate
    -1.6206,                  !- Vertex 1 Ycoordinate
    0,                        !- Vertex 1 Zcoordinate
    18.2532,                  !- Vertex 2 Xcoordinate
    -1.6206,                  !- Vertex 2 Ycoordinate
    -2.5,                     !- Vertex 2 Zcoordinate
    23.2392,                  !- Vertex 3 Xcoordinate
    -7.4226,                  !- Vertex 3 Ycoordinate
    -2.5,                     !- Vertex 3 Zcoordinate
    23.2392,                  !- Vertex 4 Xcoordinate
    -7.4226,                  !- Vertex 4 Ycoordinate
    0;                        !- Vertex 4 Zcoordinate

BUILDINGSURFACE:DETAILED,
    Block Build0_Alt0 Storey -1 Wall 0007,    !- Name
    wall,                     !- Surface Type
    Project Basement Wall,    !- Construction Name
    Block Build0_Alt0 Storey -1,    !- Zone Name
    ground,                   !- Outside Boundary Condition
    ,                         !- Outside Boundary Condition Object
    NoSun,                    !- Sun Exposure
    NoWind,                   !- Wind Exposure
    autocalculate,            !- View Factor to Ground
    autocalculate,            !- Number of Vertices
    23.2392,                  !- Vertex 1 Xcoordinate
    -7.4226,                  !- Vertex 1 Ycoordinate
    0,                        !- Vertex 1 Zcoordinate
    23.2392,                  !- Vertex 2 Xcoordinate
    -7.4226,                  !- Vertex 2 Ycoordinate
    -2.5,                     !- Vertex 2 Zcoordinate
    30.9192,                  !- Vertex 3 Xcoordinate
    -0.8316,                  !- Vertex 3 Ycoordinate
    -2.5,                     !- Vertex 3 Zcoordinate
    30.9192,                  !- Vertex 4 Xcoordinate
    -0.8316,                  !- Vertex 4 Ycoordinate
    0;                        !- Vertex 4 Zcoordinate

BUILDINGSURFACE:DETAILED,
    Block Build0_Alt0 Storey -1 Wall 0008,    !- Name
    wall,                     !- Surface Type
    Project Basement Wall,    !- Construction Name
    Block Build0_Alt0 Storey -1,    !- Zone Name
    ground,                   !- Outside Boundary Condition
    ,                         !- Outside Boundary Condition Object
    NoSun,                    !- Sun Exposure
    NoWind,                   !- Wind Exposure
    autocalculate,            !- View Factor to Ground
    autocalculate,            !- Number of Vertices
    30.9192,                  !- Vertex 1 Xcoordinate
    -0.8316,                  !- Vertex 1 Ycoordinate
    0,                        !- Vertex 1 Zcoordinate
    30.9192,                  !- Vertex 2 Xcoordinate
    -0.8316,                  !- Vertex 2 Ycoordinate
    -2.5,                     !- Vertex 2 Zcoordinate
    25.0462,                  !- Vertex 3 Xcoordinate
    5.9744,                   !- Vertex 3 Ycoordinate
    -2.5,                     !- Vertex 3 Zcoordinate
    25.0462,                  !- Vertex 4 Xcoordinate
    5.9744,                   !- Vertex 4 Ycoordinate
    0;                        !- Vertex 4 Zcoordinate

BUILDINGSURFACE:DETAILED,
    Block Build0_Alt0 Storey -1 Wall 0009,    !- Name
    wall,                     !- Surface Type
    Project Basement Wall,    !- Construction Name
    Block Build0_Alt0 Storey -1,    !- Zone Name
    ground,                   !- Outside Boundary Condition
    ,                         !- Outside Boundary Condition Object
    NoSun,                    !- Sun Exposure
    NoWind,                   !- Wind Exposure
    autocalculate,            !- View Factor to Ground
    autocalculate,            !- Number of Vertices
    25.0462,                  !- Vertex 1 Xcoordinate
    5.9744,                   !- Vertex 1 Ycoordinate
    0,                        !- Vertex 1 Zcoordinate
    25.0462,                  !- Vertex 2 Xcoordinate
    5.9744,                   !- Vertex 2 Ycoordinate
    -2.5,                     !- Vertex 2 Zcoordinate
    29.0272,                  !- Vertex 3 Xcoordinate
    9.3234,                   !- Vertex 3 Ycoordinate
    -2.5,                     !- Vertex 3 Zcoordinate
    29.0272,                  !- Vertex 4 Xcoordinate
    9.3234,                   !- Vertex 4 Ycoordinate
    0;                        !- Vertex 4 Zcoordinate

BUILDINGSURFACE:DETAILED,
    Block Build0_Alt0 Storey -1 Wall 0010,    !- Name
    wall,                     !- Surface Type
    Project Basement Wall,    !- Construction Name
    Block Build0_Alt0 Storey -1,    !- Zone Name
    ground,                   !- Outside Boundary Condition
    ,                         !- Outside Boundary Condition Object
    NoSun,                    !- Sun Exposure
    NoWind,                   !- Wind Exposure
    autocalculate,            !- View Factor to Ground
    autocalculate,            !- Number of Vertices
    29.0272,                  !- Vertex 1 Xcoordinate
    9.3234,                   !- Vertex 1 Ycoordinate
    0,                        !- Vertex 1 Zcoordinate
    29.0272,                  !- Vertex 2 Xcoordinate
    9.3234,                   !- Vertex 2 Ycoordinate
    -2.5,                     !- Vertex 2 Zcoordinate
    22.2622,                  !- Vertex 3 Xcoordinate
    16.8044,                  !- Vertex 3 Ycoordinate
    -2.5,                     !- Vertex 3 Zcoordinate
    22.2622,                  !- Vertex 4 Xcoordinate
    16.8044,                  !- Vertex 4 Ycoordinate
    0;                        !- Vertex 4 Zcoordinate

BUILDINGSURFACE:DETAILED,
    Block Build0_Alt0 Storey -1 Wall 0011,    !- Name
    wall,                     !- Surface Type
    Project Basement Wall,    !- Construction Name
    Block Build0_Alt0 Storey -1,    !- Zone Name
    ground,                   !- Outside Boundary Condition
    ,                         !- Outside Boundary Condition Object
    NoSun,                    !- Sun Exposure
    NoWind,                   !- Wind Exposure
    autocalculate,            !- View Factor to Ground
    autocalculate,            !- Number of Vertices
    22.2622,                  !- Vertex 1 Xcoordinate
    16.8044,                  !- Vertex 1 Ycoordinate
    0,                        !- Vertex 1 Zcoordinate
    22.2622,                  !- Vertex 2 Xcoordinate
    16.8044,                  !- Vertex 2 Ycoordinate
    -2.5,                     !- Vertex 2 Zcoordinate
    18.4752,                  !- Vertex 3 Xcoordinate
    13.6044,                  !- Vertex 3 Ycoordinate
    -2.5,                     !- Vertex 3 Zcoordinate
    18.4752,                  !- Vertex 4 Xcoordinate
    13.6044,                  !- Vertex 4 Ycoordinate
    0;                        !- Vertex 4 Zcoordinate

BUILDINGSURFACE:DETAILED,
    Block Build0_Alt0 Storey -1 Wall 0012,    !- Name
    wall,                     !- Surface Type
    Project Basement Wall,    !- Construction Name
    Block Build0_Alt0 Storey -1,    !- Zone Name
    ground,                   !- Outside Boundary Condition
    ,                         !- Outside Boundary Condition Object
    NoSun,                    !- Sun Exposure
    NoWind,                   !- Wind Exposure
    autocalculate,            !- View Factor to Ground
    autocalculate,            !- Number of Vertices
    18.4752,                  !- Vertex 1 Xcoordinate
    13.6044,                  !- Vertex 1 Ycoordinate
    0,                        !- Vertex 1 Zcoordinate
    18.4752,                  !- Vertex 2 Xcoordinate
    13.6044,                  !- Vertex 2 Ycoordinate
    -2.5,                     !- Vertex 2 Zcoordinate
    12.1086,                  !- Vertex 3 Xcoordinate
    20.9717,                  !- Vertex 3 Ycoordinate
    -2.5,                     !- Vertex 3 Zcoordinate
    12.1086,                  !- Vertex 4 Xcoordinate
    20.9717,                  !- Vertex 4 Ycoordinate
    0;                        !- Vertex 4 Zcoordinate

BUILDINGSURFACE:DETAILED,
    Block Build0_Alt0 Storey -1 Floor 0001,    !- Name
    floor,                    !- Surface Type
    Project Basement Floor,    !- Construction Name
    Block Build0_Alt0 Storey -1,    !- Zone Name
    ground,                   !- Outside Boundary Condition
    ,                         !- Outside Boundary Condition Object
    NoSun,                    !- Sun Exposure
    NoWind,                   !- Wind Exposure
    autocalculate,            !- View Factor to Ground
    autocalculate,            !- Number of Vertices
    22.2622,                  !- Vertex 1 Xcoordinate
    16.8044,                  !- Vertex 1 Ycoordinate
    -2.5,                     !- Vertex 1 Zcoordinate
    29.0272,                  !- Vertex 2 Xcoordinate
    9.3234,                   !- Vertex 2 Ycoordinate
    -2.5,                     !- Vertex 2 Zcoordinate
    25.0462,                  !- Vertex 3 Xcoordinate
    5.9744,                   !- Vertex 3 Ycoordinate
    -2.5,                     !- Vertex 3 Zcoordinate
    30.9192,                  !- Vertex 4 Xcoordinate
    -0.8316,                  !- Vertex 4 Ycoordinate
    -2.5,                     !- Vertex 4 Zcoordinate
    23.2392,                  !- Vertex 5 Xcoordinate
    -7.4226,                  !- Vertex 5 Ycoordinate
    -2.5,                     !- Vertex 5 Zcoordinate
    18.2532,                  !- Vertex 6 Xcoordinate
    -1.6206,                  !- Vertex 6 Ycoordinate
    -2.5,                     !- Vertex 6 Zcoordinate
    10.7051,                  !- Vertex 7 Xcoordinate
    -7.8058,                  !- Vertex 7 Ycoordinate
    -2.5,                     !- Vertex 7 Zcoordinate
    2.3635,                   !- Vertex 8 Xcoordinate
    1.6396,                   !- Vertex 8 Ycoordinate
    -2.5,                     !- Vertex 8 Zcoordinate
    10.0242,                  !- Vertex 9 Xcoordinate
    8.0504,                   !- Vertex 9 Ycoordinate
    -2.5,                     !- Vertex 9 Zcoordinate
    4.4798,                   !- Vertex 10 Xcoordinate
    14.4437,                  !- Vertex 10 Ycoordinate
    -2.5,                     !- Vertex 10 Zcoordinate
    12.1086,                  !- Vertex 11 Xcoordinate
    20.9717,                  !- Vertex 11 Ycoordinate
    -2.5,                     !- Vertex 11 Zcoordinate
    18.4752,                  !- Vertex 12 Xcoordinate
    13.6044,                  !- Vertex 12 Ycoordinate
    -2.5;                     !- Vertex 12 Zcoordinate

BUILDINGSURFACE:DETAILED,
    Block Build0_Alt0 Storey 0 Wall 0002,    !- Name
    wall,                     !- Surface Type
    Project Wall,             !- Construction Name
    Block Build0_Alt0 Storey 0,    !- Zone Name
    outdoors,                 !- Outside Boundary Condition
    ,                         !- Outside Boundary Condition Object
    SunExposed,               !- Sun Exposure
    WindExposed,              !- Wind Exposure
    autocalculate,            !- View Factor to Ground
    autocalculate,            !- Number of Vertices
    4.4798,                   !- Vertex 1 Xcoordinate
    14.4437,                  !- Vertex 1 Ycoordinate
    24,                       !- Vertex 1 Zcoordinate
    4.4798,                   !- Vertex 2 Xcoordinate
    14.4437,                  !- Vertex 2 Ycoordinate
    0,                        !- Vertex 2 Zcoordinate
    10.0242,                  !- Vertex 3 Xcoordinate
    8.0504,                   !- Vertex 3 Ycoordinate
    0,                        !- Vertex 3 Zcoordinate
    10.0242,                  !- Vertex 4 Xcoordinate
    8.0504,                   !- Vertex 4 Ycoordinate
    24;                       !- Vertex 4 Zcoordinate

BUILDINGSURFACE:DETAILED,
    Block Build0_Alt0 Storey 0 Wall 0003,    !- Name
    wall,                     !- Surface Type
    Project Wall,             !- Construction Name
    Block Build0_Alt0 Storey 0,    !- Zone Name
    outdoors,                 !- Outside Boundary Condition
    ,                         !- Outside Boundary Condition Object
    SunExposed,               !- Sun Exposure
    WindExposed,              !- Wind Exposure
    autocalculate,            !- View Factor to Ground
    autocalculate,            !- Number of Vertices
    10.0242,                  !- Vertex 1 Xcoordinate
    8.0504,                   !- Vertex 1 Ycoordinate
    24,                       !- Vertex 1 Zcoordinate
    10.0242,                  !- Vertex 2 Xcoordinate
    8.0504,                   !- Vertex 2 Ycoordinate
    0,                        !- Vertex 2 Zcoordinate
    2.3635,                   !- Vertex 3 Xcoordinate
    1.6396,                   !- Vertex 3 Ycoordinate
    0,                        !- Vertex 3 Zcoordinate
    2.3635,                   !- Vertex 4 Xcoordinate
    1.6396,                   !- Vertex 4 Ycoordinate
    24;                       !- Vertex 4 Zcoordinate

BUILDINGSURFACE:DETAILED,
    Block Build0_Alt0 Storey 0 Wall 0005,    !- Name
    wall,                     !- Surface Type
    Project Wall,             !- Construction Name
    Block Build0_Alt0 Storey 0,    !- Zone Name
    outdoors,                 !- Outside Boundary Condition
    ,                         !- Outside Boundary Condition Object
    SunExposed,               !- Sun Exposure
    WindExposed,              !- Wind Exposure
    autocalculate,            !- View Factor to Ground
    autocalculate,            !- Number of Vertices
    10.7051,                  !- Vertex 1 Xcoordinate
    -7.8058,                  !- Vertex 1 Ycoordinate
    24,                       !- Vertex 1 Zcoordinate
    10.7051,                  !- Vertex 2 Xcoordinate
    -7.8058,                  !- Vertex 2 Ycoordinate
    0,                        !- Vertex 2 Zcoordinate
    18.2532,                  !- Vertex 3 Xcoordinate
    -1.6206,                  !- Vertex 3 Ycoordinate
    0,                        !- Vertex 3 Zcoordinate
    18.2532,                  !- Vertex 4 Xcoordinate
    -1.6206,                  !- Vertex 4 Ycoordinate
    24;                       !- Vertex 4 Zcoordinate

BUILDINGSURFACE:DETAILED,
    Block Build0_Alt0 Storey 0 Wall 0006,    !- Name
    wall,                     !- Surface Type
    Project Wall,             !- Construction Name
    Block Build0_Alt0 Storey 0,    !- Zone Name
    outdoors,                 !- Outside Boundary Condition
    ,                         !- Outside Boundary Condition Object
    SunExposed,               !- Sun Exposure
    WindExposed,              !- Wind Exposure
    autocalculate,            !- View Factor to Ground
    autocalculate,            !- Number of Vertices
    18.2532,                  !- Vertex 1 Xcoordinate
    -1.6206,                  !- Vertex 1 Ycoordinate
    24,                       !- Vertex 1 Zcoordinate
    18.2532,                  !- Vertex 2 Xcoordinate
    -1.6206,                  !- Vertex 2 Ycoordinate
    0,                        !- Vertex 2 Zcoordinate
    23.2392,                  !- Vertex 3 Xcoordinate
    -7.4226,                  !- Vertex 3 Ycoordinate
    0,                        !- Vertex 3 Zcoordinate
    23.2392,                  !- Vertex 4 Xcoordinate
    -7.4226,                  !- Vertex 4 Ycoordinate
    24;                       !- Vertex 4 Zcoordinate

BUILDINGSURFACE:DETAILED,
    Block Build0_Alt0 Storey 0 Wall 0007,    !- Name
    wall,                     !- Surface Type
    Project Wall,             !- Construction Name
    Block Build0_Alt0 Storey 0,    !- Zone Name
    outdoors,                 !- Outside Boundary Condition
    ,                         !- Outside Boundary Condition Object
    SunExposed,               !- Sun Exposure
    WindExposed,              !- Wind Exposure
    autocalculate,            !- View Factor to Ground
    autocalculate,            !- Number of Vertices
    23.2392,                  !- Vertex 1 Xcoordinate
    -7.4226,                  !- Vertex 1 Ycoordinate
    24,                       !- Vertex 1 Zcoordinate
    23.2392,                  !- Vertex 2 Xcoordinate
    -7.4226,                  !- Vertex 2 Ycoordinate
    0,                        !- Vertex 2 Zcoordinate
    30.9192,                  !- Vertex 3 Xcoordinate
    -0.8316,                  !- Vertex 3 Ycoordinate
    0,                        !- Vertex 3 Zcoordinate
    30.9192,                  !- Vertex 4 Xcoordinate
    -0.8316,                  !- Vertex 4 Ycoordinate
    24;                       !- Vertex 4 Zcoordinate

BUILDINGSURFACE:DETAILED,
    Block Build0_Alt0 Storey 0 Wall 0008,    !- Name
    wall,                     !- Surface Type
    Project Wall,             !- Construction Name
    Block Build0_Alt0 Storey 0,    !- Zone Name
    outdoors,                 !- Outside Boundary Condition
    ,                         !- Outside Boundary Condition Object
    SunExposed,               !- Sun Exposure
    WindExposed,              !- Wind Exposure
    autocalculate,            !- View Factor to Ground
    autocalculate,            !- Number of Vertices
    30.9192,                  !- Vertex 1 Xcoordinate
    -0.8316,                  !- Vertex 1 Ycoordinate
    24,                       !- Vertex 1 Zcoordinate
    30.9192,                  !- Vertex 2 Xcoordinate
    -0.8316,                  !- Vertex 2 Ycoordinate
    0,                        !- Vertex 2 Zcoordinate
    25.0462,                  !- Vertex 3 Xcoordinate
    5.9744,                   !- Vertex 3 Ycoordinate
    0,                        !- Vertex 3 Zcoordinate
    25.0462,                  !- Vertex 4 Xcoordinate
    5.9744,                   !- Vertex 4 Ycoordinate
    24;                       !- Vertex 4 Zcoordinate

BUILDINGSURFACE:DETAILED,
    Block Build0_Alt0 Storey 0 Wall 0009,    !- Name
    wall,                     !- Surface Type
    Project Wall,             !- Construction Name
    Block Build0_Alt0 Storey 0,    !- Zone Name
    outdoors,                 !- Outside Boundary Condition
    ,                         !- Outside Boundary Condition Object
    SunExposed,               !- Sun Exposure
    WindExposed,              !- Wind Exposure
    autocalculate,            !- View Factor to Ground
    autocalculate,            !- Number of Vertices
    25.0462,                  !- Vertex 1 Xcoordinate
    5.9744,                   !- Vertex 1 Ycoordinate
    24,                       !- Vertex 1 Zcoordinate
    25.0462,                  !- Vertex 2 Xcoordinate
    5.9744,                   !- Vertex 2 Ycoordinate
    0,                        !- Vertex 2 Zcoordinate
    29.0272,                  !- Vertex 3 Xcoordinate
    9.3234,                   !- Vertex 3 Ycoordinate
    0,                        !- Vertex 3 Zcoordinate
    29.0272,                  !- Vertex 4 Xcoordinate
    9.3234,                   !- Vertex 4 Ycoordinate
    24;                       !- Vertex 4 Zcoordinate

BUILDINGSURFACE:DETAILED,
    Block Build0_Alt0 Storey 0 Wall 0010,    !- Name
    wall,                     !- Surface Type
    Project Wall,             !- Construction Name
    Block Build0_Alt0 Storey 0,    !- Zone Name
    outdoors,                 !- Outside Boundary Condition
    ,                         !- Outside Boundary Condition Object
    SunExposed,               !- Sun Exposure
    WindExposed,              !- Wind Exposure
    autocalculate,            !- View Factor to Ground
    autocalculate,            !- Number of Vertices
    29.0272,                  !- Vertex 1 Xcoordinate
    9.3234,                   !- Vertex 1 Ycoordinate
    24,                       !- Vertex 1 Zcoordinate
    29.0272,                  !- Vertex 2 Xcoordinate
    9.3234,                   !- Vertex 2 Ycoordinate
    0,                        !- Vertex 2 Zcoordinate
    22.2622,                  !- Vertex 3 Xcoordinate
    16.8044,                  !- Vertex 3 Ycoordinate
    0,                        !- Vertex 3 Zcoordinate
    22.2622,                  !- Vertex 4 Xcoordinate
    16.8044,                  !- Vertex 4 Ycoordinate
    24;                       !- Vertex 4 Zcoordinate

BUILDINGSURFACE:DETAILED,
    Block Build0_Alt0 Storey 0 Wall 0011,    !- Name
    wall,                     !- Surface Type
    Project Wall,             !- Construction Name
    Block Build0_Alt0 Storey 0,    !- Zone Name
    outdoors,                 !- Outside Boundary Condition
    ,                         !- Outside Boundary Condition Object
    SunExposed,               !- Sun Exposure
    WindExposed,              !- Wind Exposure
    autocalculate,            !- View Factor to Ground
    autocalculate,            !- Number of Vertices
    22.2622,                  !- Vertex 1 Xcoordinate
    16.8044,                  !- Vertex 1 Ycoordinate
    24,                       !- Vertex 1 Zcoordinate
    22.2622,                  !- Vertex 2 Xcoordinate
    16.8044,                  !- Vertex 2 Ycoordinate
    0,                        !- Vertex 2 Zcoordinate
    18.4752,                  !- Vertex 3 Xcoordinate
    13.6044,                  !- Vertex 3 Ycoordinate
    0,                        !- Vertex 3 Zcoordinate
    18.4752,                  !- Vertex 4 Xcoordinate
    13.6044,                  !- Vertex 4 Ycoordinate
    24;                       !- Vertex 4 Zcoordinate

BUILDINGSURFACE:DETAILED,
    Block Build0_Alt0 Storey 0 Wall 0012,    !- Name
    wall,                     !- Surface Type
    Project Wall,             !- Construction Name
    Block Build0_Alt0 Storey 0,    !- Zone Name
    outdoors,                 !- Outside Boundary Condition
    ,                         !- Outside Boundary Condition Object
    SunExposed,               !- Sun Exposure
    WindExposed,              !- Wind Exposure
    autocalculate,            !- View Factor to Ground
    autocalculate,            !- Number of Vertices
    18.4752,                  !- Vertex 1 Xcoordinate
    13.6044,                  !- Vertex 1 Ycoordinate
    24,                       !- Vertex 1 Zcoordinate
    18.4752,                  !- Vertex 2 Xcoordinate
    13.6044,                  !- Vertex 2 Ycoordinate
    0,                        !- Vertex 2 Zcoordinate
    12.1086,                  !- Vertex 3 Xcoordinate
    20.9717,                  !- Vertex 3 Ycoordinate
    0,                        !- Vertex 3 Zcoordinate
    12.1086,                  !- Vertex 4 Xcoordinate
    20.9717,                  !- Vertex 4 Ycoordinate
    24;                       !- Vertex 4 Zcoordinate

BUILDINGSURFACE:DETAILED,
    Block Build1_Alt0 Storey -1 Wall 0002,    !- Name
    wall,                     !- Surface Type
    Project Basement Wall,    !- Construction Name
    Block Build1_Alt0 Storey -1,    !- Zone Name
    ground,                   !- Outside Boundary Condition
    ,                         !- Outside Boundary Condition Object
    NoSun,                    !- Sun Exposure
    NoWind,                   !- Wind Exposure
    autocalculate,            !- View Factor to Ground
    autocalculate,            !- Number of Vertices
    2.3635,                   !- Vertex 1 Xcoordinate
    1.6396,                   !- Vertex 1 Ycoordinate
    0,                        !- Vertex 1 Zcoordinate
    2.3635,                   !- Vertex 2 Xcoordinate
    1.6396,                   !- Vertex 2 Ycoordinate
    -2.5,                     !- Vertex 2 Zcoordinate
    -10.6438,                 !- Vertex 3 Xcoordinate
    -9.2456,                  !- Vertex 3 Ycoordinate
    -2.5,                     !- Vertex 3 Zcoordinate
    -10.6438,                 !- Vertex 4 Xcoordinate
    -9.2456,                  !- Vertex 4 Ycoordinate
    0;                        !- Vertex 4 Zcoordinate

BUILDINGSURFACE:DETAILED,
    Block Build1_Alt0 Storey -1 Wall 0003,    !- Name
    wall,                     !- Surface Type
    Project Basement Wall,    !- Construction Name
    Block Build1_Alt0 Storey -1,    !- Zone Name
    ground,                   !- Outside Boundary Condition
    ,                         !- Outside Boundary Condition Object
    NoSun,                    !- Sun Exposure
    NoWind,                   !- Wind Exposure
    autocalculate,            !- View Factor to Ground
    autocalculate,            !- Number of Vertices
    -10.6438,                 !- Vertex 1 Xcoordinate
    -9.2456,                  !- Vertex 1 Ycoordinate
    0,                        !- Vertex 1 Zcoordinate
    -10.6438,                 !- Vertex 2 Xcoordinate
    -9.2456,                  !- Vertex 2 Ycoordinate
    -2.5,                     !- Vertex 2 Zcoordinate
    -3.8728,                  !- Vertex 3 Xcoordinate
    -17.0856,                 !- Vertex 3 Ycoordinate
    -2.5,                     !- Vertex 3 Zcoordinate
    -3.8728,                  !- Vertex 4 Xcoordinate
    -17.0856,                 !- Vertex 4 Ycoordinate
    0;                        !- Vertex 4 Zcoordinate

BUILDINGSURFACE:DETAILED,
    Block Build1_Alt0 Storey -1 Wall 0004,    !- Name
    wall,                     !- Surface Type
    Project Basement Wall,    !- Construction Name
    Block Build1_Alt0 Storey -1,    !- Zone Name
    ground,                   !- Outside Boundary Condition
    ,                         !- Outside Boundary Condition Object
    NoSun,                    !- Sun Exposure
    NoWind,                   !- Wind Exposure
    autocalculate,            !- View Factor to Ground
    autocalculate,            !- Number of Vertices
    -3.8728,                  !- Vertex 1 Xcoordinate
    -17.0856,                 !- Vertex 1 Ycoordinate
    0,                        !- Vertex 1 Zcoordinate
    -3.8728,                  !- Vertex 2 Xcoordinate
    -17.0856,                 !- Vertex 2 Ycoordinate
    -2.5,                     !- Vertex 2 Zcoordinate
    -6.8868,                  !- Vertex 3 Xcoordinate
    -19.6936,                 !- Vertex 3 Ycoordinate
    -2.5,                     !- Vertex 3 Zcoordinate
    -6.8868,                  !- Vertex 4 Xcoordinate
    -19.6936,                 !- Vertex 4 Ycoordinate
    0;                        !- Vertex 4 Zcoordinate

BUILDINGSURFACE:DETAILED,
    Block Build1_Alt0 Storey -1 Wall 0005,    !- Name
    wall,                     !- Surface Type
    Project Basement Wall,    !- Construction Name
    Block Build1_Alt0 Storey -1,    !- Zone Name
    ground,                   !- Outside Boundary Condition
    ,                         !- Outside Boundary Condition Object
    NoSun,                    !- Sun Exposure
    NoWind,                   !- Wind Exposure
    autocalculate,            !- View Factor to Ground
    autocalculate,            !- Number of Vertices
    -6.8868,                  !- Vertex 1 Xcoordinate
    -19.6936,                 !- Vertex 1 Ycoordinate
    0,                        !- Vertex 1 Zcoordinate
    -6.8868,                  !- Vertex 2 Xcoordinate
    -19.6936,                 !- Vertex 2 Ycoordinate
    -2.5,                     !- Vertex 2 Zcoordinate
    -2.5058,                  !- Vertex 3 Xcoordinate
    -24.7526,                 !- Vertex 3 Ycoordinate
    -2.5,                     !- Vertex 3 Zcoordinate
    -2.5058,                  !- Vertex 4 Xcoordinate
    -24.7526,                 !- Vertex 4 Ycoordinate
    0;                        !- Vertex 4 Zcoordinate

BUILDINGSURFACE:DETAILED,
    Block Build1_Alt0 Storey -1 Wall 0006,    !- Name
    wall,                     !- Surface Type
    Project Basement Wall,    !- Construction Name
    Block Build1_Alt0 Storey -1,    !- Zone Name
    ground,                   !- Outside Boundary Condition
    ,                         !- Outside Boundary Condition Object
    NoSun,                    !- Sun Exposure
    NoWind,                   !- Wind Exposure
    autocalculate,            !- View Factor to Ground
    autocalculate,            !- Number of Vertices
    -2.5058,                  !- Vertex 1 Xcoordinate
    -24.7526,                 !- Vertex 1 Ycoordinate
    0,                        !- Vertex 1 Zcoordinate
    -2.5058,                  !- Vertex 2 Xcoordinate
    -24.7526,                 !- Vertex 2 Ycoordinate
    -2.5,                     !- Vertex 2 Zcoordinate
    0.5182,                   !- Vertex 3 Xcoordinate
    -22.1326,                 !- Vertex 3 Ycoordinate
    -2.5,                     !- Vertex 3 Zcoordinate
    0.5182,                   !- Vertex 4 Xcoordinate
    -22.1326,                 !- Vertex 4 Ycoordinate
    0;                        !- Vertex 4 Zcoordinate

BUILDINGSURFACE:DETAILED,
    Block Build1_Alt0 Storey -1 Wall 0007,    !- Name
    wall,                     !- Surface Type
    Project Basement Wall,    !- Construction Name
    Block Build1_Alt0 Storey -1,    !- Zone Name
    ground,                   !- Outside Boundary Condition
    ,                         !- Outside Boundary Condition Object
    NoSun,                    !- Sun Exposure
    NoWind,                   !- Wind Exposure
    autocalculate,            !- View Factor to Ground
    autocalculate,            !- Number of Vertices
    0.5182,                   !- Vertex 1 Xcoordinate
    -22.1326,                 !- Vertex 1 Ycoordinate
    0,                        !- Vertex 1 Zcoordinate
    0.5182,                   !- Vertex 2 Xcoordinate
    -22.1326,                 !- Vertex 2 Ycoordinate
    -2.5,                     !- Vertex 2 Zcoordinate
    5.0992,                   !- Vertex 3 Xcoordinate
    -27.4236,                 !- Vertex 3 Ycoordinate
    -2.5,                     !- Vertex 3 Zcoordinate
    5.0992,                   !- Vertex 4 Xcoordinate
    -27.4236,                 !- Vertex 4 Ycoordinate
    0;                        !- Vertex 4 Zcoordinate

BUILDINGSURFACE:DETAILED,
    Block Build1_Alt0 Storey -1 Wall 0008,    !- Name
    wall,                     !- Surface Type
    Project Basement Wall,    !- Construction Name
    Block Build1_Alt0 Storey -1,    !- Zone Name
    ground,                   !- Outside Boundary Condition
    ,                         !- Outside Boundary Condition Object
    NoSun,                    !- Sun Exposure
    NoWind,                   !- Wind Exposure
    autocalculate,            !- View Factor to Ground
    autocalculate,            !- Number of Vertices
    5.0992,                   !- Vertex 1 Xcoordinate
    -27.4236,                 !- Vertex 1 Ycoordinate
    0,                        !- Vertex 1 Zcoordinate
    5.0992,                   !- Vertex 2 Xcoordinate
    -27.4236,                 !- Vertex 2 Ycoordinate
    -2.5,                     !- Vertex 2 Zcoordinate
    12.7072,                  !- Vertex 3 Xcoordinate
    -20.8806,                 !- Vertex 3 Ycoordinate
    -2.5,                     !- Vertex 3 Zcoordinate
    12.7072,                  !- Vertex 4 Xcoordinate
    -20.8806,                 !- Vertex 4 Ycoordinate
    0;                        !- Vertex 4 Zcoordinate

BUILDINGSURFACE:DETAILED,
    Block Build1_Alt0 Storey -1 Wall 0009,    !- Name
    wall,                     !- Surface Type
    Project Basement Wall,    !- Construction Name
    Block Build1_Alt0 Storey -1,    !- Zone Name
    ground,                   !- Outside Boundary Condition
    ,                         !- Outside Boundary Condition Object
    NoSun,                    !- Sun Exposure
    NoWind,                   !- Wind Exposure
    autocalculate,            !- View Factor to Ground
    autocalculate,            !- Number of Vertices
    12.7072,                  !- Vertex 1 Xcoordinate
    -20.8806,                 !- Vertex 1 Ycoordinate
    0,                        !- Vertex 1 Zcoordinate
    12.7072,                  !- Vertex 2 Xcoordinate
    -20.8806,                 !- Vertex 2 Ycoordinate
    -2.5,                     !- Vertex 2 Zcoordinate
    5.2712,                   !- Vertex 3 Xcoordinate
    -12.2586,                 !- Vertex 3 Ycoordinate
    -2.5,                     !- Vertex 3 Zcoordinate
    5.2712,                   !- Vertex 4 Xcoordinate
    -12.2586,                 !- Vertex 4 Ycoordinate
    0;                        !- Vertex 4 Zcoordinate

BUILDINGSURFACE:DETAILED,
    Block Build1_Alt0 Storey -1 Wall 0010,    !- Name
    wall,                     !- Surface Type
    Project Basement Wall,    !- Construction Name
    Block Build1_Alt0 Storey -1,    !- Zone Name
    ground,                   !- Outside Boundary Condition
    ,                         !- Outside Boundary Condition Object
    NoSun,                    !- Sun Exposure
    NoWind,                   !- Wind Exposure
    autocalculate,            !- View Factor to Ground
    autocalculate,            !- Number of Vertices
    5.2712,                   !- Vertex 1 Xcoordinate
    -12.2586,                 !- Vertex 1 Ycoordinate
    0,                        !- Vertex 1 Zcoordinate
    5.2712,                   !- Vertex 2 Xcoordinate
    -12.2586,                 !- Vertex 2 Ycoordinate
    -2.5,                     !- Vertex 2 Zcoordinate
    10.7051,                  !- Vertex 3 Xcoordinate
    -7.8058,                  !- Vertex 3 Ycoordinate
    -2.5,                     !- Vertex 3 Zcoordinate
    10.7051,                  !- Vertex 4 Xcoordinate
    -7.8058,                  !- Vertex 4 Ycoordinate
    0;                        !- Vertex 4 Zcoordinate

BUILDINGSURFACE:DETAILED,
    Block Build1_Alt0 Storey -1 Floor 0001,    !- Name
    floor,                    !- Surface Type
    Project Basement Floor,    !- Construction Name
    Block Build1_Alt0 Storey -1,    !- Zone Name
    ground,                   !- Outside Boundary Condition
    ,                         !- Outside Boundary Condition Object
    NoSun,                    !- Sun Exposure
    NoWind,                   !- Wind Exposure
    autocalculate,            !- View Factor to Ground
    autocalculate,            !- Number of Vertices
    10.7051,                  !- Vertex 1 Xcoordinate
    -7.8058,                  !- Vertex 1 Ycoordinate
    -2.5,                     !- Vertex 1 Zcoordinate
    5.2712,                   !- Vertex 2 Xcoordinate
    -12.2586,                 !- Vertex 2 Ycoordinate
    -2.5,                     !- Vertex 2 Zcoordinate
    12.7072,                  !- Vertex 3 Xcoordinate
    -20.8806,                 !- Vertex 3 Ycoordinate
    -2.5,                     !- Vertex 3 Zcoordinate
    5.0992,                   !- Vertex 4 Xcoordinate
    -27.4236,                 !- Vertex 4 Ycoordinate
    -2.5,                     !- Vertex 4 Zcoordinate
    0.5182,                   !- Vertex 5 Xcoordinate
    -22.1326,                 !- Vertex 5 Ycoordinate
    -2.5,                     !- Vertex 5 Zcoordinate
    -2.5058,                  !- Vertex 6 Xcoordinate
    -24.7526,                 !- Vertex 6 Ycoordinate
    -2.5,                     !- Vertex 6 Zcoordinate
    -6.8868,                  !- Vertex 7 Xcoordinate
    -19.6936,                 !- Vertex 7 Ycoordinate
    -2.5,                     !- Vertex 7 Zcoordinate
    -3.8728,                  !- Vertex 8 Xcoordinate
    -17.0856,                 !- Vertex 8 Ycoordinate
    -2.5,                     !- Vertex 8 Zcoordinate
    -10.6438,                 !- Vertex 9 Xcoordinate
    -9.2456,                  !- Vertex 9 Ycoordinate
    -2.5,                     !- Vertex 9 Zcoordinate
    2.3635,                   !- Vertex 10 Xcoordinate
    1.6396,                   !- Vertex 10 Ycoordinate
    -2.5;                     !- Vertex 10 Zcoordinate

BUILDINGSURFACE:DETAILED,
    Block Build1_Alt0 Storey 0 Wall 0002,    !- Name
    wall,                     !- Surface Type
    Project Wall,             !- Construction Name
    Block Build1_Alt0 Storey 0,    !- Zone Name
    outdoors,                 !- Outside Boundary Condition
    ,                         !- Outside Boundary Condition Object
    SunExposed,               !- Sun Exposure
    WindExposed,              !- Wind Exposure
    autocalculate,            !- View Factor to Ground
    autocalculate,            !- Number of Vertices
    2.3635,                   !- Vertex 1 Xcoordinate
    1.6396,                   !- Vertex 1 Ycoordinate
    12,                       !- Vertex 1 Zcoordinate
    2.3635,                   !- Vertex 2 Xcoordinate
    1.6396,                   !- Vertex 2 Ycoordinate
    0,                        !- Vertex 2 Zcoordinate
    -10.6438,                 !- Vertex 3 Xcoordinate
    -9.2456,                  !- Vertex 3 Ycoordinate
    0,                        !- Vertex 3 Zcoordinate
    -10.6438,                 !- Vertex 4 Xcoordinate
    -9.2456,                  !- Vertex 4 Ycoordinate
    12;                       !- Vertex 4 Zcoordinate

BUILDINGSURFACE:DETAILED,
    Block Build1_Alt0 Storey 0 Wall 0003,    !- Name
    wall,                     !- Surface Type
    Project Wall,             !- Construction Name
    Block Build1_Alt0 Storey 0,    !- Zone Name
    outdoors,                 !- Outside Boundary Condition
    ,                         !- Outside Boundary Condition Object
    SunExposed,               !- Sun Exposure
    WindExposed,              !- Wind Exposure
    autocalculate,            !- View Factor to Ground
    autocalculate,            !- Number of Vertices
    -10.6438,                 !- Vertex 1 Xcoordinate
    -9.2456,                  !- Vertex 1 Ycoordinate
    12,                       !- Vertex 1 Zcoordinate
    -10.6438,                 !- Vertex 2 Xcoordinate
    -9.2456,                  !- Vertex 2 Ycoordinate
    0,                        !- Vertex 2 Zcoordinate
    -3.8728,                  !- Vertex 3 Xcoordinate
    -17.0856,                 !- Vertex 3 Ycoordinate
    0,                        !- Vertex 3 Zcoordinate
    -3.8728,                  !- Vertex 4 Xcoordinate
    -17.0856,                 !- Vertex 4 Ycoordinate
    12;                       !- Vertex 4 Zcoordinate

BUILDINGSURFACE:DETAILED,
    Block Build1_Alt0 Storey 0 Wall 0004,    !- Name
    wall,                     !- Surface Type
    Project Wall,             !- Construction Name
    Block Build1_Alt0 Storey 0,    !- Zone Name
    outdoors,                 !- Outside Boundary Condition
    ,                         !- Outside Boundary Condition Object
    SunExposed,               !- Sun Exposure
    WindExposed,              !- Wind Exposure
    autocalculate,            !- View Factor to Ground
    autocalculate,            !- Number of Vertices
    -3.8728,                  !- Vertex 1 Xcoordinate
    -17.0856,                 !- Vertex 1 Ycoordinate
    12,                       !- Vertex 1 Zcoordinate
    -3.8728,                  !- Vertex 2 Xcoordinate
    -17.0856,                 !- Vertex 2 Ycoordinate
    0,                        !- Vertex 2 Zcoordinate
    -6.8868,                  !- Vertex 3 Xcoordinate
    -19.6936,                 !- Vertex 3 Ycoordinate
    0,                        !- Vertex 3 Zcoordinate
    -6.8868,                  !- Vertex 4 Xcoordinate
    -19.6936,                 !- Vertex 4 Ycoordinate
    12;                       !- Vertex 4 Zcoordinate

BUILDINGSURFACE:DETAILED,
    Block Build1_Alt0 Storey 0 Wall 0005,    !- Name
    wall,                     !- Surface Type
    Project Wall,             !- Construction Name
    Block Build1_Alt0 Storey 0,    !- Zone Name
    outdoors,                 !- Outside Boundary Condition
    ,                         !- Outside Boundary Condition Object
    SunExposed,               !- Sun Exposure
    WindExposed,              !- Wind Exposure
    autocalculate,            !- View Factor to Ground
    autocalculate,            !- Number of Vertices
    -6.8868,                  !- Vertex 1 Xcoordinate
    -19.6936,                 !- Vertex 1 Ycoordinate
    12,                       !- Vertex 1 Zcoordinate
    -6.8868,                  !- Vertex 2 Xcoordinate
    -19.6936,                 !- Vertex 2 Ycoordinate
    0,                        !- Vertex 2 Zcoordinate
    -2.5058,                  !- Vertex 3 Xcoordinate
    -24.7526,                 !- Vertex 3 Ycoordinate
    0,                        !- Vertex 3 Zcoordinate
    -2.5058,                  !- Vertex 4 Xcoordinate
    -24.7526,                 !- Vertex 4 Ycoordinate
    12;                       !- Vertex 4 Zcoordinate

BUILDINGSURFACE:DETAILED,
    Block Build1_Alt0 Storey 0 Wall 0006,    !- Name
    wall,                     !- Surface Type
    Project Wall,             !- Construction Name
    Block Build1_Alt0 Storey 0,    !- Zone Name
    outdoors,                 !- Outside Boundary Condition
    ,                         !- Outside Boundary Condition Object
    SunExposed,               !- Sun Exposure
    WindExposed,              !- Wind Exposure
    autocalculate,            !- View Factor to Ground
    autocalculate,            !- Number of Vertices
    -2.5058,                  !- Vertex 1 Xcoordinate
    -24.7526,                 !- Vertex 1 Ycoordinate
    12,                       !- Vertex 1 Zcoordinate
    -2.5058,                  !- Vertex 2 Xcoordinate
    -24.7526,                 !- Vertex 2 Ycoordinate
    0,                        !- Vertex 2 Zcoordinate
    0.5182,                   !- Vertex 3 Xcoordinate
    -22.1326,                 !- Vertex 3 Ycoordinate
    0,                        !- Vertex 3 Zcoordinate
    0.5182,                   !- Vertex 4 Xcoordinate
    -22.1326,                 !- Vertex 4 Ycoordinate
    12;                       !- Vertex 4 Zcoordinate

BUILDINGSURFACE:DETAILED,
    Block Build1_Alt0 Storey 0 Wall 0007,    !- Name
    wall,                     !- Surface Type
    Project Wall,             !- Construction Name
    Block Build1_Alt0 Storey 0,    !- Zone Name
    outdoors,                 !- Outside Boundary Condition
    ,                         !- Outside Boundary Condition Object
    SunExposed,               !- Sun Exposure
    WindExposed,              !- Wind Exposure
    autocalculate,            !- View Factor to Ground
    autocalculate,            !- Number of Vertices
    0.5182,                   !- Vertex 1 Xcoordinate
    -22.1326,                 !- Vertex 1 Ycoordinate
    12,                       !- Vertex 1 Zcoordinate
    0.5182,                   !- Vertex 2 Xcoordinate
    -22.1326,                 !- Vertex 2 Ycoordinate
    0,                        !- Vertex 2 Zcoordinate
    5.0992,                   !- Vertex 3 Xcoordinate
    -27.4236,                 !- Vertex 3 Ycoordinate
    0,                        !- Vertex 3 Zcoordinate
    5.0992,                   !- Vertex 4 Xcoordinate
    -27.4236,                 !- Vertex 4 Ycoordinate
    12;                       !- Vertex 4 Zcoordinate

BUILDINGSURFACE:DETAILED,
    Block Build1_Alt0 Storey 0 Wall 0008,    !- Name
    wall,                     !- Surface Type
    Project Wall,             !- Construction Name
    Block Build1_Alt0 Storey 0,    !- Zone Name
    outdoors,                 !- Outside Boundary Condition
    ,                         !- Outside Boundary Condition Object
    SunExposed,               !- Sun Exposure
    WindExposed,              !- Wind Exposure
    autocalculate,            !- View Factor to Ground
    autocalculate,            !- Number of Vertices
    5.0992,                   !- Vertex 1 Xcoordinate
    -27.4236,                 !- Vertex 1 Ycoordinate
    12,                       !- Vertex 1 Zcoordinate
    5.0992,                   !- Vertex 2 Xcoordinate
    -27.4236,                 !- Vertex 2 Ycoordinate
    0,                        !- Vertex 2 Zcoordinate
    12.7072,                  !- Vertex 3 Xcoordinate
    -20.8806,                 !- Vertex 3 Ycoordinate
    0,                        !- Vertex 3 Zcoordinate
    12.7072,                  !- Vertex 4 Xcoordinate
    -20.8806,                 !- Vertex 4 Ycoordinate
    12;                       !- Vertex 4 Zcoordinate

BUILDINGSURFACE:DETAILED,
    Block Build1_Alt0 Storey 0 Wall 0009,    !- Name
    wall,                     !- Surface Type
    Project Wall,             !- Construction Name
    Block Build1_Alt0 Storey 0,    !- Zone Name
    outdoors,                 !- Outside Boundary Condition
    ,                         !- Outside Boundary Condition Object
    SunExposed,               !- Sun Exposure
    WindExposed,              !- Wind Exposure
    autocalculate,            !- View Factor to Ground
    autocalculate,            !- Number of Vertices
    12.7072,                  !- Vertex 1 Xcoordinate
    -20.8806,                 !- Vertex 1 Ycoordinate
    12,                       !- Vertex 1 Zcoordinate
    12.7072,                  !- Vertex 2 Xcoordinate
    -20.8806,                 !- Vertex 2 Ycoordinate
    0,                        !- Vertex 2 Zcoordinate
    5.2712,                   !- Vertex 3 Xcoordinate
    -12.2586,                 !- Vertex 3 Ycoordinate
    0,                        !- Vertex 3 Zcoordinate
    5.2712,                   !- Vertex 4 Xcoordinate
    -12.2586,                 !- Vertex 4 Ycoordinate
    12;                       !- Vertex 4 Zcoordinate

BUILDINGSURFACE:DETAILED,
    Block Build1_Alt0 Storey 0 Wall 0010,    !- Name
    wall,                     !- Surface Type
    Project Wall,             !- Construction Name
    Block Build1_Alt0 Storey 0,    !- Zone Name
    outdoors,                 !- Outside Boundary Condition
    ,                         !- Outside Boundary Condition Object
    SunExposed,               !- Sun Exposure
    WindExposed,              !- Wind Exposure
    autocalculate,            !- View Factor to Ground
    autocalculate,            !- Number of Vertices
    5.2712,                   !- Vertex 1 Xcoordinate
    -12.2586,                 !- Vertex 1 Ycoordinate
    12,                       !- Vertex 1 Zcoordinate
    5.2712,                   !- Vertex 2 Xcoordinate
    -12.2586,                 !- Vertex 2 Ycoordinate
    0,                        !- Vertex 2 Zcoordinate
    10.7051,                  !- Vertex 3 Xcoordinate
    -7.8058,                  !- Vertex 3 Ycoordinate
    0,                        !- Vertex 3 Zcoordinate
    10.7051,                  !- Vertex 4 Xcoordinate
    -7.8058,                  !- Vertex 4 Ycoordinate
    12;                       !- Vertex 4 Zcoordinate

BUILDINGSURFACE:DETAILED,
    Block Build2_Alt0 Storey -1 Wall 0001,    !- Name
    wall,                     !- Surface Type
    Project Basement Wall,    !- Construction Name
    Block Build2_Alt0 Storey -1,    !- Zone Name
    ground,                   !- Outside Boundary Condition
    ,                         !- Outside Boundary Condition Object
    NoSun,                    !- Sun Exposure
    NoWind,                   !- Wind Exposure
    autocalculate,            !- View Factor to Ground
    autocalculate,            !- Number of Vertices
    12.1086,                  !- Vertex 1 Xcoordinate
    20.9717,                  !- Vertex 1 Ycoordinate
    0,                        !- Vertex 1 Zcoordinate
    12.1086,                  !- Vertex 2 Xcoordinate
    20.9717,                  !- Vertex 2 Ycoordinate
    -2.5,                     !- Vertex 2 Zcoordinate
    5.4252,                   !- Vertex 3 Xcoordinate
    28.7054,                  !- Vertex 3 Ycoordinate
    -2.5,                     !- Vertex 3 Zcoordinate
    5.4252,                   !- Vertex 4 Xcoordinate
    28.7054,                  !- Vertex 4 Ycoordinate
    0;                        !- Vertex 4 Zcoordinate

BUILDINGSURFACE:DETAILED,
    Block Build2_Alt0 Storey -1 Wall 0002,    !- Name
    wall,                     !- Surface Type
    Project Basement Wall,    !- Construction Name
    Block Build2_Alt0 Storey -1,    !- Zone Name
    ground,                   !- Outside Boundary Condition
    ,                         !- Outside Boundary Condition Object
    NoSun,                    !- Sun Exposure
    NoWind,                   !- Wind Exposure
    autocalculate,            !- View Factor to Ground
    autocalculate,            !- Number of Vertices
    5.4252,                   !- Vertex 1 Xcoordinate
    28.7054,                  !- Vertex 1 Ycoordinate
    0,                        !- Vertex 1 Zcoordinate
    5.4252,                   !- Vertex 2 Xcoordinate
    28.7054,                  !- Vertex 2 Ycoordinate
    -2.5,                     !- Vertex 2 Zcoordinate
    5.8012,                   !- Vertex 3 Xcoordinate
    34.0114,                  !- Vertex 3 Ycoordinate
    -2.5,                     !- Vertex 3 Zcoordinate
    5.8012,                   !- Vertex 4 Xcoordinate
    34.0114,                  !- Vertex 4 Ycoordinate
    0;                        !- Vertex 4 Zcoordinate

BUILDINGSURFACE:DETAILED,
    Block Build2_Alt0 Storey -1 Wall 0003,    !- Name
    wall,                     !- Surface Type
    Project Basement Wall,    !- Construction Name
    Block Build2_Alt0 Storey -1,    !- Zone Name
    ground,                   !- Outside Boundary Condition
    ,                         !- Outside Boundary Condition Object
    NoSun,                    !- Sun Exposure
    NoWind,                   !- Wind Exposure
    autocalculate,            !- View Factor to Ground
    autocalculate,            !- Number of Vertices
    5.8012,                   !- Vertex 1 Xcoordinate
    34.0114,                  !- Vertex 1 Ycoordinate
    0,                        !- Vertex 1 Zcoordinate
    5.8012,                   !- Vertex 2 Xcoordinate
    34.0114,                  !- Vertex 2 Ycoordinate
    -2.5,                     !- Vertex 2 Zcoordinate
    -1.3178,                  !- Vertex 3 Xcoordinate
    34.5504,                  !- Vertex 3 Ycoordinate
    -2.5,                     !- Vertex 3 Zcoordinate
    -1.3178,                  !- Vertex 4 Xcoordinate
    34.5504,                  !- Vertex 4 Ycoordinate
    0;                        !- Vertex 4 Zcoordinate

BUILDINGSURFACE:DETAILED,
    Block Build2_Alt0 Storey -1 Wall 0004,    !- Name
    wall,                     !- Surface Type
    Project Basement Wall,    !- Construction Name
    Block Build2_Alt0 Storey -1,    !- Zone Name
    ground,                   !- Outside Boundary Condition
    ,                         !- Outside Boundary Condition Object
    NoSun,                    !- Sun Exposure
    NoWind,                   !- Wind Exposure
    autocalculate,            !- View Factor to Ground
    autocalculate,            !- Number of Vertices
    -1.3178,                  !- Vertex 1 Xcoordinate
    34.5504,                  !- Vertex 1 Ycoordinate
    0,                        !- Vertex 1 Zcoordinate
    -1.3178,                  !- Vertex 2 Xcoordinate
    34.5504,                  !- Vertex 2 Ycoordinate
    -2.5,                     !- Vertex 2 Zcoordinate
    -1.5898,                  !- Vertex 3 Xcoordinate
    30.5594,                  !- Vertex 3 Ycoordinate
    -2.5,                     !- Vertex 3 Zcoordinate
    -1.5898,                  !- Vertex 4 Xcoordinate
    30.5594,                  !- Vertex 4 Ycoordinate
    0;                        !- Vertex 4 Zcoordinate

BUILDINGSURFACE:DETAILED,
    Block Build2_Alt0 Storey -1 Wall 0005,    !- Name
    wall,                     !- Surface Type
    Project Basement Wall,    !- Construction Name
    Block Build2_Alt0 Storey -1,    !- Zone Name
    ground,                   !- Outside Boundary Condition
    ,                         !- Outside Boundary Condition Object
    NoSun,                    !- Sun Exposure
    NoWind,                   !- Wind Exposure
    autocalculate,            !- View Factor to Ground
    autocalculate,            !- Number of Vertices
    -1.5898,                  !- Vertex 1 Xcoordinate
    30.5594,                  !- Vertex 1 Ycoordinate
    0,                        !- Vertex 1 Zcoordinate
    -1.5898,                  !- Vertex 2 Xcoordinate
    30.5594,                  !- Vertex 2 Ycoordinate
    -2.5,                     !- Vertex 2 Zcoordinate
    -11.4608,                 !- Vertex 3 Xcoordinate
    31.3084,                  !- Vertex 3 Ycoordinate
    -2.5,                     !- Vertex 3 Zcoordinate
    -11.4608,                 !- Vertex 4 Xcoordinate
    31.3084,                  !- Vertex 4 Ycoordinate
    0;                        !- Vertex 4 Zcoordinate

BUILDINGSURFACE:DETAILED,
    Block Build2_Alt0 Storey -1 Wall 0006,    !- Name
    wall,                     !- Surface Type
    Project Basement Wall,    !- Construction Name
    Block Build2_Alt0 Storey -1,    !- Zone Name
    ground,                   !- Outside Boundary Condition
    ,                         !- Outside Boundary Condition Object
    NoSun,                    !- Sun Exposure
    NoWind,                   !- Wind Exposure
    autocalculate,            !- View Factor to Ground
    autocalculate,            !- Number of Vertices
    -11.4608,                 !- Vertex 1 Xcoordinate
    31.3084,                  !- Vertex 1 Ycoordinate
    0,                        !- Vertex 1 Zcoordinate
    -11.4608,                 !- Vertex 2 Xcoordinate
    31.3084,                  !- Vertex 2 Ycoordinate
    -2.5,                     !- Vertex 2 Zcoordinate
    -12.2148,                 !- Vertex 3 Xcoordinate
    21.3184,                  !- Vertex 3 Ycoordinate
    -2.5,                     !- Vertex 3 Zcoordinate
    -12.2148,                 !- Vertex 4 Xcoordinate
    21.3184,                  !- Vertex 4 Ycoordinate
    0;                        !- Vertex 4 Zcoordinate

BUILDINGSURFACE:DETAILED,
    Block Build2_Alt0 Storey -1 Wall 0007,    !- Name
    wall,                     !- Surface Type
    Project Basement Wall,    !- Construction Name
    Block Build2_Alt0 Storey -1,    !- Zone Name
    ground,                   !- Outside Boundary Condition
    ,                         !- Outside Boundary Condition Object
    NoSun,                    !- Sun Exposure
    NoWind,                   !- Wind Exposure
    autocalculate,            !- View Factor to Ground
    autocalculate,            !- Number of Vertices
    -12.2148,                 !- Vertex 1 Xcoordinate
    21.3184,                  !- Vertex 1 Ycoordinate
    0,                        !- Vertex 1 Zcoordinate
    -12.2148,                 !- Vertex 2 Xcoordinate
    21.3184,                  !- Vertex 2 Ycoordinate
    -2.5,                     !- Vertex 2 Zcoordinate
    -0.7468,                  !- Vertex 3 Xcoordinate
    20.4704,                  !- Vertex 3 Ycoordinate
    -2.5,                     !- Vertex 3 Zcoordinate
    -0.7468,                  !- Vertex 4 Xcoordinate
    20.4704,                  !- Vertex 4 Ycoordinate
    0;                        !- Vertex 4 Zcoordinate

BUILDINGSURFACE:DETAILED,
    Block Build2_Alt0 Storey -1 Wall 0008,    !- Name
    wall,                     !- Surface Type
    Project Basement Wall,    !- Construction Name
    Block Build2_Alt0 Storey -1,    !- Zone Name
    ground,                   !- Outside Boundary Condition
    ,                         !- Outside Boundary Condition Object
    NoSun,                    !- Sun Exposure
    NoWind,                   !- Wind Exposure
    autocalculate,            !- View Factor to Ground
    autocalculate,            !- Number of Vertices
    -0.7468,                  !- Vertex 1 Xcoordinate
    20.4704,                  !- Vertex 1 Ycoordinate
    0,                        !- Vertex 1 Zcoordinate
    -0.7468,                  !- Vertex 2 Xcoordinate
    20.4704,                  !- Vertex 2 Ycoordinate
    -2.5,                     !- Vertex 2 Zcoordinate
    4.4798,                   !- Vertex 3 Xcoordinate
    14.4437,                  !- Vertex 3 Ycoordinate
    -2.5,                     !- Vertex 3 Zcoordinate
    4.4798,                   !- Vertex 4 Xcoordinate
    14.4437,                  !- Vertex 4 Ycoordinate
    0;                        !- Vertex 4 Zcoordinate

BUILDINGSURFACE:DETAILED,
    Block Build2_Alt0 Storey -1 Floor 0001,    !- Name
    floor,                    !- Surface Type
    Project Basement Floor,    !- Construction Name
    Block Build2_Alt0 Storey -1,    !- Zone Name
    ground,                   !- Outside Boundary Condition
    ,                         !- Outside Boundary Condition Object
    NoSun,                    !- Sun Exposure
    NoWind,                   !- Wind Exposure
    autocalculate,            !- View Factor to Ground
    autocalculate,            !- Number of Vertices
    5.8012,                   !- Vertex 1 Xcoordinate
    34.0114,                  !- Vertex 1 Ycoordinate
    -2.5,                     !- Vertex 1 Zcoordinate
    5.4252,                   !- Vertex 2 Xcoordinate
    28.7054,                  !- Vertex 2 Ycoordinate
    -2.5,                     !- Vertex 2 Zcoordinate
    12.1086,                  !- Vertex 3 Xcoordinate
    20.9717,                  !- Vertex 3 Ycoordinate
    -2.5,                     !- Vertex 3 Zcoordinate
    4.4798,                   !- Vertex 4 Xcoordinate
    14.4437,                  !- Vertex 4 Ycoordinate
    -2.5,                     !- Vertex 4 Zcoordinate
    -0.7468,                  !- Vertex 5 Xcoordinate
    20.4704,                  !- Vertex 5 Ycoordinate
    -2.5,                     !- Vertex 5 Zcoordinate
    -12.2148,                 !- Vertex 6 Xcoordinate
    21.3184,                  !- Vertex 6 Ycoordinate
    -2.5,                     !- Vertex 6 Zcoordinate
    -11.4608,                 !- Vertex 7 Xcoordinate
    31.3084,                  !- Vertex 7 Ycoordinate
    -2.5,                     !- Vertex 7 Zcoordinate
    -1.5898,                  !- Vertex 8 Xcoordinate
    30.5594,                  !- Vertex 8 Ycoordinate
    -2.5,                     !- Vertex 8 Zcoordinate
    -1.3178,                  !- Vertex 9 Xcoordinate
    34.5504,                  !- Vertex 9 Ycoordinate
    -2.5;                     !- Vertex 9 Zcoordinate

BUILDINGSURFACE:DETAILED,
    Block Build2_Alt0 Storey 0 Wall 0001,    !- Name
    wall,                     !- Surface Type
    Project Wall,             !- Construction Name
    Block Build2_Alt0 Storey 0,    !- Zone Name
    outdoors,                 !- Outside Boundary Condition
    ,                         !- Outside Boundary Condition Object
    SunExposed,               !- Sun Exposure
    WindExposed,              !- Wind Exposure
    autocalculate,            !- View Factor to Ground
    autocalculate,            !- Number of Vertices
    12.1086,                  !- Vertex 1 Xcoordinate
    20.9717,                  !- Vertex 1 Ycoordinate
    12,                       !- Vertex 1 Zcoordinate
    12.1086,                  !- Vertex 2 Xcoordinate
    20.9717,                  !- Vertex 2 Ycoordinate
    0,                        !- Vertex 2 Zcoordinate
    5.4252,                   !- Vertex 3 Xcoordinate
    28.7054,                  !- Vertex 3 Ycoordinate
    0,                        !- Vertex 3 Zcoordinate
    5.4252,                   !- Vertex 4 Xcoordinate
    28.7054,                  !- Vertex 4 Ycoordinate
    12;                       !- Vertex 4 Zcoordinate

BUILDINGSURFACE:DETAILED,
    Block Build2_Alt0 Storey 0 Wall 0002,    !- Name
    wall,                     !- Surface Type
    Project Wall,             !- Construction Name
    Block Build2_Alt0 Storey 0,    !- Zone Name
    outdoors,                 !- Outside Boundary Condition
    ,                         !- Outside Boundary Condition Object
    SunExposed,               !- Sun Exposure
    WindExposed,              !- Wind Exposure
    autocalculate,            !- View Factor to Ground
    autocalculate,            !- Number of Vertices
    5.4252,                   !- Vertex 1 Xcoordinate
    28.7054,                  !- Vertex 1 Ycoordinate
    12,                       !- Vertex 1 Zcoordinate
    5.4252,                   !- Vertex 2 Xcoordinate
    28.7054,                  !- Vertex 2 Ycoordinate
    0,                        !- Vertex 2 Zcoordinate
    5.8012,                   !- Vertex 3 Xcoordinate
    34.0114,                  !- Vertex 3 Ycoordinate
    0,                        !- Vertex 3 Zcoordinate
    5.8012,                   !- Vertex 4 Xcoordinate
    34.0114,                  !- Vertex 4 Ycoordinate
    12;                       !- Vertex 4 Zcoordinate

BUILDINGSURFACE:DETAILED,
    Block Build2_Alt0 Storey 0 Wall 0003,    !- Name
    wall,                     !- Surface Type
    Project Wall,             !- Construction Name
    Block Build2_Alt0 Storey 0,    !- Zone Name
    outdoors,                 !- Outside Boundary Condition
    ,                         !- Outside Boundary Condition Object
    SunExposed,               !- Sun Exposure
    WindExposed,              !- Wind Exposure
    autocalculate,            !- View Factor to Ground
    autocalculate,            !- Number of Vertices
    5.8012,                   !- Vertex 1 Xcoordinate
    34.0114,                  !- Vertex 1 Ycoordinate
    12,                       !- Vertex 1 Zcoordinate
    5.8012,                   !- Vertex 2 Xcoordinate
    34.0114,                  !- Vertex 2 Ycoordinate
    0,                        !- Vertex 2 Zcoordinate
    -1.3178,                  !- Vertex 3 Xcoordinate
    34.5504,                  !- Vertex 3 Ycoordinate
    0,                        !- Vertex 3 Zcoordinate
    -1.3178,                  !- Vertex 4 Xcoordinate
    34.5504,                  !- Vertex 4 Ycoordinate
    12;                       !- Vertex 4 Zcoordinate

BUILDINGSURFACE:DETAILED,
    Block Build2_Alt0 Storey 0 Wall 0004,    !- Name
    wall,                     !- Surface Type
    Project Wall,             !- Construction Name
    Block Build2_Alt0 Storey 0,    !- Zone Name
    outdoors,                 !- Outside Boundary Condition
    ,                         !- Outside Boundary Condition Object
    SunExposed,               !- Sun Exposure
    WindExposed,              !- Wind Exposure
    autocalculate,            !- View Factor to Ground
    autocalculate,            !- Number of Vertices
    -1.3178,                  !- Vertex 1 Xcoordinate
    34.5504,                  !- Vertex 1 Ycoordinate
    12,                       !- Vertex 1 Zcoordinate
    -1.3178,                  !- Vertex 2 Xcoordinate
    34.5504,                  !- Vertex 2 Ycoordinate
    0,                        !- Vertex 2 Zcoordinate
    -1.5898,                  !- Vertex 3 Xcoordinate
    30.5594,                  !- Vertex 3 Ycoordinate
    0,                        !- Vertex 3 Zcoordinate
    -1.5898,                  !- Vertex 4 Xcoordinate
    30.5594,                  !- Vertex 4 Ycoordinate
    12;                       !- Vertex 4 Zcoordinate

BUILDINGSURFACE:DETAILED,
    Block Build2_Alt0 Storey 0 Wall 0005,    !- Name
    wall,                     !- Surface Type
    Project Wall,             !- Construction Name
    Block Build2_Alt0 Storey 0,    !- Zone Name
    outdoors,                 !- Outside Boundary Condition
    ,                         !- Outside Boundary Condition Object
    SunExposed,               !- Sun Exposure
    WindExposed,              !- Wind Exposure
    autocalculate,            !- View Factor to Ground
    autocalculate,            !- Number of Vertices
    -1.5898,                  !- Vertex 1 Xcoordinate
    30.5594,                  !- Vertex 1 Ycoordinate
    12,                       !- Vertex 1 Zcoordinate
    -1.5898,                  !- Vertex 2 Xcoordinate
    30.5594,                  !- Vertex 2 Ycoordinate
    0,                        !- Vertex 2 Zcoordinate
    -11.4608,                 !- Vertex 3 Xcoordinate
    31.3084,                  !- Vertex 3 Ycoordinate
    0,                        !- Vertex 3 Zcoordinate
    -11.4608,                 !- Vertex 4 Xcoordinate
    31.3084,                  !- Vertex 4 Ycoordinate
    12;                       !- Vertex 4 Zcoordinate

BUILDINGSURFACE:DETAILED,
    Block Build2_Alt0 Storey 0 Wall 0006,    !- Name
    wall,                     !- Surface Type
    Project Wall,             !- Construction Name
    Block Build2_Alt0 Storey 0,    !- Zone Name
    outdoors,                 !- Outside Boundary Condition
    ,                         !- Outside Boundary Condition Object
    SunExposed,               !- Sun Exposure
    WindExposed,              !- Wind Exposure
    autocalculate,            !- View Factor to Ground
    autocalculate,            !- Number of Vertices
    -11.4608,                 !- Vertex 1 Xcoordinate
    31.3084,                  !- Vertex 1 Ycoordinate
    12,                       !- Vertex 1 Zcoordinate
    -11.4608,                 !- Vertex 2 Xcoordinate
    31.3084,                  !- Vertex 2 Ycoordinate
    0,                        !- Vertex 2 Zcoordinate
    -12.2148,                 !- Vertex 3 Xcoordinate
    21.3184,                  !- Vertex 3 Ycoordinate
    0,                        !- Vertex 3 Zcoordinate
    -12.2148,                 !- Vertex 4 Xcoordinate
    21.3184,                  !- Vertex 4 Ycoordinate
    12;                       !- Vertex 4 Zcoordinate

BUILDINGSURFACE:DETAILED,
    Block Build2_Alt0 Storey 0 Wall 0007,    !- Name
    wall,                     !- Surface Type
    Project Wall,             !- Construction Name
    Block Build2_Alt0 Storey 0,    !- Zone Name
    outdoors,                 !- Outside Boundary Condition
    ,                         !- Outside Boundary Condition Object
    SunExposed,               !- Sun Exposure
    WindExposed,              !- Wind Exposure
    autocalculate,            !- View Factor to Ground
    autocalculate,            !- Number of Vertices
    -12.2148,                 !- Vertex 1 Xcoordinate
    21.3184,                  !- Vertex 1 Ycoordinate
    12,                       !- Vertex 1 Zcoordinate
    -12.2148,                 !- Vertex 2 Xcoordinate
    21.3184,                  !- Vertex 2 Ycoordinate
    0,                        !- Vertex 2 Zcoordinate
    -0.7468,                  !- Vertex 3 Xcoordinate
    20.4704,                  !- Vertex 3 Ycoordinate
    0,                        !- Vertex 3 Zcoordinate
    -0.7468,                  !- Vertex 4 Xcoordinate
    20.4704,                  !- Vertex 4 Ycoordinate
    12;                       !- Vertex 4 Zcoordinate

BUILDINGSURFACE:DETAILED,
    Block Build2_Alt0 Storey 0 Wall 0008,    !- Name
    wall,                     !- Surface Type
    Project Wall,             !- Construction Name
    Block Build2_Alt0 Storey 0,    !- Zone Name
    outdoors,                 !- Outside Boundary Condition
    ,                         !- Outside Boundary Condition Object
    SunExposed,               !- Sun Exposure
    WindExposed,              !- Wind Exposure
    autocalculate,            !- View Factor to Ground
    autocalculate,            !- Number of Vertices
    -0.7468,                  !- Vertex 1 Xcoordinate
    20.4704,                  !- Vertex 1 Ycoordinate
    12,                       !- Vertex 1 Zcoordinate
    -0.7468,                  !- Vertex 2 Xcoordinate
    20.4704,                  !- Vertex 2 Ycoordinate
    0,                        !- Vertex 2 Zcoordinate
    4.4798,                   !- Vertex 3 Xcoordinate
    14.4437,                  !- Vertex 3 Ycoordinate
    0,                        !- Vertex 3 Zcoordinate
    4.4798,                   !- Vertex 4 Xcoordinate
    14.4437,                  !- Vertex 4 Ycoordinate
    12;                       !- Vertex 4 Zcoordinate

BUILDINGSURFACE:DETAILED,
    Block Build0_Alt0 Storey -1 Wall 0001_1,    !- Name
    wall,                     !- Surface Type
    Project Partition,        !- Construction Name
    Block Build0_Alt0 Storey -1,    !- Zone Name
    surface,                  !- Outside Boundary Condition
    Block Build2_Alt0 Storey -1 Wall 0009_1,    !- Outside Boundary Condition Object
    NoSun,                    !- Sun Exposure
    NoWind,                   !- Wind Exposure
    autocalculate,            !- View Factor to Ground
    autocalculate,            !- Number of Vertices
    12.108599999919534,       !- Vertex 1 Xcoordinate
    20.971699999931143,       !- Vertex 1 Ycoordinate
    0,                        !- Vertex 1 Zcoordinate
    12.108599999919534,       !- Vertex 2 Xcoordinate
    20.971699999931143,       !- Vertex 2 Ycoordinate
    -2.5,                     !- Vertex 2 Zcoordinate
    4.479799999855459,        !- Vertex 3 Xcoordinate
    14.443699999876316,       !- Vertex 3 Ycoordinate
    -2.5,                     !- Vertex 3 Zcoordinate
    4.479799999855459,        !- Vertex 4 Xcoordinate
    14.443699999876316,       !- Vertex 4 Ycoordinate
    0;                        !- Vertex 4 Zcoordinate

BUILDINGSURFACE:DETAILED,
    Block Build2_Alt0 Storey -1 Wall 0009_1,    !- Name
    wall,                     !- Surface Type
    Project Partition,        !- Construction Name
    Block Build2_Alt0 Storey -1,    !- Zone Name
    surface,                  !- Outside Boundary Condition
    Block Build0_Alt0 Storey -1 Wall 0001_1,    !- Outside Boundary Condition Object
    NoSun,                    !- Sun Exposure
    NoWind,                   !- Wind Exposure
    autocalculate,            !- View Factor to Ground
    autocalculate,            !- Number of Vertices
    4.479799999855459,        !- Vertex 1 Xcoordinate
    14.443699999876316,       !- Vertex 1 Ycoordinate
    0,                        !- Vertex 1 Zcoordinate
    4.479799999855459,        !- Vertex 2 Xcoordinate
    14.443699999876316,       !- Vertex 2 Ycoordinate
    -2.5,                     !- Vertex 2 Zcoordinate
    12.108599999919534,       !- Vertex 3 Xcoordinate
    20.971699999931143,       !- Vertex 3 Ycoordinate
    -2.5,                     !- Vertex 3 Zcoordinate
    12.108599999919534,       !- Vertex 4 Xcoordinate
    20.971699999931143,       !- Vertex 4 Ycoordinate
    0;                        !- Vertex 4 Zcoordinate

BUILDINGSURFACE:DETAILED,
    Block Build0_Alt0 Storey -1 Wall 0004_1,    !- Name
    wall,                     !- Surface Type
    Project Partition,        !- Construction Name
    Block Build0_Alt0 Storey -1,    !- Zone Name
    surface,                  !- Outside Boundary Condition
    Block Build1_Alt0 Storey -1 Wall 0001_1,    !- Outside Boundary Condition Object
    NoSun,                    !- Sun Exposure
    NoWind,                   !- Wind Exposure
    autocalculate,            !- View Factor to Ground
    autocalculate,            !- Number of Vertices
    2.363500000107253,        !- Vertex 1 Xcoordinate
    1.6395999998785555,       !- Vertex 1 Ycoordinate
    0,                        !- Vertex 1 Zcoordinate
    2.363500000107253,        !- Vertex 2 Xcoordinate
    1.6395999998785555,       !- Vertex 2 Ycoordinate
    -2.5,                     !- Vertex 2 Zcoordinate
    10.705099999770365,       !- Vertex 3 Xcoordinate
    -7.805799999739975,       !- Vertex 3 Ycoordinate
    -2.5,                     !- Vertex 3 Zcoordinate
    10.705099999770365,       !- Vertex 4 Xcoordinate
    -7.805799999739975,       !- Vertex 4 Ycoordinate
    0;                        !- Vertex 4 Zcoordinate

BUILDINGSURFACE:DETAILED,
    Block Build1_Alt0 Storey -1 Wall 0001_1,    !- Name
    wall,                     !- Surface Type
    Project Partition,        !- Construction Name
    Block Build1_Alt0 Storey -1,    !- Zone Name
    surface,                  !- Outside Boundary Condition
    Block Build0_Alt0 Storey -1 Wall 0004_1,    !- Outside Boundary Condition Object
    NoSun,                    !- Sun Exposure
    NoWind,                   !- Wind Exposure
    autocalculate,            !- View Factor to Ground
    autocalculate,            !- Number of Vertices
    10.705099999770361,       !- Vertex 1 Xcoordinate
    -7.805799999739975,       !- Vertex 1 Ycoordinate
    0,                        !- Vertex 1 Zcoordinate
    10.705099999770361,       !- Vertex 2 Xcoordinate
    -7.805799999739975,       !- Vertex 2 Ycoordinate
    -2.5,                     !- Vertex 2 Zcoordinate
    2.3635000001072517,       !- Vertex 3 Xcoordinate
    1.6395999998785555,       !- Vertex 3 Ycoordinate
    -2.5,                     !- Vertex 3 Zcoordinate
    2.3635000001072517,       !- Vertex 4 Xcoordinate
    1.6395999998785555,       !- Vertex 4 Ycoordinate
    0;                        !- Vertex 4 Zcoordinate

BUILDINGSURFACE:DETAILED,
    Block Build0_Alt0 Storey -1 Ceiling 0001_1,    !- Name
    ceiling,                  !- Surface Type
    Project Heated1rstFloor Rev,    !- Construction Name
    Block Build0_Alt0 Storey -1,    !- Zone Name
    surface,                  !- Outside Boundary Condition
    Block Build0_Alt0 Storey 0 Floor 0001_1,    !- Outside Boundary Condition Object
    NoSun,                    !- Sun Exposure
    NoWind,                   !- Wind Exposure
    autocalculate,            !- View Factor to Ground
    autocalculate,            !- Number of Vertices
    30.919199999887496,       !- Vertex 1 Xcoordinate
    -8.316000e-01,            !- Vertex 1 Ycoordinate
    0,                        !- Vertex 1 Zcoordinate
    25.04619999974966,        !- Vertex 2 Xcoordinate
    5.974399999715388,        !- Vertex 2 Ycoordinate
    0,                        !- Vertex 2 Zcoordinate
    29.027199999894947,       !- Vertex 3 Xcoordinate
    9.323399999644607,        !- Vertex 3 Ycoordinate
    0,                        !- Vertex 3 Zcoordinate
    22.26219999976456,        !- Vertex 4 Xcoordinate
    16.804399999789894,       !- Vertex 4 Ycoordinate
    0,                        !- Vertex 4 Zcoordinate
    18.475199999753386,       !- Vertex 5 Xcoordinate
    13.60439999960363,        !- Vertex 5 Ycoordinate
    0,                        !- Vertex 5 Zcoordinate
    12.108599999919534,       !- Vertex 6 Xcoordinate
    20.971699999645352,       !- Vertex 6 Ycoordinate
    0,                        !- Vertex 6 Zcoordinate
    4.479799999855459,        !- Vertex 7 Xcoordinate
    14.443699999712408,       !- Vertex 7 Ycoordinate
    0,                        !- Vertex 7 Zcoordinate
    10.02419999986887,        !- Vertex 8 Xcoordinate
    8.050399999599904,        !- Vertex 8 Ycoordinate
    0,                        !- Vertex 8 Zcoordinate
    2.3634999999776483,       !- Vertex 9 Xcoordinate
    1.6395999998785555,       !- Vertex 9 Ycoordinate
    0,                        !- Vertex 9 Zcoordinate
    10.705099999904633,       !- Vertex 10 Xcoordinate
    -7.805799999739975,       !- Vertex 10 Ycoordinate
    0,                        !- Vertex 10 Zcoordinate
    18.25319999968633,        !- Vertex 11 Xcoordinate
    -1.620600e+00,            !- Vertex 11 Ycoordinate
    0,                        !- Vertex 11 Zcoordinate
    23.239199999719858,       !- Vertex 12 Xcoordinate
    -7.422599999699742,       !- Vertex 12 Ycoordinate
    0;                        !- Vertex 12 Zcoordinate

BUILDINGSURFACE:DETAILED,
    Block Build0_Alt0 Storey 0 Floor 0001_1,    !- Name
    floor,                    !- Surface Type
    Project Heated1rstFloor,    !- Construction Name
    Block Build0_Alt0 Storey 0,    !- Zone Name
    surface,                  !- Outside Boundary Condition
    Block Build0_Alt0 Storey -1 Ceiling 0001_1,    !- Outside Boundary Condition Object
    NoSun,                    !- Sun Exposure
    NoWind,                   !- Wind Exposure
    autocalculate,            !- View Factor to Ground
    autocalculate,            !- Number of Vertices
    22.26219999976456,        !- Vertex 1 Xcoordinate
    16.804399999789894,       !- Vertex 1 Ycoordinate
    0,                        !- Vertex 1 Zcoordinate
    29.027199999894947,       !- Vertex 2 Xcoordinate
    9.323399999644607,        !- Vertex 2 Ycoordinate
    0,                        !- Vertex 2 Zcoordinate
    25.04619999974966,        !- Vertex 3 Xcoordinate
    5.974399999715388,        !- Vertex 3 Ycoordinate
    0,                        !- Vertex 3 Zcoordinate
    30.919199999887496,       !- Vertex 4 Xcoordinate
    -8.316000e-01,            !- Vertex 4 Ycoordinate
    0,                        !- Vertex 4 Zcoordinate
    23.239199999719858,       !- Vertex 5 Xcoordinate
    -7.422599999699742,       !- Vertex 5 Ycoordinate
    0,                        !- Vertex 5 Zcoordinate
    18.25319999968633,        !- Vertex 6 Xcoordinate
    -1.620600e+00,            !- Vertex 6 Ycoordinate
    0,                        !- Vertex 6 Zcoordinate
    10.705099999904633,       !- Vertex 7 Xcoordinate
    -7.805799999739975,       !- Vertex 7 Ycoordinate
    0,                        !- Vertex 7 Zcoordinate
    2.3634999999776483,       !- Vertex 8 Xcoordinate
    1.6395999998785555,       !- Vertex 8 Ycoordinate
    0,                        !- Vertex 8 Zcoordinate
    10.02419999986887,        !- Vertex 9 Xcoordinate
    8.050399999599904,        !- Vertex 9 Ycoordinate
    0,                        !- Vertex 9 Zcoordinate
    4.479799999855459,        !- Vertex 10 Xcoordinate
    14.443699999712408,       !- Vertex 10 Ycoordinate
    0,                        !- Vertex 10 Zcoordinate
    12.108599999919534,       !- Vertex 11 Xcoordinate
    20.971699999645352,       !- Vertex 11 Ycoordinate
    0,                        !- Vertex 11 Zcoordinate
    18.475199999753386,       !- Vertex 12 Xcoordinate
    13.60439999960363,        !- Vertex 12 Ycoordinate
    0;                        !- Vertex 12 Zcoordinate

BUILDINGSURFACE:DETAILED,
    Block Build0_Alt0 Storey 0 Wall 0001_1,    !- Name
    wall,                     !- Surface Type
    Project Partition,        !- Construction Name
    Block Build0_Alt0 Storey 0,    !- Zone Name
    surface,                  !- Outside Boundary Condition
    Block Build2_Alt0 Storey 0 Wall 0009_1,    !- Outside Boundary Condition Object
    NoSun,                    !- Sun Exposure
    NoWind,                   !- Wind Exposure
    autocalculate,            !- View Factor to Ground
    autocalculate,            !- Number of Vertices
    12.108599999919534,       !- Vertex 1 Xcoordinate
    20.971699999931143,       !- Vertex 1 Ycoordinate
    12,                       !- Vertex 1 Zcoordinate
    12.108599999919534,       !- Vertex 2 Xcoordinate
    20.971699999931143,       !- Vertex 2 Ycoordinate
    0,                        !- Vertex 2 Zcoordinate
    4.479799999855459,        !- Vertex 3 Xcoordinate
    14.443699999876314,       !- Vertex 3 Ycoordinate
    0,                        !- Vertex 3 Zcoordinate
    4.479799999855459,        !- Vertex 4 Xcoordinate
    14.443699999876314,       !- Vertex 4 Ycoordinate
    12;                       !- Vertex 4 Zcoordinate

BUILDINGSURFACE:DETAILED,
    Block Build0_Alt0 Storey 0 Wall 0001_2,    !- Name
    wall,                     !- Surface Type
    Project Wall,             !- Construction Name
    Block Build0_Alt0 Storey 0,    !- Zone Name
    outdoors,                 !- Outside Boundary Condition
    ,                         !- Outside Boundary Condition Object
    SunExposed,               !- Sun Exposure
    WindExposed,              !- Wind Exposure
    autocalculate,            !- View Factor to Ground
    autocalculate,            !- Number of Vertices
    12.108599999919534,       !- Vertex 1 Xcoordinate
    20.971699999931143,       !- Vertex 1 Ycoordinate
    24,                       !- Vertex 1 Zcoordinate
    12.108599999919534,       !- Vertex 2 Xcoordinate
    20.971699999931143,       !- Vertex 2 Ycoordinate
    12,                       !- Vertex 2 Zcoordinate
    4.479799999855459,        !- Vertex 3 Xcoordinate
    14.443699999876314,       !- Vertex 3 Ycoordinate
    12,                       !- Vertex 3 Zcoordinate
    4.479799999855459,        !- Vertex 4 Xcoordinate
    14.443699999876314,       !- Vertex 4 Ycoordinate
    24;                       !- Vertex 4 Zcoordinate

BUILDINGSURFACE:DETAILED,
    Block Build2_Alt0 Storey 0 Wall 0009_1,    !- Name
    wall,                     !- Surface Type
    Project Partition,        !- Construction Name
    Block Build2_Alt0 Storey 0,    !- Zone Name
    surface,                  !- Outside Boundary Condition
    Block Build0_Alt0 Storey 0 Wall 0001_1,    !- Outside Boundary Condition Object
    NoSun,                    !- Sun Exposure
    NoWind,                   !- Wind Exposure
    autocalculate,            !- View Factor to Ground
    autocalculate,            !- Number of Vertices
    4.479799999855459,        !- Vertex 1 Xcoordinate
    14.443699999876314,       !- Vertex 1 Ycoordinate
    12,                       !- Vertex 1 Zcoordinate
    4.479799999855459,        !- Vertex 2 Xcoordinate
    14.443699999876314,       !- Vertex 2 Ycoordinate
    0,                        !- Vertex 2 Zcoordinate
    12.108599999919534,       !- Vertex 3 Xcoordinate
    20.971699999931143,       !- Vertex 3 Ycoordinate
    0,                        !- Vertex 3 Zcoordinate
    12.108599999919534,       !- Vertex 4 Xcoordinate
    20.971699999931143,       !- Vertex 4 Ycoordinate
    12;                       !- Vertex 4 Zcoordinate

BUILDINGSURFACE:DETAILED,
    Block Build0_Alt0 Storey 0 Wall 0004_1,    !- Name
    wall,                     !- Surface Type
    Project Partition,        !- Construction Name
    Block Build0_Alt0 Storey 0,    !- Zone Name
    surface,                  !- Outside Boundary Condition
    Block Build1_Alt0 Storey 0 Wall 0001_1,    !- Outside Boundary Condition Object
    NoSun,                    !- Sun Exposure
    NoWind,                   !- Wind Exposure
    autocalculate,            !- View Factor to Ground
    autocalculate,            !- Number of Vertices
    2.363500000107252,        !- Vertex 1 Xcoordinate
    1.6395999998785555,       !- Vertex 1 Ycoordinate
    12,                       !- Vertex 1 Zcoordinate
    2.363500000107252,        !- Vertex 2 Xcoordinate
    1.6395999998785555,       !- Vertex 2 Ycoordinate
    0,                        !- Vertex 2 Zcoordinate
    10.705099999770363,       !- Vertex 3 Xcoordinate
    -7.805799999739975,       !- Vertex 3 Ycoordinate
    0,                        !- Vertex 3 Zcoordinate
    10.705099999770363,       !- Vertex 4 Xcoordinate
    -7.805799999739975,       !- Vertex 4 Ycoordinate
    12;                       !- Vertex 4 Zcoordinate

BUILDINGSURFACE:DETAILED,
    Block Build0_Alt0 Storey 0 Wall 0004_2,    !- Name
    wall,                     !- Surface Type
    Project Wall,             !- Construction Name
    Block Build0_Alt0 Storey 0,    !- Zone Name
    outdoors,                 !- Outside Boundary Condition
    ,                         !- Outside Boundary Condition Object
    SunExposed,               !- Sun Exposure
    WindExposed,              !- Wind Exposure
    autocalculate,            !- View Factor to Ground
    autocalculate,            !- Number of Vertices
    2.363500000107252,        !- Vertex 1 Xcoordinate
    1.6395999998785555,       !- Vertex 1 Ycoordinate
    24,                       !- Vertex 1 Zcoordinate
    2.363500000107252,        !- Vertex 2 Xcoordinate
    1.6395999998785555,       !- Vertex 2 Ycoordinate
    12,                       !- Vertex 2 Zcoordinate
    10.705099999770363,       !- Vertex 3 Xcoordinate
    -7.805799999739975,       !- Vertex 3 Ycoordinate
    12,                       !- Vertex 3 Zcoordinate
    10.705099999770363,       !- Vertex 4 Xcoordinate
    -7.805799999739975,       !- Vertex 4 Ycoordinate
    24;                       !- Vertex 4 Zcoordinate

BUILDINGSURFACE:DETAILED,
    Block Build1_Alt0 Storey 0 Wall 0001_1,    !- Name
    wall,                     !- Surface Type
    Project Partition,        !- Construction Name
    Block Build1_Alt0 Storey 0,    !- Zone Name
    surface,                  !- Outside Boundary Condition
    Block Build0_Alt0 Storey 0 Wall 0004_1,    !- Outside Boundary Condition Object
    NoSun,                    !- Sun Exposure
    NoWind,                   !- Wind Exposure
    autocalculate,            !- View Factor to Ground
    autocalculate,            !- Number of Vertices
    10.705099999770363,       !- Vertex 1 Xcoordinate
    -7.805799999739975,       !- Vertex 1 Ycoordinate
    12,                       !- Vertex 1 Zcoordinate
    10.705099999770363,       !- Vertex 2 Xcoordinate
    -7.805799999739975,       !- Vertex 2 Ycoordinate
    0,                        !- Vertex 2 Zcoordinate
    2.363500000107252,        !- Vertex 3 Xcoordinate
    1.6395999998785555,       !- Vertex 3 Ycoordinate
    0,                        !- Vertex 3 Zcoordinate
    2.363500000107252,        !- Vertex 4 Xcoordinate
    1.6395999998785555,       !- Vertex 4 Ycoordinate
    12;                       !- Vertex 4 Zcoordinate

BUILDINGSURFACE:DETAILED,
    Block Build1_Alt0 Storey -1 Ceiling 0001_1,    !- Name
    ceiling,                  !- Surface Type
    Project Heated1rstFloor Rev,    !- Construction Name
    Block Build1_Alt0 Storey -1,    !- Zone Name
    surface,                  !- Outside Boundary Condition
    Block Build1_Alt0 Storey 0 Floor 0001_1,    !- Outside Boundary Condition Object
    NoSun,                    !- Sun Exposure
    NoWind,                   !- Wind Exposure
    autocalculate,            !- View Factor to Ground
    autocalculate,            !- Number of Vertices
    12.707199999596924,       !- Vertex 1 Xcoordinate
    -2.088060e+01,            !- Vertex 1 Ycoordinate
    0,                        !- Vertex 1 Zcoordinate
    5.271199999842793,        !- Vertex 2 Xcoordinate
    -1.225860e+01,            !- Vertex 2 Ycoordinate
    0,                        !- Vertex 2 Zcoordinate
    10.705099999904633,       !- Vertex 3 Xcoordinate
    -7.805799999739975,       !- Vertex 3 Ycoordinate
    0,                        !- Vertex 3 Zcoordinate
    2.3634999999776483,       !- Vertex 4 Xcoordinate
    1.6395999998785555,       !- Vertex 4 Ycoordinate
    0,                        !- Vertex 4 Zcoordinate
    -1.064380e+01,            !- Vertex 5 Xcoordinate
    -9.24559999955818,        !- Vertex 5 Ycoordinate
    0,                        !- Vertex 5 Zcoordinate
    -3.872800e+00,            !- Vertex 6 Xcoordinate
    -17.08559999987483,       !- Vertex 6 Ycoordinate
    0,                        !- Vertex 6 Zcoordinate
    -6.886799999978393,       !- Vertex 7 Xcoordinate
    -19.69359999988228,       !- Vertex 7 Ycoordinate
    0,                        !- Vertex 7 Zcoordinate
    -2.505800e+00,            !- Vertex 8 Xcoordinate
    -2.475260e+01,            !- Vertex 8 Ycoordinate
    0,                        !- Vertex 8 Zcoordinate
    0.5181999998167157,       !- Vertex 9 Xcoordinate
    -22.13259999966249,       !- Vertex 9 Ycoordinate
    0,                        !- Vertex 9 Zcoordinate
    5.099199999589473,        !- Vertex 10 Xcoordinate
    -2.742360e+01,            !- Vertex 10 Ycoordinate
    0;                        !- Vertex 10 Zcoordinate

BUILDINGSURFACE:DETAILED,
    Block Build1_Alt0 Storey 0 Floor 0001_1,    !- Name
    floor,                    !- Surface Type
    Project Heated1rstFloor,    !- Construction Name
    Block Build1_Alt0 Storey 0,    !- Zone Name
    surface,                  !- Outside Boundary Condition
    Block Build1_Alt0 Storey -1 Ceiling 0001_1,    !- Outside Boundary Condition Object
    NoSun,                    !- Sun Exposure
    NoWind,                   !- Wind Exposure
    autocalculate,            !- View Factor to Ground
    autocalculate,            !- Number of Vertices
    10.705099999904633,       !- Vertex 1 Xcoordinate
    -7.805799999739975,       !- Vertex 1 Ycoordinate
    0,                        !- Vertex 1 Zcoordinate
    5.271199999842793,        !- Vertex 2 Xcoordinate
    -1.225860e+01,            !- Vertex 2 Ycoordinate
    0,                        !- Vertex 2 Zcoordinate
    12.707199999596924,       !- Vertex 3 Xcoordinate
    -2.088060e+01,            !- Vertex 3 Ycoordinate
    0,                        !- Vertex 3 Zcoordinate
    5.099199999589473,        !- Vertex 4 Xcoordinate
    -2.742360e+01,            !- Vertex 4 Ycoordinate
    0,                        !- Vertex 4 Zcoordinate
    0.5181999998167157,       !- Vertex 5 Xcoordinate
    -22.13259999966249,       !- Vertex 5 Ycoordinate
    0,                        !- Vertex 5 Zcoordinate
    -2.505800e+00,            !- Vertex 6 Xcoordinate
    -2.475260e+01,            !- Vertex 6 Ycoordinate
    0,                        !- Vertex 6 Zcoordinate
    -6.886799999978393,       !- Vertex 7 Xcoordinate
    -19.69359999988228,       !- Vertex 7 Ycoordinate
    0,                        !- Vertex 7 Zcoordinate
    -3.872800e+00,            !- Vertex 8 Xcoordinate
    -17.08559999987483,       !- Vertex 8 Ycoordinate
    0,                        !- Vertex 8 Zcoordinate
    -1.064380e+01,            !- Vertex 9 Xcoordinate
    -9.24559999955818,        !- Vertex 9 Ycoordinate
    0,                        !- Vertex 9 Zcoordinate
    2.3634999999776483,       !- Vertex 10 Xcoordinate
    1.6395999998785555,       !- Vertex 10 Ycoordinate
    0;                        !- Vertex 10 Zcoordinate

BUILDINGSURFACE:DETAILED,
    Block Build2_Alt0 Storey -1 Ceiling 0001_1,    !- Name
    ceiling,                  !- Surface Type
    Project Heated1rstFloor Rev,    !- Construction Name
    Block Build2_Alt0 Storey -1,    !- Zone Name
    surface,                  !- Outside Boundary Condition
    Block Build2_Alt0 Storey 0 Floor 0001_1,    !- Outside Boundary Condition Object
    NoSun,                    !- Sun Exposure
    NoWind,                   !- Wind Exposure
    autocalculate,            !- View Factor to Ground
    autocalculate,            !- Number of Vertices
    12.108599999919534,       !- Vertex 1 Xcoordinate
    20.971699999645352,       !- Vertex 1 Ycoordinate
    0,                        !- Vertex 1 Zcoordinate
    5.42519999993965,         !- Vertex 2 Xcoordinate
    28.705399999860674,       !- Vertex 2 Ycoordinate
    0,                        !- Vertex 2 Zcoordinate
    5.801199999637902,        !- Vertex 3 Xcoordinate
    34.011399999726564,       !- Vertex 3 Ycoordinate
    0,                        !- Vertex 3 Zcoordinate
    -1.317800e+00,            !- Vertex 4 Xcoordinate
    34.550399999599904,       !- Vertex 4 Ycoordinate
    0,                        !- Vertex 4 Zcoordinate
    -1.589800e+00,            !- Vertex 5 Xcoordinate
    30.559399999678135,       !- Vertex 5 Ycoordinate
    0,                        !- Vertex 5 Zcoordinate
    -1.146080e+01,            !- Vertex 6 Xcoordinate
    31.308399999979883,       !- Vertex 6 Ycoordinate
    0,                        !- Vertex 6 Zcoordinate
    -1.221480e+01,            !- Vertex 7 Xcoordinate
    21.318399999756366,       !- Vertex 7 Ycoordinate
    0,                        !- Vertex 7 Zcoordinate
    -7.468000e-01,            !- Vertex 8 Xcoordinate
    20.47039999999106,        !- Vertex 8 Ycoordinate
    0,                        !- Vertex 8 Zcoordinate
    4.479799999855459,        !- Vertex 9 Xcoordinate
    14.443699999712408,       !- Vertex 9 Ycoordinate
    0;                        !- Vertex 9 Zcoordinate

BUILDINGSURFACE:DETAILED,
    Block Build2_Alt0 Storey 0 Floor 0001_1,    !- Name
    floor,                    !- Surface Type
    Project Heated1rstFloor,    !- Construction Name
    Block Build2_Alt0 Storey 0,    !- Zone Name
    surface,                  !- Outside Boundary Condition
    Block Build2_Alt0 Storey -1 Ceiling 0001_1,    !- Outside Boundary Condition Object
    NoSun,                    !- Sun Exposure
    NoWind,                   !- Wind Exposure
    autocalculate,            !- View Factor to Ground
    autocalculate,            !- Number of Vertices
    5.801199999637902,        !- Vertex 1 Xcoordinate
    34.011399999726564,       !- Vertex 1 Ycoordinate
    0,                        !- Vertex 1 Zcoordinate
    5.42519999993965,         !- Vertex 2 Xcoordinate
    28.705399999860674,       !- Vertex 2 Ycoordinate
    0,                        !- Vertex 2 Zcoordinate
    12.108599999919534,       !- Vertex 3 Xcoordinate
    20.971699999645352,       !- Vertex 3 Ycoordinate
    0,                        !- Vertex 3 Zcoordinate
    4.479799999855459,        !- Vertex 4 Xcoordinate
    14.443699999712408,       !- Vertex 4 Ycoordinate
    0,                        !- Vertex 4 Zcoordinate
    -7.468000e-01,            !- Vertex 5 Xcoordinate
    20.47039999999106,        !- Vertex 5 Ycoordinate
    0,                        !- Vertex 5 Zcoordinate
    -1.221480e+01,            !- Vertex 6 Xcoordinate
    21.318399999756366,       !- Vertex 6 Ycoordinate
    0,                        !- Vertex 6 Zcoordinate
    -1.146080e+01,            !- Vertex 7 Xcoordinate
    31.308399999979883,       !- Vertex 7 Ycoordinate
    0,                        !- Vertex 7 Zcoordinate
    -1.589800e+00,            !- Vertex 8 Xcoordinate
    30.559399999678135,       !- Vertex 8 Ycoordinate
    0,                        !- Vertex 8 Zcoordinate
    -1.317800e+00,            !- Vertex 9 Xcoordinate
    34.550399999599904,       !- Vertex 9 Ycoordinate
    0;                        !- Vertex 9 Zcoordinate

BUILDINGSURFACE:DETAILED,
    Block Build0_Alt0 Storey 0 Roof 0001_0,    !- Name
    roof,                     !- Surface Type
    Project Flat Roof,        !- Construction Name
    Block Build0_Alt0 Storey 0,    !- Zone Name
    outdoors,                 !- Outside Boundary Condition
    ,                         !- Outside Boundary Condition Object
    SunExposed,               !- Sun Exposure
    WindExposed,              !- Wind Exposure
    autocalculate,            !- View Factor to Ground
    autocalculate,            !- Number of Vertices
    29.0272,                  !- Vertex 1 Xcoordinate
    9.3234,                   !- Vertex 1 Ycoordinate
    24,                       !- Vertex 1 Zcoordinate
    22.2622,                  !- Vertex 2 Xcoordinate
    16.8044,                  !- Vertex 2 Ycoordinate
    24,                       !- Vertex 2 Zcoordinate
    18.4752,                  !- Vertex 3 Xcoordinate
    13.6044,                  !- Vertex 3 Ycoordinate
    24,                       !- Vertex 3 Zcoordinate
    25.0462,                  !- Vertex 4 Xcoordinate
    5.9744,                   !- Vertex 4 Ycoordinate
    24;                       !- Vertex 4 Zcoordinate

BUILDINGSURFACE:DETAILED,
    Block Build0_Alt0 Storey 0 Roof 0001_1,    !- Name
    roof,                     !- Surface Type
    Project Flat Roof,        !- Construction Name
    Block Build0_Alt0 Storey 0,    !- Zone Name
    outdoors,                 !- Outside Boundary Condition
    ,                         !- Outside Boundary Condition Object
    SunExposed,               !- Sun Exposure
    WindExposed,              !- Wind Exposure
    autocalculate,            !- View Factor to Ground
    autocalculate,            !- Number of Vertices
    30.9192,                  !- Vertex 1 Xcoordinate
    -0.8316,                  !- Vertex 1 Ycoordinate
    24,                       !- Vertex 1 Zcoordinate
    25.0462,                  !- Vertex 2 Xcoordinate
    5.9744,                   !- Vertex 2 Ycoordinate
    24,                       !- Vertex 2 Zcoordinate
    18.2532,                  !- Vertex 3 Xcoordinate
    -1.6206,                  !- Vertex 3 Ycoordinate
    24,                       !- Vertex 3 Zcoordinate
    23.2392,                  !- Vertex 4 Xcoordinate
    -7.4226,                  !- Vertex 4 Ycoordinate
    24;                       !- Vertex 4 Zcoordinate

BUILDINGSURFACE:DETAILED,
    Block Build0_Alt0 Storey 0 Roof 0001_2,    !- Name
    roof,                     !- Surface Type
    Project Flat Roof,        !- Construction Name
    Block Build0_Alt0 Storey 0,    !- Zone Name
    outdoors,                 !- Outside Boundary Condition
    ,                         !- Outside Boundary Condition Object
    SunExposed,               !- Sun Exposure
    WindExposed,              !- Wind Exposure
    autocalculate,            !- View Factor to Ground
    autocalculate,            !- Number of Vertices
    18.4752,                  !- Vertex 1 Xcoordinate
    13.6044,                  !- Vertex 1 Ycoordinate
    24,                       !- Vertex 1 Zcoordinate
    12.1086,                  !- Vertex 2 Xcoordinate
    20.9717,                  !- Vertex 2 Ycoordinate
    24,                       !- Vertex 2 Zcoordinate
    4.4798,                   !- Vertex 3 Xcoordinate
    14.4437,                  !- Vertex 3 Ycoordinate
    24,                       !- Vertex 3 Zcoordinate
    10.0242,                  !- Vertex 4 Xcoordinate
    8.0504,                   !- Vertex 4 Ycoordinate
    24;                       !- Vertex 4 Zcoordinate

BUILDINGSURFACE:DETAILED,
    Block Build0_Alt0 Storey 0 Roof 0001_3,    !- Name
    roof,                     !- Surface Type
    Project Flat Roof,        !- Construction Name
    Block Build0_Alt0 Storey 0,    !- Zone Name
    outdoors,                 !- Outside Boundary Condition
    ,                         !- Outside Boundary Condition Object
    SunExposed,               !- Sun Exposure
    WindExposed,              !- Wind Exposure
    autocalculate,            !- View Factor to Ground
    autocalculate,            !- Number of Vertices
    18.2532,                  !- Vertex 1 Xcoordinate
    -1.6206,                  !- Vertex 1 Ycoordinate
    24,                       !- Vertex 1 Zcoordinate
    25.0462,                  !- Vertex 2 Xcoordinate
    5.9744,                   !- Vertex 2 Ycoordinate
    24,                       !- Vertex 2 Zcoordinate
    18.4752,                  !- Vertex 3 Xcoordinate
    13.6044,                  !- Vertex 3 Ycoordinate
    24,                       !- Vertex 3 Zcoordinate
    10.0242,                  !- Vertex 4 Xcoordinate
    8.0504,                   !- Vertex 4 Ycoordinate
    24,                       !- Vertex 4 Zcoordinate
    2.3635,                   !- Vertex 5 Xcoordinate
    1.6396,                   !- Vertex 5 Ycoordinate
    24,                       !- Vertex 5 Zcoordinate
    10.7051,                  !- Vertex 6 Xcoordinate
    -7.8058,                  !- Vertex 6 Ycoordinate
    24;                       !- Vertex 6 Zcoordinate

BUILDINGSURFACE:DETAILED,
    Block Build1_Alt0 Storey 0 Roof 0001_0,    !- Name
    roof,                     !- Surface Type
    Project Flat Roof,        !- Construction Name
    Block Build1_Alt0 Storey 0,    !- Zone Name
    outdoors,                 !- Outside Boundary Condition
    ,                         !- Outside Boundary Condition Object
    SunExposed,               !- Sun Exposure
    WindExposed,              !- Wind Exposure
    autocalculate,            !- View Factor to Ground
    autocalculate,            !- Number of Vertices
    0.5182,                   !- Vertex 1 Xcoordinate
    -22.1326,                 !- Vertex 1 Ycoordinate
    12,                       !- Vertex 1 Zcoordinate
    5.2712,                   !- Vertex 2 Xcoordinate
    -12.2586,                 !- Vertex 2 Ycoordinate
    12,                       !- Vertex 2 Zcoordinate
    -3.8728,                  !- Vertex 3 Xcoordinate
    -17.0856,                 !- Vertex 3 Ycoordinate
    12,                       !- Vertex 3 Zcoordinate
    -6.8868,                  !- Vertex 4 Xcoordinate
    -19.6936,                 !- Vertex 4 Ycoordinate
    12,                       !- Vertex 4 Zcoordinate
    -2.5058,                  !- Vertex 5 Xcoordinate
    -24.7526,                 !- Vertex 5 Ycoordinate
    12;                       !- Vertex 5 Zcoordinate

BUILDINGSURFACE:DETAILED,
    Block Build1_Alt0 Storey 0 Roof 0001_1,    !- Name
    roof,                     !- Surface Type
    Project Flat Roof,        !- Construction Name
    Block Build1_Alt0 Storey 0,    !- Zone Name
    outdoors,                 !- Outside Boundary Condition
    ,                         !- Outside Boundary Condition Object
    SunExposed,               !- Sun Exposure
    WindExposed,              !- Wind Exposure
    autocalculate,            !- View Factor to Ground
    autocalculate,            !- Number of Vertices
    12.7072,                  !- Vertex 1 Xcoordinate
    -20.8806,                 !- Vertex 1 Ycoordinate
    12,                       !- Vertex 1 Zcoordinate
    5.2712,                   !- Vertex 2 Xcoordinate
    -12.2586,                 !- Vertex 2 Ycoordinate
    12,                       !- Vertex 2 Zcoordinate
    0.5182,                   !- Vertex 3 Xcoordinate
    -22.1326,                 !- Vertex 3 Ycoordinate
    12,                       !- Vertex 3 Zcoordinate
    5.0992,                   !- Vertex 4 Xcoordinate
    -27.4236,                 !- Vertex 4 Ycoordinate
    12;                       !- Vertex 4 Zcoordinate

BUILDINGSURFACE:DETAILED,
    Block Build1_Alt0 Storey 0 Roof 0001_2,    !- Name
    roof,                     !- Surface Type
    Project Flat Roof,        !- Construction Name
    Block Build1_Alt0 Storey 0,    !- Zone Name
    outdoors,                 !- Outside Boundary Condition
    ,                         !- Outside Boundary Condition Object
    SunExposed,               !- Sun Exposure
    WindExposed,              !- Wind Exposure
    autocalculate,            !- View Factor to Ground
    autocalculate,            !- Number of Vertices
    5.2712,                   !- Vertex 1 Xcoordinate
    -12.2586,                 !- Vertex 1 Ycoordinate
    12,                       !- Vertex 1 Zcoordinate
    10.7051,                  !- Vertex 2 Xcoordinate
    -7.8058,                  !- Vertex 2 Ycoordinate
    12,                       !- Vertex 2 Zcoordinate
    2.3635,                   !- Vertex 3 Xcoordinate
    1.6396,                   !- Vertex 3 Ycoordinate
    12,                       !- Vertex 3 Zcoordinate
    -10.6438,                 !- Vertex 4 Xcoordinate
    -9.2456,                  !- Vertex 4 Ycoordinate
    12,                       !- Vertex 4 Zcoordinate
    -3.8728,                  !- Vertex 5 Xcoordinate
    -17.0856,                 !- Vertex 5 Ycoordinate
    12;                       !- Vertex 5 Zcoordinate

BUILDINGSURFACE:DETAILED,
    Block Build2_Alt0 Storey 0 Roof 0001_0,    !- Name
    roof,                     !- Surface Type
    Project Flat Roof,        !- Construction Name
    Block Build2_Alt0 Storey 0,    !- Zone Name
    outdoors,                 !- Outside Boundary Condition
    ,                         !- Outside Boundary Condition Object
    SunExposed,               !- Sun Exposure
    WindExposed,              !- Wind Exposure
    autocalculate,            !- View Factor to Ground
    autocalculate,            !- Number of Vertices
    -0.7468,                  !- Vertex 1 Xcoordinate
    20.4704,                  !- Vertex 1 Ycoordinate
    12,                       !- Vertex 1 Zcoordinate
    5.4252,                   !- Vertex 2 Xcoordinate
    28.7054,                  !- Vertex 2 Ycoordinate
    12,                       !- Vertex 2 Zcoordinate
    5.8012,                   !- Vertex 3 Xcoordinate
    34.0114,                  !- Vertex 3 Ycoordinate
    12,                       !- Vertex 3 Zcoordinate
    -1.3178,                  !- Vertex 4 Xcoordinate
    34.5504,                  !- Vertex 4 Ycoordinate
    12,                       !- Vertex 4 Zcoordinate
    -1.5898,                  !- Vertex 5 Xcoordinate
    30.5594,                  !- Vertex 5 Ycoordinate
    12;                       !- Vertex 5 Zcoordinate

BUILDINGSURFACE:DETAILED,
    Block Build2_Alt0 Storey 0 Roof 0001_1,    !- Name
    roof,                     !- Surface Type
    Project Flat Roof,        !- Construction Name
    Block Build2_Alt0 Storey 0,    !- Zone Name
    outdoors,                 !- Outside Boundary Condition
    ,                         !- Outside Boundary Condition Object
    SunExposed,               !- Sun Exposure
    WindExposed,              !- Wind Exposure
    autocalculate,            !- View Factor to Ground
    autocalculate,            !- Number of Vertices
    12.1086,                  !- Vertex 1 Xcoordinate
    20.9717,                  !- Vertex 1 Ycoordinate
    12,                       !- Vertex 1 Zcoordinate
    5.4252,                   !- Vertex 2 Xcoordinate
    28.7054,                  !- Vertex 2 Ycoordinate
    12,                       !- Vertex 2 Zcoordinate
    -0.7468,                  !- Vertex 3 Xcoordinate
    20.4704,                  !- Vertex 3 Ycoordinate
    12,                       !- Vertex 3 Zcoordinate
    4.4798,                   !- Vertex 4 Xcoordinate
    14.4437,                  !- Vertex 4 Ycoordinate
    12;                       !- Vertex 4 Zcoordinate

BUILDINGSURFACE:DETAILED,
    Block Build2_Alt0 Storey 0 Roof 0001_2,    !- Name
    roof,                     !- Surface Type
    Project Flat Roof,        !- Construction Name
    Block Build2_Alt0 Storey 0,    !- Zone Name
    outdoors,                 !- Outside Boundary Condition
    ,                         !- Outside Boundary Condition Object
    SunExposed,               !- Sun Exposure
    WindExposed,              !- Wind Exposure
    autocalculate,            !- View Factor to Ground
    autocalculate,            !- Number of Vertices
    -0.7468,                  !- Vertex 1 Xcoordinate
    20.4704,                  !- Vertex 1 Ycoordinate
    12,                       !- Vertex 1 Zcoordinate
    -1.5898,                  !- Vertex 2 Xcoordinate
    30.5594,                  !- Vertex 2 Ycoordinate
    12,                       !- Vertex 2 Zcoordinate
    -11.4608,                 !- Vertex 3 Xcoordinate
    31.3084,                  !- Vertex 3 Ycoordinate
    12,                       !- Vertex 3 Zcoordinate
    -12.2148,                 !- Vertex 4 Xcoordinate
    21.3184,                  !- Vertex 4 Ycoordinate
    12;                       !- Vertex 4 Zcoordinate

FENESTRATIONSURFACE:DETAILED,
    Block Build0_Alt0 Storey 0 Wall 0002 window,    !- Name
    Window,                   !- Surface Type
    Project External Window,    !- Construction Name
    Block Build0_Alt0 Storey 0 Wall 0002,    !- Building Surface Name
    ,                         !- Outside Boundary Condition Object
    autocalculate,            !- View Factor to Ground
    ,                         !- Frame and Divider Name
    1.0,                      !- Multiplier
    autocalculate,            !- Number of Vertices
    4.4825722,                !- Vertex 1 Xcoordinate
    14.44050335,              !- Vertex 1 Ycoordinate
    15.6,                     !- Vertex 1 Zcoordinate
    4.4825722,                !- Vertex 2 Xcoordinate
    14.44050335,              !- Vertex 2 Ycoordinate
    8.4,                      !- Vertex 2 Zcoordinate
    10.021427800000001,       !- Vertex 3 Xcoordinate
    8.05359665,               !- Vertex 3 Ycoordinate
    8.4,                      !- Vertex 3 Zcoordinate
    10.021427800000001,       !- Vertex 4 Xcoordinate
    8.05359665,               !- Vertex 4 Ycoordinate
    15.6;                     !- Vertex 4 Zcoordinate

FENESTRATIONSURFACE:DETAILED,
    Block Build0_Alt0 Storey 0 Wall 0003 window,    !- Name
    Window,                   !- Surface Type
    Project External Window,    !- Construction Name
    Block Build0_Alt0 Storey 0 Wall 0003,    !- Building Surface Name
    ,                         !- Outside Boundary Condition Object
    autocalculate,            !- View Factor to Ground
    ,                         !- Frame and Divider Name
    1.0,                      !- Multiplier
    autocalculate,            !- Number of Vertices
    10.020369650000001,       !- Vertex 1 Xcoordinate
    8.0471946,                !- Vertex 1 Ycoordinate
    15.6,                     !- Vertex 1 Zcoordinate
    10.020369650000001,       !- Vertex 2 Xcoordinate
    8.0471946,                !- Vertex 2 Ycoordinate
    8.4,                      !- Vertex 2 Zcoordinate
    2.36733035,               !- Vertex 3 Xcoordinate
    1.6428053999999999,       !- Vertex 3 Ycoordinate
    8.4,                      !- Vertex 3 Zcoordinate
    2.36733035,               !- Vertex 4 Xcoordinate
    1.6428053999999999,       !- Vertex 4 Ycoordinate
    15.6;                     !- Vertex 4 Zcoordinate

FENESTRATIONSURFACE:DETAILED,
    Block Build0_Alt0 Storey 0 Wall 0005 window,    !- Name
    Window,                   !- Surface Type
    Project External Window,    !- Construction Name
    Block Build0_Alt0 Storey 0 Wall 0005,    !- Building Surface Name
    ,                         !- Outside Boundary Condition Object
    autocalculate,            !- View Factor to Ground
    ,                         !- Frame and Divider Name
    1.0,                      !- Multiplier
    autocalculate,            !- Number of Vertices
    10.70887405,              !- Vertex 1 Xcoordinate
    -7.802707399999999,       !- Vertex 1 Ycoordinate
    15.6,                     !- Vertex 1 Zcoordinate
    10.70887405,              !- Vertex 2 Xcoordinate
    -7.802707399999999,       !- Vertex 2 Ycoordinate
    8.4,                      !- Vertex 2 Zcoordinate
    18.24942595,              !- Vertex 3 Xcoordinate
    -1.6236926,               !- Vertex 3 Ycoordinate
    8.4,                      !- Vertex 3 Zcoordinate
    18.24942595,              !- Vertex 4 Xcoordinate
    -1.6236926,               !- Vertex 4 Ycoordinate
    15.6;                     !- Vertex 4 Zcoordinate

FENESTRATIONSURFACE:DETAILED,
    Block Build0_Alt0 Storey 0 Wall 0006 window,    !- Name
    Window,                   !- Surface Type
    Project External Window,    !- Construction Name
    Block Build0_Alt0 Storey 0 Wall 0006,    !- Building Surface Name
    ,                         !- Outside Boundary Condition Object
    autocalculate,            !- View Factor to Ground
    ,                         !- Frame and Divider Name
    1.0,                      !- Multiplier
    autocalculate,            !- Number of Vertices
    18.255693,                !- Vertex 1 Xcoordinate
    -1.623501,                !- Vertex 1 Ycoordinate
    15.6,                     !- Vertex 1 Zcoordinate
    18.255693,                !- Vertex 2 Xcoordinate
    -1.623501,                !- Vertex 2 Ycoordinate
    8.4,                      !- Vertex 2 Zcoordinate
    23.236707,                !- Vertex 3 Xcoordinate
    -7.419699,                !- Vertex 3 Ycoordinate
    8.4,                      !- Vertex 3 Zcoordinate
    23.236707,                !- Vertex 4 Xcoordinate
    -7.419699,                !- Vertex 4 Ycoordinate
    15.6;                     !- Vertex 4 Zcoordinate

FENESTRATIONSURFACE:DETAILED,
    Block Build0_Alt0 Storey 0 Wall 0007 window,    !- Name
    Window,                   !- Surface Type
    Project External Window,    !- Construction Name
    Block Build0_Alt0 Storey 0 Wall 0007,    !- Building Surface Name
    ,                         !- Outside Boundary Condition Object
    autocalculate,            !- View Factor to Ground
    ,                         !- Frame and Divider Name
    1.0,                      !- Multiplier
    autocalculate,            !- Number of Vertices
    23.24304,                 !- Vertex 1 Xcoordinate
    -7.4193045,               !- Vertex 1 Ycoordinate
    15.6,                     !- Vertex 1 Zcoordinate
    23.24304,                 !- Vertex 2 Xcoordinate
    -7.4193045,               !- Vertex 2 Ycoordinate
    8.4,                      !- Vertex 2 Zcoordinate
    30.91536,                 !- Vertex 3 Xcoordinate
    -0.8348955,               !- Vertex 3 Ycoordinate
    8.4,                      !- Vertex 3 Zcoordinate
    30.91536,                 !- Vertex 4 Xcoordinate
    -0.8348955,               !- Vertex 4 Ycoordinate
    15.6;                     !- Vertex 4 Zcoordinate

FENESTRATIONSURFACE:DETAILED,
    Block Build0_Alt0 Storey 0 Wall 0008 window,    !- Name
    Window,                   !- Surface Type
    Project External Window,    !- Construction Name
    Block Build0_Alt0 Storey 0 Wall 0008,    !- Building Surface Name
    ,                         !- Outside Boundary Condition Object
    autocalculate,            !- View Factor to Ground
    ,                         !- Frame and Divider Name
    1.0,                      !- Multiplier
    autocalculate,            !- Number of Vertices
    30.9162635,               !- Vertex 1 Xcoordinate
    -8.281970e-01,            !- Vertex 1 Ycoordinate
    15.6,                     !- Vertex 1 Zcoordinate
    30.9162635,               !- Vertex 2 Xcoordinate
    -8.281970e-01,            !- Vertex 2 Ycoordinate
    8.4,                      !- Vertex 2 Zcoordinate
    25.0491365,               !- Vertex 3 Xcoordinate
    5.9709970000000006,       !- Vertex 3 Ycoordinate
    8.4,                      !- Vertex 3 Zcoordinate
    25.0491365,               !- Vertex 4 Xcoordinate
    5.9709970000000006,       !- Vertex 4 Ycoordinate
    15.6;                     !- Vertex 4 Zcoordinate

FENESTRATIONSURFACE:DETAILED,
    Block Build0_Alt0 Storey 0 Wall 0009 window,    !- Name
    Window,                   !- Surface Type
    Project External Window,    !- Construction Name
    Block Build0_Alt0 Storey 0 Wall 0009,    !- Building Surface Name
    ,                         !- Outside Boundary Condition Object
    autocalculate,            !- View Factor to Ground
    ,                         !- Frame and Divider Name
    1.0,                      !- Multiplier
    autocalculate,            !- Number of Vertices
    25.0481905,               !- Vertex 1 Xcoordinate
    5.9760745,                !- Vertex 1 Ycoordinate
    15.6,                     !- Vertex 1 Zcoordinate
    25.0481905,               !- Vertex 2 Xcoordinate
    5.9760745,                !- Vertex 2 Ycoordinate
    8.4,                      !- Vertex 2 Zcoordinate
    29.0252095,               !- Vertex 3 Xcoordinate
    9.3217255,                !- Vertex 3 Ycoordinate
    8.4,                      !- Vertex 3 Zcoordinate
    29.0252095,               !- Vertex 4 Xcoordinate
    9.3217255,                !- Vertex 4 Ycoordinate
    15.6;                     !- Vertex 4 Zcoordinate

FENESTRATIONSURFACE:DETAILED,
    Block Build0_Alt0 Storey 0 Wall 0010 window,    !- Name
    Window,                   !- Surface Type
    Project External Window,    !- Construction Name
    Block Build0_Alt0 Storey 0 Wall 0010,    !- Building Surface Name
    ,                         !- Outside Boundary Condition Object
    autocalculate,            !- View Factor to Ground
    ,                         !- Frame and Divider Name
    1.0,                      !- Multiplier
    autocalculate,            !- Number of Vertices
    29.0238175,               !- Vertex 1 Xcoordinate
    9.327140499999999,        !- Vertex 1 Ycoordinate
    15.6,                     !- Vertex 1 Zcoordinate
    29.0238175,               !- Vertex 2 Xcoordinate
    9.327140499999999,        !- Vertex 2 Ycoordinate
    8.4,                      !- Vertex 2 Zcoordinate
    22.2655825,               !- Vertex 3 Xcoordinate
    16.800659500000002,       !- Vertex 3 Ycoordinate
    8.4,                      !- Vertex 3 Zcoordinate
    22.2655825,               !- Vertex 4 Xcoordinate
    16.800659500000002,       !- Vertex 4 Ycoordinate
    15.6;                     !- Vertex 4 Zcoordinate

FENESTRATIONSURFACE:DETAILED,
    Block Build0_Alt0 Storey 0 Wall 0011 window,    !- Name
    Window,                   !- Surface Type
    Project External Window,    !- Construction Name
    Block Build0_Alt0 Storey 0 Wall 0011,    !- Building Surface Name
    ,                         !- Outside Boundary Condition Object
    autocalculate,            !- View Factor to Ground
    ,                         !- Frame and Divider Name
    1.0,                      !- Multiplier
    autocalculate,            !- Number of Vertices
    22.2603065,               !- Vertex 1 Xcoordinate
    16.8028,                  !- Vertex 1 Ycoordinate
    15.6,                     !- Vertex 1 Zcoordinate
    22.2603065,               !- Vertex 2 Xcoordinate
    16.8028,                  !- Vertex 2 Ycoordinate
    8.4,                      !- Vertex 2 Zcoordinate
    18.477093500000002,       !- Vertex 3 Xcoordinate
    13.606,                   !- Vertex 3 Ycoordinate
    8.4,                      !- Vertex 3 Zcoordinate
    18.477093500000002,       !- Vertex 4 Xcoordinate
    13.606,                   !- Vertex 4 Ycoordinate
    15.6;                     !- Vertex 4 Zcoordinate

FENESTRATIONSURFACE:DETAILED,
    Block Build0_Alt0 Storey 0 Wall 0012 window,    !- Name
    Window,                   !- Surface Type
    Project External Window,    !- Construction Name
    Block Build0_Alt0 Storey 0 Wall 0012,    !- Building Surface Name
    ,                         !- Outside Boundary Condition Object
    autocalculate,            !- View Factor to Ground
    ,                         !- Frame and Divider Name
    1.0,                      !- Multiplier
    autocalculate,            !- Number of Vertices
    18.4720167,               !- Vertex 1 Xcoordinate
    13.608083650000001,       !- Vertex 1 Ycoordinate
    15.6,                     !- Vertex 1 Zcoordinate
    18.4720167,               !- Vertex 2 Xcoordinate
    13.608083650000001,       !- Vertex 2 Ycoordinate
    8.4,                      !- Vertex 2 Zcoordinate
    12.111783299999999,       !- Vertex 3 Xcoordinate
    20.96801635,              !- Vertex 3 Ycoordinate
    8.4,                      !- Vertex 3 Zcoordinate
    12.111783299999999,       !- Vertex 4 Xcoordinate
    20.96801635,              !- Vertex 4 Ycoordinate
    15.6;                     !- Vertex 4 Zcoordinate

FENESTRATIONSURFACE:DETAILED,
    Block Build1_Alt0 Storey 0 Wall 0002 window,    !- Name
    Window,                   !- Surface Type
    Project External Window,    !- Construction Name
    Block Build1_Alt0 Storey 0 Wall 0002,    !- Building Surface Name
    ,                         !- Outside Boundary Condition Object
    autocalculate,            !- View Factor to Ground
    ,                         !- Frame and Divider Name
    1.0,                      !- Multiplier
    autocalculate,            !- Number of Vertices
    2.35699635,               !- Vertex 1 Xcoordinate
    1.6341573999999994,       !- Vertex 1 Ycoordinate
    7.8,                      !- Vertex 1 Zcoordinate
    2.35699635,               !- Vertex 2 Xcoordinate
    1.6341573999999994,       !- Vertex 2 Ycoordinate
    4.2,                      !- Vertex 2 Zcoordinate
    -10.63729635,             !- Vertex 3 Xcoordinate
    -9.2401574,               !- Vertex 3 Ycoordinate
    4.2,                      !- Vertex 3 Zcoordinate
    -10.63729635,             !- Vertex 4 Xcoordinate
    -9.2401574,               !- Vertex 4 Ycoordinate
    7.8;                      !- Vertex 4 Zcoordinate

FENESTRATIONSURFACE:DETAILED,
    Block Build1_Alt0 Storey 0 Wall 0003 window,    !- Name
    Window,                   !- Surface Type
    Project External Window,    !- Construction Name
    Block Build1_Alt0 Storey 0 Wall 0003,    !- Building Surface Name
    ,                         !- Outside Boundary Condition Object
    autocalculate,            !- View Factor to Ground
    ,                         !- Frame and Divider Name
    1.0,                      !- Multiplier
    autocalculate,            !- Number of Vertices
    -10.6404145,              !- Vertex 1 Xcoordinate
    -9.24952,                 !- Vertex 1 Ycoordinate
    7.8,                      !- Vertex 1 Zcoordinate
    -10.6404145,              !- Vertex 2 Xcoordinate
    -9.24952,                 !- Vertex 2 Ycoordinate
    4.2,                      !- Vertex 2 Zcoordinate
    -3.876185e+00,            !- Vertex 3 Xcoordinate
    -17.08168,                !- Vertex 3 Ycoordinate
    4.2,                      !- Vertex 3 Zcoordinate
    -3.876185e+00,            !- Vertex 4 Xcoordinate
    -17.08168,                !- Vertex 4 Ycoordinate
    7.8;                      !- Vertex 4 Zcoordinate

FENESTRATIONSURFACE:DETAILED,
    Block Build1_Alt0 Storey 0 Wall 0004 window,    !- Name
    Window,                   !- Surface Type
    Project External Window,    !- Construction Name
    Block Build1_Alt0 Storey 0 Wall 0004,    !- Building Surface Name
    ,                         !- Outside Boundary Condition Object
    autocalculate,            !- View Factor to Ground
    ,                         !- Frame and Divider Name
    1.0,                      !- Multiplier
    autocalculate,            !- Number of Vertices
    -3.874307,                !- Vertex 1 Xcoordinate
    -17.086904,               !- Vertex 1 Ycoordinate
    7.8,                      !- Vertex 1 Zcoordinate
    -3.874307,                !- Vertex 2 Xcoordinate
    -17.086904,               !- Vertex 2 Ycoordinate
    4.2,                      !- Vertex 2 Zcoordinate
    -6.885293,                !- Vertex 3 Xcoordinate
    -19.692296,               !- Vertex 3 Ycoordinate
    4.2,                      !- Vertex 3 Zcoordinate
    -6.885293,                !- Vertex 4 Xcoordinate
    -19.692296,               !- Vertex 4 Ycoordinate
    7.8;                      !- Vertex 4 Zcoordinate

FENESTRATIONSURFACE:DETAILED,
    Block Build1_Alt0 Storey 0 Wall 0005 window,    !- Name
    Window,                   !- Surface Type
    Project External Window,    !- Construction Name
    Block Build1_Alt0 Storey 0 Wall 0005,    !- Building Surface Name
    ,                         !- Outside Boundary Condition Object
    autocalculate,            !- View Factor to Ground
    ,                         !- Frame and Divider Name
    1.0,                      !- Multiplier
    autocalculate,            !- Number of Vertices
    -6.8846095,               !- Vertex 1 Xcoordinate
    -19.6961295,              !- Vertex 1 Ycoordinate
    7.8,                      !- Vertex 1 Zcoordinate
    -6.8846095,               !- Vertex 2 Xcoordinate
    -19.6961295,              !- Vertex 2 Ycoordinate
    4.2,                      !- Vertex 2 Zcoordinate
    -2.5079905,               !- Vertex 3 Xcoordinate
    -24.7500705,              !- Vertex 3 Ycoordinate
    4.2,                      !- Vertex 3 Zcoordinate
    -2.5079905,               !- Vertex 4 Xcoordinate
    -24.7500705,              !- Vertex 4 Ycoordinate
    7.8;                      !- Vertex 4 Zcoordinate

FENESTRATIONSURFACE:DETAILED,
    Block Build1_Alt0 Storey 0 Wall 0006 window,    !- Name
    Window,                   !- Surface Type
    Project External Window,    !- Construction Name
    Block Build1_Alt0 Storey 0 Wall 0006,    !- Building Surface Name
    ,                         !- Outside Boundary Condition Object
    autocalculate,            !- View Factor to Ground
    ,                         !- Frame and Divider Name
    1.0,                      !- Multiplier
    autocalculate,            !- Number of Vertices
    -2.504288,                !- Vertex 1 Xcoordinate
    -24.75129,                !- Vertex 1 Ycoordinate
    7.8,                      !- Vertex 1 Zcoordinate
    -2.504288,                !- Vertex 2 Xcoordinate
    -24.75129,                !- Vertex 2 Ycoordinate
    4.2,                      !- Vertex 2 Zcoordinate
    0.516688,                 !- Vertex 3 Xcoordinate
    -22.13391,                !- Vertex 3 Ycoordinate
    4.2,                      !- Vertex 3 Zcoordinate
    0.516688,                 !- Vertex 4 Xcoordinate
    -22.13391,                !- Vertex 4 Ycoordinate
    7.8;                      !- Vertex 4 Zcoordinate

FENESTRATIONSURFACE:DETAILED,
    Block Build1_Alt0 Storey 0 Wall 0007 window,    !- Name
    Window,                   !- Surface Type
    Project External Window,    !- Construction Name
    Block Build1_Alt0 Storey 0 Wall 0007,    !- Building Surface Name
    ,                         !- Outside Boundary Condition Object
    autocalculate,            !- View Factor to Ground
    ,                         !- Frame and Divider Name
    1.0,                      !- Multiplier
    autocalculate,            !- Number of Vertices
    0.5204905000000002,       !- Vertex 1 Xcoordinate
    -22.1352455,              !- Vertex 1 Ycoordinate
    7.8,                      !- Vertex 1 Zcoordinate
    0.5204905000000002,       !- Vertex 2 Xcoordinate
    -22.1352455,              !- Vertex 2 Ycoordinate
    4.2,                      !- Vertex 2 Zcoordinate
    5.0969095,                !- Vertex 3 Xcoordinate
    -27.4209545,              !- Vertex 3 Ycoordinate
    4.2,                      !- Vertex 3 Zcoordinate
    5.0969095,                !- Vertex 4 Xcoordinate
    -27.4209545,              !- Vertex 4 Ycoordinate
    7.8;                      !- Vertex 4 Zcoordinate

FENESTRATIONSURFACE:DETAILED,
    Block Build1_Alt0 Storey 0 Wall 0008 window,    !- Name
    Window,                   !- Surface Type
    Project External Window,    !- Construction Name
    Block Build1_Alt0 Storey 0 Wall 0008,    !- Building Surface Name
    ,                         !- Outside Boundary Condition Object
    autocalculate,            !- View Factor to Ground
    ,                         !- Frame and Divider Name
    1.0,                      !- Multiplier
    autocalculate,            !- Number of Vertices
    5.103004,                 !- Vertex 1 Xcoordinate
    -27.4203285,              !- Vertex 1 Ycoordinate
    7.8,                      !- Vertex 1 Zcoordinate
    5.103004,                 !- Vertex 2 Xcoordinate
    -27.4203285,              !- Vertex 2 Ycoordinate
    4.2,                      !- Vertex 2 Zcoordinate
    12.703396,                !- Vertex 3 Xcoordinate
    -20.8838715,              !- Vertex 3 Ycoordinate
    4.2,                      !- Vertex 3 Zcoordinate
    12.703396,                !- Vertex 4 Xcoordinate
    -20.8838715,              !- Vertex 4 Ycoordinate
    7.8;                      !- Vertex 4 Zcoordinate

FENESTRATIONSURFACE:DETAILED,
    Block Build1_Alt0 Storey 0 Wall 0009 window,    !- Name
    Window,                   !- Surface Type
    Project External Window,    !- Construction Name
    Block Build1_Alt0 Storey 0 Wall 0009,    !- Building Surface Name
    ,                         !- Outside Boundary Condition Object
    autocalculate,            !- View Factor to Ground
    ,                         !- Frame and Divider Name
    1.0,                      !- Multiplier
    autocalculate,            !- Number of Vertices
    12.703482000000001,       !- Vertex 1 Xcoordinate
    -20.876289,               !- Vertex 1 Ycoordinate
    7.8,                      !- Vertex 1 Zcoordinate
    12.703482000000001,       !- Vertex 2 Xcoordinate
    -20.876289,               !- Vertex 2 Ycoordinate
    4.2,                      !- Vertex 2 Zcoordinate
    5.274918,                 !- Vertex 3 Xcoordinate
    -1.226291e+01,            !- Vertex 3 Ycoordinate
    4.2,                      !- Vertex 3 Zcoordinate
    5.274918,                 !- Vertex 4 Xcoordinate
    -1.226291e+01,            !- Vertex 4 Ycoordinate
    7.8;                      !- Vertex 4 Zcoordinate

FENESTRATIONSURFACE:DETAILED,
    Block Build1_Alt0 Storey 0 Wall 0010 window,    !- Name
    Window,                   !- Surface Type
    Project External Window,    !- Construction Name
    Block Build1_Alt0 Storey 0 Wall 0010,    !- Building Surface Name
    ,                         !- Outside Boundary Condition Object
    autocalculate,            !- View Factor to Ground
    ,                         !- Frame and Divider Name
    1.0,                      !- Multiplier
    autocalculate,            !- Number of Vertices
    5.27391695,               !- Vertex 1 Xcoordinate
    -12.2563736,              !- Vertex 1 Ycoordinate
    7.8,                      !- Vertex 1 Zcoordinate
    5.27391695,               !- Vertex 2 Xcoordinate
    -12.2563736,              !- Vertex 2 Ycoordinate
    4.2,                      !- Vertex 2 Zcoordinate
    10.70238305,              !- Vertex 3 Xcoordinate
    -7.808026399999999,       !- Vertex 3 Ycoordinate
    4.2,                      !- Vertex 3 Zcoordinate
    10.70238305,              !- Vertex 4 Xcoordinate
    -7.808026399999999,       !- Vertex 4 Ycoordinate
    7.8;                      !- Vertex 4 Zcoordinate

FENESTRATIONSURFACE:DETAILED,
    Block Build2_Alt0 Storey 0 Wall 0001 window,    !- Name
    Window,                   !- Surface Type
    Project External Window,    !- Construction Name
    Block Build2_Alt0 Storey 0 Wall 0001,    !- Building Surface Name
    ,                         !- Outside Boundary Condition Object
    autocalculate,            !- View Factor to Ground
    ,                         !- Frame and Divider Name
    1.0,                      !- Multiplier
    autocalculate,            !- Number of Vertices
    12.1052583,               !- Vertex 1 Xcoordinate
    20.97556685,              !- Vertex 1 Ycoordinate
    7.8,                      !- Vertex 1 Zcoordinate
    12.1052583,               !- Vertex 2 Xcoordinate
    20.97556685,              !- Vertex 2 Ycoordinate
    4.2,                      !- Vertex 2 Zcoordinate
    5.4285417,                !- Vertex 3 Xcoordinate
    28.70153315,              !- Vertex 3 Ycoordinate
    4.2,                      !- Vertex 3 Zcoordinate
    5.4285417,                !- Vertex 4 Xcoordinate
    28.70153315,              !- Vertex 4 Ycoordinate
    7.8;                      !- Vertex 4 Zcoordinate

FENESTRATIONSURFACE:DETAILED,
    Block Build2_Alt0 Storey 0 Wall 0002 window,    !- Name
    Window,                   !- Surface Type
    Project External Window,    !- Construction Name
    Block Build2_Alt0 Storey 0 Wall 0002,    !- Building Surface Name
    ,                         !- Outside Boundary Condition Object
    autocalculate,            !- View Factor to Ground
    ,                         !- Frame and Divider Name
    1.0,                      !- Multiplier
    autocalculate,            !- Number of Vertices
    5.425388,                 !- Vertex 1 Xcoordinate
    28.708053,                !- Vertex 1 Ycoordinate
    7.8,                      !- Vertex 1 Zcoordinate
    5.425388,                 !- Vertex 2 Xcoordinate
    28.708053,                !- Vertex 2 Ycoordinate
    4.2,                      !- Vertex 2 Zcoordinate
    5.801012,                 !- Vertex 3 Xcoordinate
    34.008747,                !- Vertex 3 Ycoordinate
    4.2,                      !- Vertex 3 Zcoordinate
    5.801012,                 !- Vertex 4 Xcoordinate
    34.008747,                !- Vertex 4 Ycoordinate
    7.8;                      !- Vertex 4 Zcoordinate

FENESTRATIONSURFACE:DETAILED,
    Block Build2_Alt0 Storey 0 Wall 0003 window,    !- Name
    Window,                   !- Surface Type
    Project External Window,    !- Construction Name
    Block Build2_Alt0 Storey 0 Wall 0003,    !- Building Surface Name
    ,                         !- Outside Boundary Condition Object
    autocalculate,            !- View Factor to Ground
    ,                         !- Frame and Divider Name
    1.0,                      !- Multiplier
    autocalculate,            !- Number of Vertices
    5.7976405,                !- Vertex 1 Xcoordinate
    34.0116695,               !- Vertex 1 Ycoordinate
    7.8,                      !- Vertex 1 Zcoordinate
    5.7976405,                !- Vertex 2 Xcoordinate
    34.0116695,               !- Vertex 2 Ycoordinate
    4.2,                      !- Vertex 2 Zcoordinate
    -1.3142405,               !- Vertex 3 Xcoordinate
    34.5501305,               !- Vertex 3 Ycoordinate
    4.2,                      !- Vertex 3 Zcoordinate
    -1.3142405,               !- Vertex 4 Xcoordinate
    34.5501305,               !- Vertex 4 Ycoordinate
    7.8;                      !- Vertex 4 Zcoordinate

FENESTRATIONSURFACE:DETAILED,
    Block Build2_Alt0 Storey 0 Wall 0004 window,    !- Name
    Window,                   !- Surface Type
    Project External Window,    !- Construction Name
    Block Build2_Alt0 Storey 0 Wall 0004,    !- Building Surface Name
    ,                         !- Outside Boundary Condition Object
    autocalculate,            !- View Factor to Ground
    ,                         !- Frame and Divider Name
    1.0,                      !- Multiplier
    autocalculate,            !- Number of Vertices
    -1.317936,                !- Vertex 1 Xcoordinate
    34.548404500000004,       !- Vertex 1 Ycoordinate
    7.8,                      !- Vertex 1 Zcoordinate
    -1.317936,                !- Vertex 2 Xcoordinate
    34.548404500000004,       !- Vertex 2 Ycoordinate
    4.2,                      !- Vertex 2 Zcoordinate
    -1.589664e+00,            !- Vertex 3 Xcoordinate
    30.5613955,               !- Vertex 3 Ycoordinate
    4.2,                      !- Vertex 3 Zcoordinate
    -1.589664e+00,            !- Vertex 4 Xcoordinate
    30.5613955,               !- Vertex 4 Ycoordinate
    7.8;                      !- Vertex 4 Zcoordinate

FENESTRATIONSURFACE:DETAILED,
    Block Build2_Alt0 Storey 0 Wall 0005 window,    !- Name
    Window,                   !- Surface Type
    Project External Window,    !- Construction Name
    Block Build2_Alt0 Storey 0 Wall 0005,    !- Building Surface Name
    ,                         !- Outside Boundary Condition Object
    autocalculate,            !- View Factor to Ground
    ,                         !- Frame and Divider Name
    1.0,                      !- Multiplier
    autocalculate,            !- Number of Vertices
    -1.594736e+00,            !- Vertex 1 Xcoordinate
    30.5597745,               !- Vertex 1 Ycoordinate
    7.8,                      !- Vertex 1 Zcoordinate
    -1.594736e+00,            !- Vertex 2 Xcoordinate
    30.5597745,               !- Vertex 2 Ycoordinate
    4.2,                      !- Vertex 2 Zcoordinate
    -11.4558645,              !- Vertex 3 Xcoordinate
    31.3080255,               !- Vertex 3 Ycoordinate
    4.2,                      !- Vertex 3 Zcoordinate
    -11.4558645,              !- Vertex 4 Xcoordinate
    31.3080255,               !- Vertex 4 Ycoordinate
    7.8;                      !- Vertex 4 Zcoordinate

FENESTRATIONSURFACE:DETAILED,
    Block Build2_Alt0 Storey 0 Wall 0006 window,    !- Name
    Window,                   !- Surface Type
    Project External Window,    !- Construction Name
    Block Build2_Alt0 Storey 0 Wall 0006,    !- Building Surface Name
    ,                         !- Outside Boundary Condition Object
    autocalculate,            !- View Factor to Ground
    ,                         !- Frame and Divider Name
    1.0,                      !- Multiplier
    autocalculate,            !- Number of Vertices
    -1.146118e+01,            !- Vertex 1 Xcoordinate
    31.303404999999998,       !- Vertex 1 Ycoordinate
    7.8,                      !- Vertex 1 Zcoordinate
    -1.146118e+01,            !- Vertex 2 Xcoordinate
    31.303404999999998,       !- Vertex 2 Ycoordinate
    4.2,                      !- Vertex 2 Zcoordinate
    -12.214423,               !- Vertex 3 Xcoordinate
    21.323395,                !- Vertex 3 Ycoordinate
    4.2,                      !- Vertex 3 Zcoordinate
    -12.214423,               !- Vertex 4 Xcoordinate
    21.323395,                !- Vertex 4 Ycoordinate
    7.8;                      !- Vertex 4 Zcoordinate

FENESTRATIONSURFACE:DETAILED,
    Block Build2_Alt0 Storey 0 Wall 0007 window,    !- Name
    Window,                   !- Surface Type
    Project External Window,    !- Construction Name
    Block Build2_Alt0 Storey 0 Wall 0007,    !- Building Surface Name
    ,                         !- Outside Boundary Condition Object
    autocalculate,            !- View Factor to Ground
    ,                         !- Frame and Divider Name
    1.0,                      !- Multiplier
    autocalculate,            !- Number of Vertices
    -12.209066,               !- Vertex 1 Xcoordinate
    21.317976,                !- Vertex 1 Ycoordinate
    7.8,                      !- Vertex 1 Zcoordinate
    -12.209066,               !- Vertex 2 Xcoordinate
    21.317976,                !- Vertex 2 Ycoordinate
    4.2,                      !- Vertex 2 Zcoordinate
    -7.525340e-01,            !- Vertex 3 Xcoordinate
    20.470824,                !- Vertex 3 Ycoordinate
    4.2,                      !- Vertex 3 Zcoordinate
    -7.525340e-01,            !- Vertex 4 Xcoordinate
    20.470824,                !- Vertex 4 Ycoordinate
    7.8;                      !- Vertex 4 Zcoordinate

FENESTRATIONSURFACE:DETAILED,
    Block Build2_Alt0 Storey 0 Wall 0008 window,    !- Name
    Window,                   !- Surface Type
    Project External Window,    !- Construction Name
    Block Build2_Alt0 Storey 0 Wall 0008,    !- Building Surface Name
    ,                         !- Outside Boundary Condition Object
    autocalculate,            !- View Factor to Ground
    ,                         !- Frame and Divider Name
    1.0,                      !- Multiplier
    autocalculate,            !- Number of Vertices
    -0.7441867,               !- Vertex 1 Xcoordinate
    20.46738665,              !- Vertex 1 Ycoordinate
    7.8,                      !- Vertex 1 Zcoordinate
    -0.7441867,               !- Vertex 2 Xcoordinate
    20.46738665,              !- Vertex 2 Ycoordinate
    4.2,                      !- Vertex 2 Zcoordinate
    4.4771867,                !- Vertex 3 Xcoordinate
    14.44671335,              !- Vertex 3 Ycoordinate
    4.2,                      !- Vertex 3 Zcoordinate
    4.4771867,                !- Vertex 4 Xcoordinate
    14.44671335,              !- Vertex 4 Ycoordinate
    7.8;                      !- Vertex 4 Zcoordinate

FENESTRATIONSURFACE:DETAILED,
    Block Build0_Alt0 Storey 0 Wall 0001_2 window,    !- Name
    Window,                   !- Surface Type
    Project External Window,    !- Construction Name
    Block Build0_Alt0 Storey 0 Wall 0001_2,    !- Building Surface Name
    ,                         !- Outside Boundary Condition Object
    autocalculate,            !- View Factor to Ground
    ,                         !- Frame and Divider Name
    1.0,                      !- Multiplier
    autocalculate,            !- Number of Vertices
    12.104785599919502,       !- Vertex 1 Xcoordinate
    20.968435999931117,       !- Vertex 1 Ycoordinate
    19.8,                     !- Vertex 1 Zcoordinate
    12.104785599919502,       !- Vertex 2 Xcoordinate
    20.968435999931117,       !- Vertex 2 Ycoordinate
    16.2,                     !- Vertex 2 Zcoordinate
    4.48361439985549,         !- Vertex 3 Xcoordinate
    14.446963999876342,       !- Vertex 3 Ycoordinate
    16.2,                     !- Vertex 3 Zcoordinate
    4.48361439985549,         !- Vertex 4 Xcoordinate
    14.446963999876342,       !- Vertex 4 Ycoordinate
    19.8;                     !- Vertex 4 Zcoordinate

FENESTRATIONSURFACE:DETAILED,
    Block Build0_Alt0 Storey 0 Wall 0004_2 window,    !- Name
    Window,                   !- Surface Type
    Project External Window,    !- Construction Name
    Block Build0_Alt0 Storey 0 Wall 0004_2,    !- Building Surface Name
    ,                         !- Outside Boundary Condition Object
    autocalculate,            !- View Factor to Ground
    ,                         !- Frame and Divider Name
    1.0,                      !- Multiplier
    autocalculate,            !- Number of Vertices
    2.367670800107084,        !- Vertex 1 Xcoordinate
    1.6348772998787462,       !- Vertex 1 Ycoordinate
    19.8,                     !- Vertex 1 Zcoordinate
    2.367670800107084,        !- Vertex 2 Xcoordinate
    1.6348772998787462,       !- Vertex 2 Ycoordinate
    16.2,                     !- Vertex 2 Zcoordinate
    10.700929199770531,       !- Vertex 3 Xcoordinate
    -7.801077299740165,       !- Vertex 3 Ycoordinate
    16.2,                     !- Vertex 3 Zcoordinate
    10.700929199770531,       !- Vertex 4 Xcoordinate
    -7.801077299740165,       !- Vertex 4 Ycoordinate
    19.8;                     !- Vertex 4 Zcoordinate

INTERNALMASS,
    Block Build0_Alt0 Storey -1IntMass,    !- Name
    NonHeatedZoneIntMassObj,    !- Construction Name
    Block Build0_Alt0 Storey -1,    !- Zone or ZoneList Name
    932;                      !- Surface Area

INTERNALMASS,
    Block Build1_Alt0 Storey -1IntMass,    !- Name
    NonHeatedZoneIntMassObj,    !- Construction Name
    Block Build1_Alt0 Storey -1,    !- Zone or ZoneList Name
    711;                      !- Surface Area

INTERNALMASS,
    Block Build2_Alt0 Storey -1IntMass,    !- Name
    NonHeatedZoneIntMassObj,    !- Construction Name
    Block Build2_Alt0 Storey -1,    !- Zone or ZoneList Name
    533;                      !- Surface Area

INTERNALMASS,
    Block Build0_Alt0 Storey 0IntMass,    !- Name
    HeatedZoneIntMassObj,     !- Construction Name
    Block Build0_Alt0 Storey 0,    !- Zone or ZoneList Name
    7457;                     !- Surface Area

INTERNALMASS,
    Block Build1_Alt0 Storey 0IntMass,    !- Name
    HeatedZoneIntMassObj,     !- Construction Name
    Block Build1_Alt0 Storey 0,    !- Zone or ZoneList Name
    2843;                     !- Surface Area

INTERNALMASS,
    Block Build2_Alt0 Storey 0IntMass,    !- Name
    HeatedZoneIntMassObj,     !- Construction Name
    Block Build2_Alt0 Storey 0,    !- Zone or ZoneList Name
    2131;                     !- Surface Area

SHADING:SITE:DETAILED,
    Shading_V96_1,            !- Name
    ,                         !- Transmittance Schedule Name
    autocalculate,            !- Number of Vertices
    -14.4528,                 !- Vertex 1 Xcoordinate
    -66.8686,                 !- Vertex 1 Ycoordinate
    15.5,                     !- Vertex 1 Zcoordinate
    -14.4528,                 !- Vertex 2 Xcoordinate
    -66.8686,                 !- Vertex 2 Ycoordinate
    0,                        !- Vertex 2 Zcoordinate
    -20.6898,                 !- Vertex 3 Xcoordinate
    -72.1876,                 !- Vertex 3 Ycoordinate
    0,                        !- Vertex 3 Zcoordinate
    -20.6898,                 !- Vertex 4 Xcoordinate
    -72.1876,                 !- Vertex 4 Ycoordinate
    15.5;                     !- Vertex 4 Zcoordinate

SHADING:SITE:DETAILED,
    Shading_V97_1,            !- Name
    ,                         !- Transmittance Schedule Name
    autocalculate,            !- Number of Vertices
    -20.6898,                 !- Vertex 1 Xcoordinate
    -72.1876,                 !- Vertex 1 Ycoordinate
    15.5,                     !- Vertex 1 Zcoordinate
    -20.6898,                 !- Vertex 2 Xcoordinate
    -72.1876,                 !- Vertex 2 Ycoordinate
    0,                        !- Vertex 2 Zcoordinate
    -23.8838,                 !- Vertex 3 Xcoordinate
    -68.4186,                 !- Vertex 3 Ycoordinate
    0,                        !- Vertex 3 Zcoordinate
    -23.8838,                 !- Vertex 4 Xcoordinate
    -68.4186,                 !- Vertex 4 Ycoordinate
    15.5;                     !- Vertex 4 Zcoordinate

SHADING:SITE:DETAILED,
    Shading_V98_1,            !- Name
    ,                         !- Transmittance Schedule Name
    autocalculate,            !- Number of Vertices
    -23.8838,                 !- Vertex 1 Xcoordinate
    -68.4186,                 !- Vertex 1 Ycoordinate
    15.5,                     !- Vertex 1 Zcoordinate
    -23.8838,                 !- Vertex 2 Xcoordinate
    -68.4186,                 !- Vertex 2 Ycoordinate
    0,                        !- Vertex 2 Zcoordinate
    -28.9008,                 !- Vertex 3 Xcoordinate
    -72.6286,                 !- Vertex 3 Ycoordinate
    0,                        !- Vertex 3 Zcoordinate
    -28.9008,                 !- Vertex 4 Xcoordinate
    -72.6286,                 !- Vertex 4 Ycoordinate
    15.5;                     !- Vertex 4 Zcoordinate

SHADING:SITE:DETAILED,
    Shading_V101_1,           !- Name
    ,                         !- Transmittance Schedule Name
    autocalculate,            !- Number of Vertices
    -38.1708,                 !- Vertex 1 Xcoordinate
    -87.1676,                 !- Vertex 1 Ycoordinate
    15.5,                     !- Vertex 1 Zcoordinate
    -38.1708,                 !- Vertex 2 Xcoordinate
    -87.1676,                 !- Vertex 2 Ycoordinate
    0,                        !- Vertex 2 Zcoordinate
    -41.5358,                 !- Vertex 3 Xcoordinate
    -83.2266,                 !- Vertex 3 Ycoordinate
    0,                        !- Vertex 3 Zcoordinate
    -41.5358,                 !- Vertex 4 Xcoordinate
    -83.2266,                 !- Vertex 4 Ycoordinate
    15.5;                     !- Vertex 4 Zcoordinate

SHADING:SITE:DETAILED,
    Shading_V161_1,           !- Name
    ,                         !- Transmittance Schedule Name
    autocalculate,            !- Number of Vertices
    15.4482,                  !- Vertex 1 Xcoordinate
    -39.5716,                 !- Vertex 1 Ycoordinate
    12.6,                     !- Vertex 1 Zcoordinate
    15.4482,                  !- Vertex 2 Xcoordinate
    -39.5716,                 !- Vertex 2 Ycoordinate
    0,                        !- Vertex 2 Zcoordinate
    12.4012,                  !- Vertex 3 Xcoordinate
    -42.1656,                 !- Vertex 3 Ycoordinate
    0,                        !- Vertex 3 Zcoordinate
    12.4012,                  !- Vertex 4 Xcoordinate
    -42.1656,                 !- Vertex 4 Ycoordinate
    12.6;                     !- Vertex 4 Zcoordinate

SHADING:SITE:DETAILED,
    Shading_V212_1,           !- Name
    ,                         !- Transmittance Schedule Name
    autocalculate,            !- Number of Vertices
    36.7812,                  !- Vertex 1 Xcoordinate
    -78.6656,                 !- Vertex 1 Ycoordinate
    14.3,                     !- Vertex 1 Zcoordinate
    36.7812,                  !- Vertex 2 Xcoordinate
    -78.6656,                 !- Vertex 2 Ycoordinate
    0,                        !- Vertex 2 Zcoordinate
    18.7602,                  !- Vertex 3 Xcoordinate
    -77.3016,                 !- Vertex 3 Ycoordinate
    0,                        !- Vertex 3 Zcoordinate
    18.7602,                  !- Vertex 4 Xcoordinate
    -77.3016,                 !- Vertex 4 Ycoordinate
    14.3;                     !- Vertex 4 Zcoordinate

SHADING:SITE:DETAILED,
    Shading_V215_1,           !- Name
    ,                         !- Transmittance Schedule Name
    autocalculate,            !- Number of Vertices
    11.4442,                  !- Vertex 1 Xcoordinate
    -56.8226,                 !- Vertex 1 Ycoordinate
    14.3,                     !- Vertex 1 Zcoordinate
    11.4442,                  !- Vertex 2 Xcoordinate
    -56.8226,                 !- Vertex 2 Ycoordinate
    0,                        !- Vertex 2 Zcoordinate
    6.1532,                   !- Vertex 3 Xcoordinate
    -50.6386,                 !- Vertex 3 Ycoordinate
    0,                        !- Vertex 3 Zcoordinate
    6.1532,                   !- Vertex 4 Xcoordinate
    -50.6386,                 !- Vertex 4 Ycoordinate
    14.3;                     !- Vertex 4 Zcoordinate

SHADING:SITE:DETAILED,
    Shading_V216_1,           !- Name
    ,                         !- Transmittance Schedule Name
    autocalculate,            !- Number of Vertices
    6.1532,                   !- Vertex 1 Xcoordinate
    -50.6386,                 !- Vertex 1 Ycoordinate
    14.3,                     !- Vertex 1 Zcoordinate
    6.1532,                   !- Vertex 2 Xcoordinate
    -50.6386,                 !- Vertex 2 Ycoordinate
    0,                        !- Vertex 2 Zcoordinate
    0.2012,                   !- Vertex 3 Xcoordinate
    -55.7476,                 !- Vertex 3 Ycoordinate
    0,                        !- Vertex 3 Zcoordinate
    0.2012,                   !- Vertex 4 Xcoordinate
    -55.7476,                 !- Vertex 4 Ycoordinate
    14.3;                     !- Vertex 4 Zcoordinate

SHADING:SITE:DETAILED,
    Shading_V217_1,           !- Name
    ,                         !- Transmittance Schedule Name
    autocalculate,            !- Number of Vertices
    0.2012,                   !- Vertex 1 Xcoordinate
    -55.7476,                 !- Vertex 1 Ycoordinate
    14.3,                     !- Vertex 1 Zcoordinate
    0.2012,                   !- Vertex 2 Xcoordinate
    -55.7476,                 !- Vertex 2 Ycoordinate
    0,                        !- Vertex 2 Zcoordinate
    -3.5208,                  !- Vertex 3 Xcoordinate
    -51.4056,                 !- Vertex 3 Ycoordinate
    0,                        !- Vertex 3 Zcoordinate
    -3.5208,                  !- Vertex 4 Xcoordinate
    -51.4056,                 !- Vertex 4 Ycoordinate
    14.3;                     !- Vertex 4 Zcoordinate

SHADING:SITE:DETAILED,
    Shading_V218_1,           !- Name
    ,                         !- Transmittance Schedule Name
    autocalculate,            !- Number of Vertices
    -3.5208,                  !- Vertex 1 Xcoordinate
    -51.4056,                 !- Vertex 1 Ycoordinate
    14.3,                     !- Vertex 1 Zcoordinate
    -3.5208,                  !- Vertex 2 Xcoordinate
    -51.4056,                 !- Vertex 2 Ycoordinate
    0,                        !- Vertex 2 Zcoordinate
    -10.9458,                 !- Vertex 3 Xcoordinate
    -57.5976,                 !- Vertex 3 Ycoordinate
    0,                        !- Vertex 3 Zcoordinate
    -10.9458,                 !- Vertex 4 Xcoordinate
    -57.5976,                 !- Vertex 4 Ycoordinate
    14.3;                     !- Vertex 4 Zcoordinate

SHADING:SITE:DETAILED,
    Shading_V428_1,           !- Name
    ,                         !- Transmittance Schedule Name
    autocalculate,            !- Number of Vertices
    -10.4788,                 !- Vertex 1 Xcoordinate
    -43.2736,                 !- Vertex 1 Ycoordinate
    15.9,                     !- Vertex 1 Zcoordinate
    -10.4788,                 !- Vertex 2 Xcoordinate
    -43.2736,                 !- Vertex 2 Ycoordinate
    0,                        !- Vertex 2 Zcoordinate
    -14.5598,                 !- Vertex 3 Xcoordinate
    -38.5316,                 !- Vertex 3 Ycoordinate
    0,                        !- Vertex 3 Zcoordinate
    -14.5598,                 !- Vertex 4 Xcoordinate
    -38.5316,                 !- Vertex 4 Ycoordinate
    15.9;                     !- Vertex 4 Zcoordinate

SHADING:SITE:DETAILED,
    Shading_V429_1,           !- Name
    ,                         !- Transmittance Schedule Name
    autocalculate,            !- Number of Vertices
    -14.5598,                 !- Vertex 1 Xcoordinate
    -38.5316,                 !- Vertex 1 Ycoordinate
    15.9,                     !- Vertex 1 Zcoordinate
    -14.5598,                 !- Vertex 2 Xcoordinate
    -38.5316,                 !- Vertex 2 Ycoordinate
    0,                        !- Vertex 2 Zcoordinate
    -8.6058,                  !- Vertex 3 Xcoordinate
    -33.3936,                 !- Vertex 3 Ycoordinate
    0,                        !- Vertex 3 Zcoordinate
    -8.6058,                  !- Vertex 4 Xcoordinate
    -33.3936,                 !- Vertex 4 Ycoordinate
    15.9;                     !- Vertex 4 Zcoordinate

SHADING:SITE:DETAILED,
    Shading_V430_1,           !- Name
    ,                         !- Transmittance Schedule Name
    autocalculate,            !- Number of Vertices
    -8.6058,                  !- Vertex 1 Xcoordinate
    -33.3936,                 !- Vertex 1 Ycoordinate
    15.9,                     !- Vertex 1 Zcoordinate
    -8.6058,                  !- Vertex 2 Xcoordinate
    -33.3936,                 !- Vertex 2 Ycoordinate
    0,                        !- Vertex 2 Zcoordinate
    -13.8488,                 !- Vertex 3 Xcoordinate
    -27.2666,                 !- Vertex 3 Ycoordinate
    0,                        !- Vertex 3 Zcoordinate
    -13.8488,                 !- Vertex 4 Xcoordinate
    -27.2666,                 !- Vertex 4 Ycoordinate
    15.9;                     !- Vertex 4 Zcoordinate

SHADING:SITE:DETAILED,
    Shading_V412_1,           !- Name
    ,                         !- Transmittance Schedule Name
    autocalculate,            !- Number of Vertices
    -34.4658,                 !- Vertex 1 Xcoordinate
    -15.4476,                 !- Vertex 1 Ycoordinate
    15.9,                     !- Vertex 1 Zcoordinate
    -34.4658,                 !- Vertex 2 Xcoordinate
    -15.4476,                 !- Vertex 2 Ycoordinate
    0,                        !- Vertex 2 Zcoordinate
    -33.1938,                 !- Vertex 3 Xcoordinate
    0.9524,                   !- Vertex 3 Ycoordinate
    0,                        !- Vertex 3 Zcoordinate
    -33.1938,                 !- Vertex 4 Xcoordinate
    0.9524,                   !- Vertex 4 Ycoordinate
    15.9;                     !- Vertex 4 Zcoordinate

SHADING:SITE:DETAILED,
    Shading_V414_1,           !- Name
    ,                         !- Transmittance Schedule Name
    autocalculate,            !- Number of Vertices
    -23.8198,                 !- Vertex 1 Xcoordinate
    0.2294,                   !- Vertex 1 Ycoordinate
    15.9,                     !- Vertex 1 Zcoordinate
    -23.8198,                 !- Vertex 2 Xcoordinate
    0.2294,                   !- Vertex 2 Ycoordinate
    0,                        !- Vertex 2 Zcoordinate
    -22.8458,                 !- Vertex 3 Xcoordinate
    12.9434,                  !- Vertex 3 Ycoordinate
    0,                        !- Vertex 3 Zcoordinate
    -22.8458,                 !- Vertex 4 Xcoordinate
    12.9434,                  !- Vertex 4 Ycoordinate
    15.9;                     !- Vertex 4 Zcoordinate

SHADING:SITE:DETAILED,
    Shading_V157_1,           !- Name
    ,                         !- Transmittance Schedule Name
    autocalculate,            !- Number of Vertices
    31.1632,                  !- Vertex 1 Xcoordinate
    -31.8121,                 !- Vertex 1 Ycoordinate
    12.6,                     !- Vertex 1 Zcoordinate
    31.1632,                  !- Vertex 2 Xcoordinate
    -31.8121,                 !- Vertex 2 Ycoordinate
    0,                        !- Vertex 2 Zcoordinate
    25.9902,                  !- Vertex 3 Xcoordinate
    -36.2686,                 !- Vertex 3 Ycoordinate
    0,                        !- Vertex 3 Zcoordinate
    25.9902,                  !- Vertex 4 Xcoordinate
    -36.2686,                 !- Vertex 4 Ycoordinate
    12.6;                     !- Vertex 4 Zcoordinate

SHADING:SITE:DETAILED,
    Shading_V158_1,           !- Name
    ,                         !- Transmittance Schedule Name
    autocalculate,            !- Number of Vertices
    25.9902,                  !- Vertex 1 Xcoordinate
    -36.2686,                 !- Vertex 1 Ycoordinate
    12.6,                     !- Vertex 1 Zcoordinate
    25.9902,                  !- Vertex 2 Xcoordinate
    -36.2686,                 !- Vertex 2 Ycoordinate
    0,                        !- Vertex 2 Zcoordinate
    18.5292,                  !- Vertex 3 Xcoordinate
    -27.6676,                 !- Vertex 3 Ycoordinate
    0,                        !- Vertex 3 Zcoordinate
    18.5292,                  !- Vertex 4 Xcoordinate
    -27.6676,                 !- Vertex 4 Ycoordinate
    12.6;                     !- Vertex 4 Zcoordinate

SHADING:SITE:DETAILED,
    Shading_V159_1,           !- Name
    ,                         !- Transmittance Schedule Name
    autocalculate,            !- Number of Vertices
    18.5292,                  !- Vertex 1 Xcoordinate
    -27.6676,                 !- Vertex 1 Ycoordinate
    12.6,                     !- Vertex 1 Zcoordinate
    18.5292,                  !- Vertex 2 Xcoordinate
    -27.6676,                 !- Vertex 2 Ycoordinate
    0,                        !- Vertex 2 Zcoordinate
    10.8852,                  !- Vertex 3 Xcoordinate
    -34.2386,                 !- Vertex 3 Ycoordinate
    0,                        !- Vertex 3 Zcoordinate
    10.8852,                  !- Vertex 4 Xcoordinate
    -34.2386,                 !- Vertex 4 Ycoordinate
    12.6;                     !- Vertex 4 Zcoordinate

SHADING:SITE:DETAILED,
    Shading_V337_1,           !- Name
    ,                         !- Transmittance Schedule Name
    autocalculate,            !- Number of Vertices
    39.9052,                  !- Vertex 1 Xcoordinate
    -11.3786,                 !- Vertex 1 Ycoordinate
    24.1,                     !- Vertex 1 Zcoordinate
    39.9052,                  !- Vertex 2 Xcoordinate
    -11.3786,                 !- Vertex 2 Ycoordinate
    0,                        !- Vertex 2 Zcoordinate
    32.3032,                  !- Vertex 3 Xcoordinate
    -18.0436,                 !- Vertex 3 Ycoordinate
    0,                        !- Vertex 3 Zcoordinate
    32.3032,                  !- Vertex 4 Xcoordinate
    -18.0436,                 !- Vertex 4 Ycoordinate
    24.1;                     !- Vertex 4 Zcoordinate

SHADING:SITE:DETAILED,
    Shading_V338_1,           !- Name
    ,                         !- Transmittance Schedule Name
    autocalculate,            !- Number of Vertices
    32.3032,                  !- Vertex 1 Xcoordinate
    -18.0436,                 !- Vertex 1 Ycoordinate
    24.1,                     !- Vertex 1 Zcoordinate
    32.3032,                  !- Vertex 2 Xcoordinate
    -18.0436,                 !- Vertex 2 Ycoordinate
    0,                        !- Vertex 2 Zcoordinate
    38.6452,                  !- Vertex 3 Xcoordinate
    -25.3666,                 !- Vertex 3 Ycoordinate
    0,                        !- Vertex 3 Zcoordinate
    38.6452,                  !- Vertex 4 Xcoordinate
    -25.3666,                 !- Vertex 4 Ycoordinate
    24.1;                     !- Vertex 4 Zcoordinate

SHADING:SITE:DETAILED,
    Shading_V339_1,           !- Name
    ,                         !- Transmittance Schedule Name
    autocalculate,            !- Number of Vertices
    38.6452,                  !- Vertex 1 Xcoordinate
    -25.3666,                 !- Vertex 1 Ycoordinate
    24.1,                     !- Vertex 1 Zcoordinate
    38.6452,                  !- Vertex 2 Xcoordinate
    -25.3666,                 !- Vertex 2 Ycoordinate
    0,                        !- Vertex 2 Zcoordinate
    31.1632,                  !- Vertex 3 Xcoordinate
    -31.8121,                 !- Vertex 3 Ycoordinate
    0,                        !- Vertex 3 Zcoordinate
    31.1632,                  !- Vertex 4 Xcoordinate
    -31.8121,                 !- Vertex 4 Ycoordinate
    24.1;                     !- Vertex 4 Zcoordinate

SHADING:SITE:DETAILED,
    Shading_V261_1,           !- Name
    ,                         !- Transmittance Schedule Name
    autocalculate,            !- Number of Vertices
    85.8742,                  !- Vertex 1 Xcoordinate
    -37.2776,                 !- Vertex 1 Ycoordinate
    16.1,                     !- Vertex 1 Zcoordinate
    85.8742,                  !- Vertex 2 Xcoordinate
    -37.2776,                 !- Vertex 2 Ycoordinate
    0,                        !- Vertex 2 Zcoordinate
    82.8412,                  !- Vertex 3 Xcoordinate
    -39.8846,                 !- Vertex 3 Ycoordinate
    0,                        !- Vertex 3 Zcoordinate
    82.8412,                  !- Vertex 4 Xcoordinate
    -39.8846,                 !- Vertex 4 Ycoordinate
    16.1;                     !- Vertex 4 Zcoordinate

SHADING:SITE:DETAILED,
    Shading_V263_1,           !- Name
    ,                         !- Transmittance Schedule Name
    autocalculate,            !- Number of Vertices
    76.1672,                  !- Vertex 1 Xcoordinate
    -32.1316,                 !- Vertex 1 Ycoordinate
    16.1,                     !- Vertex 1 Zcoordinate
    76.1672,                  !- Vertex 2 Xcoordinate
    -32.1316,                 !- Vertex 2 Ycoordinate
    0,                        !- Vertex 2 Zcoordinate
    68.4992,                  !- Vertex 3 Xcoordinate
    -38.6916,                 !- Vertex 3 Ycoordinate
    0,                        !- Vertex 3 Zcoordinate
    68.4992,                  !- Vertex 4 Xcoordinate
    -38.6916,                 !- Vertex 4 Ycoordinate
    16.1;                     !- Vertex 4 Zcoordinate

SHADING:SITE:DETAILED,
    Shading_V335_1,           !- Name
    ,                         !- Transmittance Schedule Name
    autocalculate,            !- Number of Vertices
    49.5262,                  !- Vertex 1 Xcoordinate
    -14.8136,                 !- Vertex 1 Ycoordinate
    24.1,                     !- Vertex 1 Zcoordinate
    49.5262,                  !- Vertex 2 Xcoordinate
    -14.8136,                 !- Vertex 2 Ycoordinate
    0,                        !- Vertex 2 Zcoordinate
    45.7282,                  !- Vertex 3 Xcoordinate
    -18.1056,                 !- Vertex 3 Ycoordinate
    0,                        !- Vertex 3 Zcoordinate
    45.7282,                  !- Vertex 4 Xcoordinate
    -18.1056,                 !- Vertex 4 Ycoordinate
    24.1;                     !- Vertex 4 Zcoordinate

SHADING:SITE:DETAILED,
    Shading_V336_1,           !- Name
    ,                         !- Transmittance Schedule Name
    autocalculate,            !- Number of Vertices
    45.7282,                  !- Vertex 1 Xcoordinate
    -18.1056,                 !- Vertex 1 Ycoordinate
    24.1,                     !- Vertex 1 Zcoordinate
    45.7282,                  !- Vertex 2 Xcoordinate
    -18.1056,                 !- Vertex 2 Ycoordinate
    0,                        !- Vertex 2 Zcoordinate
    39.9052,                  !- Vertex 3 Xcoordinate
    -11.3786,                 !- Vertex 3 Ycoordinate
    0,                        !- Vertex 3 Zcoordinate
    39.9052,                  !- Vertex 4 Xcoordinate
    -11.3786,                 !- Vertex 4 Ycoordinate
    24.1;                     !- Vertex 4 Zcoordinate

SHADING:SITE:DETAILED,
    Shading_V102_1,           !- Name
    ,                         !- Transmittance Schedule Name
    autocalculate,            !- Number of Vertices
    -41.5358,                 !- Vertex 1 Xcoordinate
    -83.2266,                 !- Vertex 1 Ycoordinate
    15.5,                     !- Vertex 1 Zcoordinate
    -41.5358,                 !- Vertex 2 Xcoordinate
    -83.2266,                 !- Vertex 2 Ycoordinate
    0,                        !- Vertex 2 Zcoordinate
    -46.6848,                 !- Vertex 3 Xcoordinate
    -87.5446,                 !- Vertex 3 Ycoordinate
    0,                        !- Vertex 3 Zcoordinate
    -46.6848,                 !- Vertex 4 Xcoordinate
    -87.5446,                 !- Vertex 4 Ycoordinate
    15.5;                     !- Vertex 4 Zcoordinate

SHADING:SITE:DETAILED,
    Shading_V510_1,           !- Name
    ,                         !- Transmittance Schedule Name
    autocalculate,            !- Number of Vertices
    -67.0538,                 !- Vertex 1 Xcoordinate
    -116.4106,                !- Vertex 1 Ycoordinate
    19,                       !- Vertex 1 Zcoordinate
    -67.0538,                 !- Vertex 2 Xcoordinate
    -116.4106,                !- Vertex 2 Ycoordinate
    0,                        !- Vertex 2 Zcoordinate
    -72.8788,                 !- Vertex 3 Xcoordinate
    -109.6426,                !- Vertex 3 Ycoordinate
    0,                        !- Vertex 3 Zcoordinate
    -72.8788,                 !- Vertex 4 Xcoordinate
    -109.6426,                !- Vertex 4 Ycoordinate
    19;                       !- Vertex 4 Zcoordinate

SHADING:SITE:DETAILED,
    Shading_V511_1,           !- Name
    ,                         !- Transmittance Schedule Name
    autocalculate,            !- Number of Vertices
    -72.8788,                 !- Vertex 1 Xcoordinate
    -109.6426,                !- Vertex 1 Ycoordinate
    19,                       !- Vertex 1 Zcoordinate
    -72.8788,                 !- Vertex 2 Xcoordinate
    -109.6426,                !- Vertex 2 Ycoordinate
    0,                        !- Vertex 2 Zcoordinate
    -80.5338,                 !- Vertex 3 Xcoordinate
    -116.2306,                !- Vertex 3 Ycoordinate
    0,                        !- Vertex 3 Zcoordinate
    -80.5338,                 !- Vertex 4 Xcoordinate
    -116.2306,                !- Vertex 4 Ycoordinate
    19;                       !- Vertex 4 Zcoordinate

SHADING:SITE:DETAILED,
    Shading_V160_1,           !- Name
    ,                         !- Transmittance Schedule Name
    autocalculate,            !- Number of Vertices
    10.8852,                  !- Vertex 1 Xcoordinate
    -34.2386,                 !- Vertex 1 Ycoordinate
    12.6,                     !- Vertex 1 Zcoordinate
    10.8852,                  !- Vertex 2 Xcoordinate
    -34.2386,                 !- Vertex 2 Ycoordinate
    0,                        !- Vertex 2 Zcoordinate
    15.4482,                  !- Vertex 3 Xcoordinate
    -39.5716,                 !- Vertex 3 Ycoordinate
    0,                        !- Vertex 3 Zcoordinate
    15.4482,                  !- Vertex 4 Xcoordinate
    -39.5716,                 !- Vertex 4 Ycoordinate
    12.6;                     !- Vertex 4 Zcoordinate

SHADING:SITE:DETAILED,
    Shading_V415_1,           !- Name
    ,                         !- Transmittance Schedule Name
    autocalculate,            !- Number of Vertices
    -22.8458,                 !- Vertex 1 Xcoordinate
    12.9434,                  !- Vertex 1 Ycoordinate
    15.9,                     !- Vertex 1 Zcoordinate
    -22.8458,                 !- Vertex 2 Xcoordinate
    12.9434,                  !- Vertex 2 Ycoordinate
    0,                        !- Vertex 2 Zcoordinate
    -32.2098,                 !- Vertex 3 Xcoordinate
    13.6654,                  !- Vertex 3 Ycoordinate
    0,                        !- Vertex 3 Zcoordinate
    -32.2098,                 !- Vertex 4 Xcoordinate
    13.6654,                  !- Vertex 4 Ycoordinate
    15.9;                     !- Vertex 4 Zcoordinate

SHADING:SITE:DETAILED,
    Shading_V416_1,           !- Name
    ,                         !- Transmittance Schedule Name
    autocalculate,            !- Number of Vertices
    -32.2098,                 !- Vertex 1 Xcoordinate
    13.6654,                  !- Vertex 1 Ycoordinate
    15.9,                     !- Vertex 1 Zcoordinate
    -32.2098,                 !- Vertex 2 Xcoordinate
    13.6654,                  !- Vertex 2 Ycoordinate
    0,                        !- Vertex 2 Zcoordinate
    -31.6168,                 !- Vertex 3 Xcoordinate
    21.2874,                  !- Vertex 3 Ycoordinate
    0,                        !- Vertex 3 Zcoordinate
    -31.6168,                 !- Vertex 4 Xcoordinate
    21.2874,                  !- Vertex 4 Ycoordinate
    15.9;                     !- Vertex 4 Zcoordinate

SHADING:SITE:DETAILED,
    Shading_V417_1,           !- Name
    ,                         !- Transmittance Schedule Name
    autocalculate,            !- Number of Vertices
    -31.6168,                 !- Vertex 1 Xcoordinate
    21.2874,                  !- Vertex 1 Ycoordinate
    15.9,                     !- Vertex 1 Zcoordinate
    -31.6168,                 !- Vertex 2 Xcoordinate
    21.2874,                  !- Vertex 2 Ycoordinate
    0,                        !- Vertex 2 Zcoordinate
    -41.7248,                 !- Vertex 3 Xcoordinate
    21.9964,                  !- Vertex 3 Ycoordinate
    0,                        !- Vertex 3 Zcoordinate
    -41.7248,                 !- Vertex 4 Xcoordinate
    21.9964,                  !- Vertex 4 Ycoordinate
    15.9;                     !- Vertex 4 Zcoordinate

SHADING:SITE:DETAILED,
    Shading_V431_1,           !- Name
    ,                         !- Transmittance Schedule Name
    autocalculate,            !- Number of Vertices
    -13.8488,                 !- Vertex 1 Xcoordinate
    -27.2666,                 !- Vertex 1 Ycoordinate
    15.9,                     !- Vertex 1 Zcoordinate
    -13.8488,                 !- Vertex 2 Xcoordinate
    -27.2666,                 !- Vertex 2 Ycoordinate
    0,                        !- Vertex 2 Zcoordinate
    -19.8428,                 !- Vertex 3 Xcoordinate
    -32.3486,                 !- Vertex 3 Ycoordinate
    0,                        !- Vertex 3 Zcoordinate
    -19.8428,                 !- Vertex 4 Xcoordinate
    -32.3486,                 !- Vertex 4 Ycoordinate
    15.9;                     !- Vertex 4 Zcoordinate

SHADING:SITE:DETAILED,
    Shading_V432_1,           !- Name
    ,                         !- Transmittance Schedule Name
    autocalculate,            !- Number of Vertices
    -19.8428,                 !- Vertex 1 Xcoordinate
    -32.3486,                 !- Vertex 1 Ycoordinate
    15.9,                     !- Vertex 1 Zcoordinate
    -19.8428,                 !- Vertex 2 Xcoordinate
    -32.3486,                 !- Vertex 2 Ycoordinate
    0,                        !- Vertex 2 Zcoordinate
    -34.4658,                 !- Vertex 3 Xcoordinate
    -15.4476,                 !- Vertex 3 Ycoordinate
    0,                        !- Vertex 3 Zcoordinate
    -34.4658,                 !- Vertex 4 Xcoordinate
    -15.4476,                 !- Vertex 4 Ycoordinate
    15.9;                     !- Vertex 4 Zcoordinate

SHADING:SITE:DETAILED,
    Shading_V413_1,           !- Name
    ,                         !- Transmittance Schedule Name
    autocalculate,            !- Number of Vertices
    -33.1938,                 !- Vertex 1 Xcoordinate
    0.9524,                   !- Vertex 1 Ycoordinate
    15.9,                     !- Vertex 1 Zcoordinate
    -33.1938,                 !- Vertex 2 Xcoordinate
    0.9524,                   !- Vertex 2 Ycoordinate
    0,                        !- Vertex 2 Zcoordinate
    -23.8198,                 !- Vertex 3 Xcoordinate
    0.2294,                   !- Vertex 3 Ycoordinate
    0,                        !- Vertex 3 Zcoordinate
    -23.8198,                 !- Vertex 4 Xcoordinate
    0.2294,                   !- Vertex 4 Ycoordinate
    15.9;                     !- Vertex 4 Zcoordinate

SHADING:SITE:DETAILED,
    Shading_V162_1,           !- Name
    ,                         !- Transmittance Schedule Name
    autocalculate,            !- Number of Vertices
    12.4012,                  !- Vertex 1 Xcoordinate
    -42.1656,                 !- Vertex 1 Ycoordinate
    12.6,                     !- Vertex 1 Zcoordinate
    12.4012,                  !- Vertex 2 Xcoordinate
    -42.1656,                 !- Vertex 2 Ycoordinate
    0,                        !- Vertex 2 Zcoordinate
    16.7502,                  !- Vertex 3 Xcoordinate
    -47.2476,                 !- Vertex 3 Ycoordinate
    0,                        !- Vertex 3 Zcoordinate
    16.7502,                  !- Vertex 4 Xcoordinate
    -47.2476,                 !- Vertex 4 Ycoordinate
    12.6;                     !- Vertex 4 Zcoordinate

SHADING:SITE:DETAILED,
    Shading_V211_1,           !- Name
    ,                         !- Transmittance Schedule Name
    autocalculate,            !- Number of Vertices
    42.0622,                  !- Vertex 1 Xcoordinate
    -74.1966,                 !- Vertex 1 Ycoordinate
    14.3,                     !- Vertex 1 Zcoordinate
    42.0622,                  !- Vertex 2 Xcoordinate
    -74.1966,                 !- Vertex 2 Ycoordinate
    0,                        !- Vertex 2 Zcoordinate
    36.7812,                  !- Vertex 3 Xcoordinate
    -78.6656,                 !- Vertex 3 Ycoordinate
    0,                        !- Vertex 3 Zcoordinate
    36.7812,                  !- Vertex 4 Xcoordinate
    -78.6656,                 !- Vertex 4 Ycoordinate
    14.3;                     !- Vertex 4 Zcoordinate

ELECTRICEQUIPMENT,
    Block Build0_Alt0 Storey 0Load,    !- Name
    Block Build0_Alt0 Storey 0,    !- Zone or ZoneList Name
    LoadSchedule,             !- Schedule Name
    Watts/Area,               !- Design Level Calculation Method
    ,                         !- Design Level
    0.08,                     !- Watts per Zone Floor Area
    ,                         !- Watts per Person
    0,                        !- Fraction Latent
    0,                        !- Fraction Radiant
    0,                        !- Fraction Lost
    General;                  !- EndUse Subcategory

ELECTRICEQUIPMENT,
    Block Build1_Alt0 Storey 0Load,    !- Name
    Block Build1_Alt0 Storey 0,    !- Zone or ZoneList Name
    LoadSchedule,             !- Schedule Name
    Watts/Area,               !- Design Level Calculation Method
    ,                         !- Design Level
    0.04,                     !- Watts per Zone Floor Area
    ,                         !- Watts per Person
    0,                        !- Fraction Latent
    0,                        !- Fraction Radiant
    0,                        !- Fraction Lost
    General;                  !- EndUse Subcategory

ELECTRICEQUIPMENT,
    Block Build2_Alt0 Storey 0Load,    !- Name
    Block Build2_Alt0 Storey 0,    !- Zone or ZoneList Name
    LoadSchedule,             !- Schedule Name
    Watts/Area,               !- Design Level Calculation Method
    ,                         !- Design Level
    0.04,                     !- Watts per Zone Floor Area
    ,                         !- Watts per Person
    0,                        !- Fraction Latent
    0,                        !- Fraction Radiant
    0,                        !- Fraction Lost
    General;                  !- EndUse Subcategory

ZONEINFILTRATION:DESIGNFLOWRATE,
    Block Build0_Alt0 Storey -1Leak,    !- Name
    Block Build0_Alt0 Storey -1,    !- Zone or ZoneList Name
    AlwaysON,                 !- Schedule Name
    AirChanges/Hour,          !- Design Flow Rate Calculation Method
    ,                         !- Design Flow Rate
    ,                         !- Flow per Zone Floor Area
    ,                         !- Flow per Exterior Surface Area
    1,                        !- Air Changes per Hour
    1,                        !- Constant Term Coefficient
    0,                        !- Temperature Term Coefficient
    0,                        !- Velocity Term Coefficient
    0;                        !- Velocity Squared Term Coefficient

ZONEINFILTRATION:DESIGNFLOWRATE,
    Block Build1_Alt0 Storey -1Leak,    !- Name
    Block Build1_Alt0 Storey -1,    !- Zone or ZoneList Name
    AlwaysON,                 !- Schedule Name
    AirChanges/Hour,          !- Design Flow Rate Calculation Method
    ,                         !- Design Flow Rate
    ,                         !- Flow per Zone Floor Area
    ,                         !- Flow per Exterior Surface Area
    1,                        !- Air Changes per Hour
    1,                        !- Constant Term Coefficient
    0,                        !- Temperature Term Coefficient
    0,                        !- Velocity Term Coefficient
    0;                        !- Velocity Squared Term Coefficient

ZONEINFILTRATION:DESIGNFLOWRATE,
    Block Build2_Alt0 Storey -1Leak,    !- Name
    Block Build2_Alt0 Storey -1,    !- Zone or ZoneList Name
    AlwaysON,                 !- Schedule Name
    AirChanges/Hour,          !- Design Flow Rate Calculation Method
    ,                         !- Design Flow Rate
    ,                         !- Flow per Zone Floor Area
    ,                         !- Flow per Exterior Surface Area
    1,                        !- Air Changes per Hour
    1,                        !- Constant Term Coefficient
    0,                        !- Temperature Term Coefficient
    0,                        !- Velocity Term Coefficient
    0;                        !- Velocity Squared Term Coefficient

ZONEINFILTRATION:FLOWCOEFFICIENT,
    Block Build0_Alt0 Storey 0Leak,    !- Name
    Block Build0_Alt0 Storey 0,    !- Zone Name
    AlwaysON,                 !- Schedule Name
    2.043193e-01,             !- Flow Coefficient
    0.107,                    !- Stack Coefficient
    0.667,                    !- Pressure Exponent
    0.167,                    !- Wind Coefficient
    0.61;                     !- Shelter Factor

ZONEINFILTRATION:FLOWCOEFFICIENT,
    Block Build1_Alt0 Storey 0Leak,    !- Name
    Block Build1_Alt0 Storey 0,    !- Zone Name
    AlwaysON,                 !- Schedule Name
    9.453151e-02,             !- Flow Coefficient
    0.107,                    !- Stack Coefficient
    0.667,                    !- Pressure Exponent
    0.167,                    !- Wind Coefficient
    0.61;                     !- Shelter Factor

ZONEINFILTRATION:FLOWCOEFFICIENT,
    Block Build2_Alt0 Storey 0Leak,    !- Name
    Block Build2_Alt0 Storey 0,    !- Zone Name
    AlwaysON,                 !- Schedule Name
    7.794498e-02,             !- Flow Coefficient
    0.107,                    !- Stack Coefficient
    0.667,                    !- Pressure Exponent
    0.167,                    !- Wind Coefficient
    0.61;                     !- Shelter Factor

ZONEVENTILATION:DESIGNFLOWRATE,
    Block Build0_Alt0 Storey 0FreeCool,    !- Name
    Block Build0_Alt0 Storey 0,    !- Zone or ZoneList Name
    AlwaysON,                 !- Schedule Name
    AirChanges/Hour,          !- Design Flow Rate Calculation Method
    ,                         !- Design Flow Rate
    ,                         !- Flow Rate per Zone Floor Area
    ,                         !- Flow Rate per Person
    4,                        !- Air Changes per Hour
    Natural,                  !- Ventilation Type
    0,                        !- Fan Pressure Rise
    1,                        !- Fan Total Efficiency
    1,                        !- Constant Term Coefficient
    0,                        !- Temperature Term Coefficient
    0,                        !- Velocity Term Coefficient
    0,                        !- Velocity Squared Term Coefficient
    26,                       !- Minimum Indoor Temperature
    ,                         !- Minimum Indoor Temperature Schedule Name
    100,                      !- Maximum Indoor Temperature
    ,                         !- Maximum Indoor Temperature Schedule Name
    1,                        !- Delta Temperature
    ,                         !- Delta Temperature Schedule Name
    -100,                     !- Minimum Outdoor Temperature
    ,                         !- Minimum Outdoor Temperature Schedule Name
    100,                      !- Maximum Outdoor Temperature
    ,                         !- Maximum Outdoor Temperature Schedule Name
    40;                       !- Maximum Wind Speed

ZONEVENTILATION:DESIGNFLOWRATE,
    Block Build1_Alt0 Storey 0FreeCool,    !- Name
    Block Build1_Alt0 Storey 0,    !- Zone or ZoneList Name
    AlwaysON,                 !- Schedule Name
    AirChanges/Hour,          !- Design Flow Rate Calculation Method
    ,                         !- Design Flow Rate
    ,                         !- Flow Rate per Zone Floor Area
    ,                         !- Flow Rate per Person
    4,                        !- Air Changes per Hour
    Natural,                  !- Ventilation Type
    0,                        !- Fan Pressure Rise
    1,                        !- Fan Total Efficiency
    1,                        !- Constant Term Coefficient
    0,                        !- Temperature Term Coefficient
    0,                        !- Velocity Term Coefficient
    0,                        !- Velocity Squared Term Coefficient
    26,                       !- Minimum Indoor Temperature
    ,                         !- Minimum Indoor Temperature Schedule Name
    100,                      !- Maximum Indoor Temperature
    ,                         !- Maximum Indoor Temperature Schedule Name
    1,                        !- Delta Temperature
    ,                         !- Delta Temperature Schedule Name
    -100,                     !- Minimum Outdoor Temperature
    ,                         !- Minimum Outdoor Temperature Schedule Name
    100,                      !- Maximum Outdoor Temperature
    ,                         !- Maximum Outdoor Temperature Schedule Name
    40;                       !- Maximum Wind Speed

ZONEVENTILATION:DESIGNFLOWRATE,
    Block Build2_Alt0 Storey 0FreeCool,    !- Name
    Block Build2_Alt0 Storey 0,    !- Zone or ZoneList Name
    AlwaysON,                 !- Schedule Name
    AirChanges/Hour,          !- Design Flow Rate Calculation Method
    ,                         !- Design Flow Rate
    ,                         !- Flow Rate per Zone Floor Area
    ,                         !- Flow Rate per Person
    4,                        !- Air Changes per Hour
    Natural,                  !- Ventilation Type
    0,                        !- Fan Pressure Rise
    1,                        !- Fan Total Efficiency
    1,                        !- Constant Term Coefficient
    0,                        !- Temperature Term Coefficient
    0,                        !- Velocity Term Coefficient
    0,                        !- Velocity Squared Term Coefficient
    26,                       !- Minimum Indoor Temperature
    ,                         !- Minimum Indoor Temperature Schedule Name
    100,                      !- Maximum Indoor Temperature
    ,                         !- Maximum Indoor Temperature Schedule Name
    1,                        !- Delta Temperature
    ,                         !- Delta Temperature Schedule Name
    -100,                     !- Minimum Outdoor Temperature
    ,                         !- Minimum Outdoor Temperature Schedule Name
    100,                      !- Maximum Outdoor Temperature
    ,                         !- Maximum Outdoor Temperature Schedule Name
    40;                       !- Maximum Wind Speed

HVACTEMPLATE:THERMOSTAT,
    ResidZone,                !- Name
    ,                         !- Heating Setpoint Schedule Name
    21,                       !- Constant Heating Setpoint
    ,                         !- Cooling Setpoint Schedule Name
    50;                       !- Constant Cooling Setpoint

HVACTEMPLATE:ZONE:IDEALLOADSAIRSYSTEM,
    Block Build0_Alt0 Storey 0,    !- Zone Name
    ResidZone,                !- Template Thermostat Name
    ,                         !- System Availability Schedule Name
    50,                       !- Maximum Heating Supply Air Temperature
    13,                       !- Minimum Cooling Supply Air Temperature
    0.0156,                   !- Maximum Heating Supply Air Humidity Ratio
    0.0077,                   !- Minimum Cooling Supply Air Humidity Ratio
    NoLimit,                  !- Heating Limit
    ,                         !- Maximum Heating Air Flow Rate
    93210.99468684418,        !- Maximum Sensible Heating Capacity
    NoLimit,                  !- Cooling Limit
    ,                         !- Maximum Cooling Air Flow Rate
    ,                         !- Maximum Total Cooling Capacity
    ,                         !- Heating Availability Schedule Name
    ,                         !- Cooling Availability Schedule Name
    ConstantSensibleHeatRatio,    !- Dehumidification Control Type
    0.7,                      !- Cooling Sensible Heat Ratio
    60,                       !- Dehumidification Setpoint
    None,                     !- Humidification Control Type
    30,                       !- Humidification Setpoint
    Flow/Area,                !- Outdoor Air Method
    0.007,                    !- Outdoor Air Flow Rate per Person
    2.800000e-03,             !- Outdoor Air Flow Rate per Zone Floor Area
    0,                        !- Outdoor Air Flow Rate per Zone
    ,                         !- Design Specification Outdoor Air Object Name
    None,                     !- Demand Controlled Ventilation Type
    NoEconomizer,             !- Outdoor Air Economizer Type
    Sensible,                 !- Heat Recovery Type
    0.65,                     !- Sensible Heat Recovery Effectiveness
    0;                        !- Latent Heat Recovery Effectiveness

HVACTEMPLATE:ZONE:IDEALLOADSAIRSYSTEM,
    Block Build1_Alt0 Storey 0,    !- Zone Name
    ResidZone,                !- Template Thermostat Name
    ,                         !- System Availability Schedule Name
    50,                       !- Maximum Heating Supply Air Temperature
    13,                       !- Minimum Cooling Supply Air Temperature
    0.0156,                   !- Maximum Heating Supply Air Humidity Ratio
    0.0077,                   !- Minimum Cooling Supply Air Humidity Ratio
    NoLimit,                  !- Heating Limit
    ,                         !- Maximum Heating Air Flow Rate
    35534.3176707525,         !- Maximum Sensible Heating Capacity
    NoLimit,                  !- Cooling Limit
    ,                         !- Maximum Cooling Air Flow Rate
    ,                         !- Maximum Total Cooling Capacity
    ,                         !- Heating Availability Schedule Name
    ,                         !- Cooling Availability Schedule Name
    ConstantSensibleHeatRatio,    !- Dehumidification Control Type
    0.7,                      !- Cooling Sensible Heat Ratio
    60,                       !- Dehumidification Setpoint
    None,                     !- Humidification Control Type
    30,                       !- Humidification Setpoint
    Flow/Area,                !- Outdoor Air Method
    0.007,                    !- Outdoor Air Flow Rate per Person
    1.400000e-03,             !- Outdoor Air Flow Rate per Zone Floor Area
    0,                        !- Outdoor Air Flow Rate per Zone
    ,                         !- Design Specification Outdoor Air Object Name
    None,                     !- Demand Controlled Ventilation Type
    NoEconomizer,             !- Outdoor Air Economizer Type
    Sensible,                 !- Heat Recovery Type
    0.65,                     !- Sensible Heat Recovery Effectiveness
    0;                        !- Latent Heat Recovery Effectiveness

HVACTEMPLATE:ZONE:IDEALLOADSAIRSYSTEM,
    Block Build2_Alt0 Storey 0,    !- Zone Name
    ResidZone,                !- Template Thermostat Name
    ,                         !- System Availability Schedule Name
    50,                       !- Maximum Heating Supply Air Temperature
    13,                       !- Minimum Cooling Supply Air Temperature
    0.0156,                   !- Maximum Heating Supply Air Humidity Ratio
    0.0077,                   !- Minimum Cooling Supply Air Humidity Ratio
    NoLimit,                  !- Heating Limit
    ,                         !- Maximum Heating Air Flow Rate
    26635.81985718804,        !- Maximum Sensible Heating Capacity
    NoLimit,                  !- Cooling Limit
    ,                         !- Maximum Cooling Air Flow Rate
    ,                         !- Maximum Total Cooling Capacity
    ,                         !- Heating Availability Schedule Name
    ,                         !- Cooling Availability Schedule Name
    ConstantSensibleHeatRatio,    !- Dehumidification Control Type
    0.7,                      !- Cooling Sensible Heat Ratio
    60,                       !- Dehumidification Setpoint
    None,                     !- Humidification Control Type
    30,                       !- Humidification Setpoint
    Flow/Area,                !- Outdoor Air Method
    0.007,                    !- Outdoor Air Flow Rate per Person
    1.400000e-03,             !- Outdoor Air Flow Rate per Zone Floor Area
    0,                        !- Outdoor Air Flow Rate per Zone
    ,                         !- Design Specification Outdoor Air Object Name
    None,                     !- Demand Controlled Ventilation Type
    NoEconomizer,             !- Outdoor Air Economizer Type
    Sensible,                 !- Heat Recovery Type
    0.65,                     !- Sensible Heat Recovery Effectiveness
    0;                        !- Latent Heat Recovery Effectiveness

OUTDOORAIR:NODE,
    Block Build0_Alt0 Storey 0 IDEAL LOADS OUTDOOR AIR INLET,    !- Name
    -1,                       !- Height Above Ground
    ,                         !- Drybulb Temperature Schedule Name
    ,                         !- Wetbulb Temperature Schedule Name
    ,                         !- Wind Speed Schedule Name
    ,                         !- Wind Direction Schedule Name
    ,                         !- Wind Pressure Coefficient Curve Name
    No,                       !- Symmetric Wind Pressure Coefficient Curve
    Absolute;                 !- Wind Angle Type

OUTDOORAIR:NODE,
    Block Build1_Alt0 Storey 0 IDEAL LOADS OUTDOOR AIR INLET,    !- Name
    -1,                       !- Height Above Ground
    ,                         !- Drybulb Temperature Schedule Name
    ,                         !- Wetbulb Temperature Schedule Name
    ,                         !- Wind Speed Schedule Name
    ,                         !- Wind Direction Schedule Name
    ,                         !- Wind Pressure Coefficient Curve Name
    No,                       !- Symmetric Wind Pressure Coefficient Curve
    Absolute;                 !- Wind Angle Type

OUTDOORAIR:NODE,
    Block Build2_Alt0 Storey 0 IDEAL LOADS OUTDOOR AIR INLET,    !- Name
    -1,                       !- Height Above Ground
    ,                         !- Drybulb Temperature Schedule Name
    ,                         !- Wetbulb Temperature Schedule Name
    ,                         !- Wind Speed Schedule Name
    ,                         !- Wind Direction Schedule Name
    ,                         !- Wind Pressure Coefficient Curve Name
    No,                       !- Symmetric Wind Pressure Coefficient Curve
    Absolute;                 !- Wind Angle Type

ENERGYMANAGEMENTSYSTEM:SENSOR,
    T0,                       !- Name
    Block Build0_Alt0 Storey 0,    !- OutputVariable or OutputMeter Index Key Name
    Zone Mean Air Temperature;    !- OutputVariable or OutputMeter Name

ENERGYMANAGEMENTSYSTEM:SENSOR,
    T1,                       !- Name
    Block Build1_Alt0 Storey 0,    !- OutputVariable or OutputMeter Index Key Name
    Zone Mean Air Temperature;    !- OutputVariable or OutputMeter Name

ENERGYMANAGEMENTSYSTEM:SENSOR,
    T2,                       !- Name
    Block Build2_Alt0 Storey 0,    !- OutputVariable or OutputMeter Index Key Name
    Zone Mean Air Temperature;    !- OutputVariable or OutputMeter Name

ENERGYMANAGEMENTSYSTEM:SENSOR,
    Pow0,                     !- Name
    Block Build0_Alt0 Storey 0 IDEAL LOADS AIR SYSTEM,    !- OutputVariable or OutputMeter Index Key Name
    Zone Ideal Loads Supply Air Total Heating Rate;    !- OutputVariable or OutputMeter Name

ENERGYMANAGEMENTSYSTEM:SENSOR,
    Pow1,                     !- Name
    Block Build1_Alt0 Storey 0 IDEAL LOADS AIR SYSTEM,    !- OutputVariable or OutputMeter Index Key Name
    Zone Ideal Loads Supply Air Total Heating Rate;    !- OutputVariable or OutputMeter Name

ENERGYMANAGEMENTSYSTEM:SENSOR,
    Pow2,                     !- Name
    Block Build2_Alt0 Storey 0 IDEAL LOADS AIR SYSTEM,    !- OutputVariable or OutputMeter Index Key Name
    Zone Ideal Loads Supply Air Total Heating Rate;    !- OutputVariable or OutputMeter Name

ENERGYMANAGEMENTSYSTEM:SENSOR,
    DHWPow,                   !- Name
    DHW,                      !- OutputVariable or OutputMeter Index Key Name
    Water Use Equipment Heating Rate;    !- OutputVariable or OutputMeter Name

ENERGYMANAGEMENTSYSTEM:PROGRAMCALLINGMANAGER,
    Average Building Temperature,    !- Name
    EndOfZoneTimestepBeforeZoneReporting,    !- EnergyPlus Model Calling Point
    AverageZoneTemps;         !- Program Name 1

ENERGYMANAGEMENTSYSTEM:PROGRAMCALLINGMANAGER,
    Compute Total Building Heat Pow,    !- Name
    EndOfZoneTimestepBeforeZoneReporting,    !- EnergyPlus Model Calling Point
    TotZonePow;               !- Program Name 1

ENERGYMANAGEMENTSYSTEM:PROGRAMCALLINGMANAGER,
    Compute Total DHW Heat Pow,    !- Name
    EndOfZoneTimestepBeforeZoneReporting,    !- EnergyPlus Model Calling Point
    prgmDHWPow;               !- Program Name 1

ENERGYMANAGEMENTSYSTEM:PROGRAM,
    AverageZoneTemps,         !- Name
    SET SumNumerator = T0*Vol0+T1*Vol1+T2*Vol2,    !- Program Line 1
    SET SumDenominator  = Vol0+Vol1+Vol2,    !- Program Line 2
    SET AverageBuildingTemp  = SumNumerator / SumDenominator;    !- Program Line 3

ENERGYMANAGEMENTSYSTEM:PROGRAM,
    TotZonePow,               !- Name
    SET TotBuildPow = Pow0+Pow1+Pow2;    !- Program Line 1

ENERGYMANAGEMENTSYSTEM:PROGRAM,
    prgmDHWPow,               !- Name
    SET TotDHWPow = DHWPow;    !- Program Line 1

ENERGYMANAGEMENTSYSTEM:GLOBALVARIABLE,
    AverageBuildingTemp;      !- Erl Variable 1 Name

ENERGYMANAGEMENTSYSTEM:GLOBALVARIABLE,
    TotBuildPow;              !- Erl Variable 1 Name

ENERGYMANAGEMENTSYSTEM:GLOBALVARIABLE,
    TotDHWPow;                !- Erl Variable 1 Name

ENERGYMANAGEMENTSYSTEM:OUTPUTVARIABLE,
    Mean Heated Zones Air Temperature,    !- Name
    AverageBuildingTemp,      !- EMS Variable Name
    Averaged,                 !- Type of Data in Variable
    ZoneTimeStep;             !- Update Frequency

ENERGYMANAGEMENTSYSTEM:OUTPUTVARIABLE,
    Total Building Heating Power,    !- Name
    TotBuildPow,              !- EMS Variable Name
    Averaged,                 !- Type of Data in Variable
    ZoneTimeStep;             !- Update Frequency

ENERGYMANAGEMENTSYSTEM:OUTPUTVARIABLE,
    Total DHW Heating Power,    !- Name
    TotDHWPow,                !- EMS Variable Name
    Averaged,                 !- Type of Data in Variable
    ZoneTimeStep;             !- Update Frequency

ENERGYMANAGEMENTSYSTEM:INTERNALVARIABLE,
    Vol0,                     !- Name
    Block Build0_Alt0 Storey 0,    !- Internal Data Index Key Name
    Zone Air Volume;          !- Internal Data Type

ENERGYMANAGEMENTSYSTEM:INTERNALVARIABLE,
    Vol1,                     !- Name
    Block Build1_Alt0 Storey 0,    !- Internal Data Index Key Name
    Zone Air Volume;          !- Internal Data Type

ENERGYMANAGEMENTSYSTEM:INTERNALVARIABLE,
    Vol2,                     !- Name
    Block Build2_Alt0 Storey 0,    !- Internal Data Index Key Name
    Zone Air Volume;          !- Internal Data Type

WATERUSE:EQUIPMENT,
    DHW,                      !- Name
    General,                  !- EndUse Subcategory
    1.944788e-08,             !- Peak Flow Rate
    WaterTaps,                !- Flow Rate Fraction Schedule Name
    TargetWaterTemp,          !- Target Temperature Schedule Name
    HotWaterTemp,             !- Hot Water Supply Temperature Schedule Name
    ColdWaterTemp;            !- Cold Water Supply Temperature Schedule Name

Output:VariableDictionary,
    Regular;                  !- Key Field

OUTPUT:ENERGYMANAGEMENTSYSTEM,
    Verbose,                  !- Actuator Availability Dictionary Reporting
    Verbose,                  !- Internal Variable Availability Dictionary Reporting
    Verbose;                  !- EMS Runtime Language Debug Output Level

Output:Table:SummaryReports,
    AllSummary;               !- Report 1 Name

OutputControl:Table:Style,
    HTML;                     !- Column Separator

OUTPUT:VARIABLE,
    *,                        !- Key Value
    Site Outdoor Air Drybulb Temperature,    !- Variable Name
    Hourly;                   !- Reporting Frequency

OUTPUT:VARIABLE,
    *,                        !- Key Value
    Site Outdoor Air Relative Humidity,    !- Variable Name
    Hourly;                   !- Reporting Frequency

OUTPUT:VARIABLE,
    *,                        !- Key Value
    Site Outdoor Air Barometric Pressure,    !- Variable Name
    Hourly;                   !- Reporting Frequency

OUTPUT:VARIABLE,
    *,                        !- Key Value
    Site Wind Speed,          !- Variable Name
    Hourly;                   !- Reporting Frequency

OUTPUT:VARIABLE,
    *,                        !- Key Value
    Site Diffuse Solar Radiation Rate per Area,    !- Variable Name
    Hourly;                   !- Reporting Frequency

OUTPUT:VARIABLE,
    *,                        !- Key Value
    Site Direct Solar Radiation Rate per Area,    !- Variable Name
    Hourly;                   !- Reporting Frequency

OUTPUT:VARIABLE,
    *,                        !- Key Value
    Zone Electric Equipment Electric Power,    !- Variable Name
    Hourly;                   !- Reporting Frequency

OUTPUT:VARIABLE,
    *,                        !- Key Value
    Zone Electric Equipment Total Heating Rate,    !- Variable Name
    Hourly;                   !- Reporting Frequency

OUTPUT:VARIABLE,
    *,                        !- Key Value
    Surface Outside Face Incident Solar Radiation Rate per Area,    !- Variable Name
    Hourly;                   !- Reporting Frequency

OUTPUT:VARIABLE,
    *,                        !- Key Value
    Surface Outside Face Incident Beam Solar Radiation Rate per Area,    !- Variable Name
    Hourly;                   !- Reporting Frequency

OUTPUT:VARIABLE,
    *,                        !- Key Value
    Zone Ideal Loads Supply Air Total Heating Rate,    !- Variable Name
    Hourly;                   !- Reporting Frequency

OUTPUT:VARIABLE,
    *,                        !- Key Value
    Water Use Equipment Hot Water Mass Flow Rate,    !- Variable Name
    Hourly;                   !- Reporting Frequency

OUTPUT:VARIABLE,
    *,                        !- Key Value
    Water Use Equipment Cold Water Mass Flow Rate,    !- Variable Name
    Hourly;                   !- Reporting Frequency

OUTPUT:VARIABLE,
    *,                        !- Key Value
    Water Use Equipment Hot Water Temperature,    !- Variable Name
    Hourly;                   !- Reporting Frequency

OUTPUT:VARIABLE,
    *,                        !- Key Value
    Water Use Equipment Cold Water Temperature,    !- Variable Name
    Hourly;                   !- Reporting Frequency

OUTPUT:VARIABLE,
    *,                        !- Key Value
    Water Use Equipment Heating Rate,    !- Variable Name
    Hourly;                   !- Reporting Frequency

OUTPUT:VARIABLE,
    *,                        !- Key Value
    Mean Heated Zones Air Temperature,    !- Variable Name
    Hourly;                   !- Reporting Frequency

OUTPUT:VARIABLE,
    *,                        !- Key Value
    Total Building Heating Power,    !- Variable Name
    Hourly;                   !- Reporting Frequency

OUTPUT:VARIABLE,
    *,                        !- Key Value
    Total DHW Heating Power,    !- Variable Name
    Hourly;                   !- Reporting Frequency

OUTPUT:DIAGNOSTICS,
    DISPLAYEXTRAWARNINGS,     !- Key 1
    DisplayAdvancedReportVariables;    !- Key 2