!- Darwin Line endings 

Version,
    9.5;                      !- Version Identifier

SimulationControl,
    No,                       !- Do Zone Sizing Calculation
    No,                       !- Do System Sizing Calculation
    No,                       !- Do Plant Sizing Calculation
    No,                       !- Run Simulation for Sizing Periods
    Yes,                      !- Run Simulation for Weather File Run Periods
    No,                       !- Do HVAC Sizing Simulation for Sizing Periods
    1;                        !- Maximum Number of HVAC Sizing Simulation Passes

Building,
    None,                     !- Name
    0,                        !- North Axis
    Suburbs,                  !- Terrain
    0.04,                     !- Loads Convergence Tolerance Value
    0.4,                      !- Temperature Convergence Tolerance Value
    FullExterior,             !- Solar Distribution
    25,                       !- Maximum Number of Warmup Days
    6;                        !- Minimum Number of Warmup Days

SHADOWCALCULATION,
    PolygonClipping,          !- Shading Calculation Method
    Periodic,                 !- Shading Calculation Update Frequency Method
    20,                       !- Shading Calculation Update Frequency
    25000,                    !- Maximum Figures in Shadow Overlap Calculations
    SutherlandHodgman,        !- Polygon Clipping Algorithm
    512,                      !- Pixel Counting Resolution
    SimpleSkyDiffuseModeling,    !- Sky Diffuse Modeling Algorithm
    No,                       !- Output External Shading Calculation Results
    No,                       !- Disable SelfShading Within Shading Zone Groups
    No;                       !- Disable SelfShading From Shading Zone Groups to Other Zones

Timestep,
    4;                        !- Number of Timesteps per Hour

Site:Location,
    WeatherData/USA_CA_San.Francisco.Intl.AP.724940_TMY3.epw,    !- Name
    37.62,                    !- Latitude
    -122.4,                   !- Longitude
    -8,                       !- Time Zone
    2;                        !- Elevation

SizingPeriod:DesignDay,
    DENVER_STAPLETON Ann Htg 99.6% Condns DB,    !- Name
    12,                       !- Month
    21,                       !- Day of Month
    WinterDesignDay,          !- Day Type
    -20,                      !- Maximum DryBulb Temperature
    0,                        !- Daily DryBulb Temperature Range
    ,                         !- DryBulb Temperature Range Modifier Type
    ,                         !- DryBulb Temperature Range Modifier Day Schedule Name
    Wetbulb,                  !- Humidity Condition Type
    -20,                      !- Wetbulb or DewPoint at Maximum DryBulb
    ,                         !- Humidity Condition Day Schedule Name
    ,                         !- Humidity Ratio at Maximum DryBulb
    ,                         !- Enthalpy at Maximum DryBulb
    ,                         !- Daily WetBulb Temperature Range
    100594,                   !- Barometric Pressure
    2.3,                      !- Wind Speed
    180,                      !- Wind Direction
    No,                       !- Rain Indicator
    No,                       !- Snow Indicator
    No,                       !- Daylight Saving Time Indicator
    ASHRAEClearSky,           !- Solar Model Indicator
    ,                         !- Beam Solar Day Schedule Name
    ,                         !- Diffuse Solar Day Schedule Name
    ,                         !- ASHRAE Clear Sky Optical Depth for Beam Irradiance taub
    ,                         !- ASHRAE Clear Sky Optical Depth for Diffuse Irradiance taud
    0;                        !- Sky Clearness

SizingPeriod:DesignDay,
    DENVER_STAPLETON Ann Clg .4% Condns DB=>MWB,    !- Name
    7,                        !- Month
    21,                       !- Day of Month
    SummerDesignDay,          !- Day Type
    34.1,                     !- Maximum DryBulb Temperature
    15.2,                     !- Daily DryBulb Temperature Range
    ,                         !- DryBulb Temperature Range Modifier Type
    ,                         !- DryBulb Temperature Range Modifier Day Schedule Name
    Wetbulb,                  !- Humidity Condition Type
    15.8,                     !- Wetbulb or DewPoint at Maximum DryBulb
    ,                         !- Humidity Condition Day Schedule Name
    ,                         !- Humidity Ratio at Maximum DryBulb
    ,                         !- Enthalpy at Maximum DryBulb
    ,                         !- Daily WetBulb Temperature Range
    100594,                   !- Barometric Pressure
    4,                        !- Wind Speed
    120,                      !- Wind Direction
    No,                       !- Rain Indicator
    No,                       !- Snow Indicator
    No,                       !- Daylight Saving Time Indicator
    ASHRAEClearSky,           !- Solar Model Indicator
    ,                         !- Beam Solar Day Schedule Name
    ,                         !- Diffuse Solar Day Schedule Name
    ,                         !- ASHRAE Clear Sky Optical Depth for Beam Irradiance taub
    ,                         !- ASHRAE Clear Sky Optical Depth for Diffuse Irradiance taud
    1;                        !- Sky Clearness

RunPeriod,
    Run Period 1,             !- Name
    1,                        !- Begin Month
    1,                        !- Begin Day of Month
    ,                         !- Begin Year
    12,                       !- End Month
    31,                       !- End Day of Month
    ,                         !- End Year
    Tuesday,                  !- Day of Week for Start Day
    Yes,                      !- Use Weather File Holidays and Special Days
    Yes,                      !- Use Weather File Daylight Saving Period
    No,                       !- Apply Weekend Holiday Rule
    Yes,                      !- Use Weather File Rain Indicators
    Yes;                      !- Use Weather File Snow Indicators

SITE:GROUNDTEMPERATURE:BUILDINGSURFACE,
    15,                       !- January Ground Temperature
    15,                       !- February Ground Temperature
    15,                       !- March Ground Temperature
    15,                       !- April Ground Temperature
    15,                       !- May Ground Temperature
    15,                       !- June Ground Temperature
    15,                       !- July Ground Temperature
    15,                       !- August Ground Temperature
    15,                       !- September Ground Temperature
    15,                       !- October Ground Temperature
    15,                       !- November Ground Temperature
    15;                       !- December Ground Temperature

SCHEDULETYPELIMITS,
    Any Number,               !- Name
    ,                         !- Lower Limit Value
    ,                         !- Upper Limit Value
    ,                         !- Numeric Type
    Dimensionless;            !- Unit Type

SCHEDULE:COMPACT,
    AlwaysON,                 !- Name
    Any Number,               !- Schedule Type Limits Name
    Through: 12/31,           !- Field 1
    For: AllDays,             !- Field 2
    Until: 24:00,             !- Field 3
    1;                        !- Field 4

SCHEDULE:COMPACT,
    OccupActivity,            !- Name
    Any Number,               !- Schedule Type Limits Name
    Through: 12/31,           !- Field 1
    For: AllDays,             !- Field 2
    Until: 24:00,             !- Field 3
    70;                       !- Field 4

SCHEDULE:COMPACT,
    HotWaterTemp,             !- Name
    Any Number,               !- Schedule Type Limits Name
    Through: 12/31,           !- Field 1
    For: AllDays,             !- Field 2
    Until: 24:00,             !- Field 3
    55;                       !- Field 4

SCHEDULE:COMPACT,
    TargetWaterTemp,          !- Name
    Any Number,               !- Schedule Type Limits Name
    Through: 12/31,           !- Field 1
    For: AllDays,             !- Field 2
    Until: 24:00,             !- Field 3
    37;                       !- Field 4

SCHEDULE:FILE,
    LoadSchedule,             !- Name
    Any Number,               !- Schedule Type Limits Name
    /Users/alizad/PycharmProjects/mubes-ubem/examples/ForTest/InputFiles/Building8_winter.txt,    !- File Name
    1,                        !- Column Number
    0,                        !- Rows to Skip at Top
    8760,                     !- Number of Hours of Data
    Comma,                    !- Column Separator
    No;                       !- Interpolate to Timestep

SCHEDULE:FILE,
    Watertaps,                !- Name
    Any Number,               !- Schedule Type Limits Name
    /Users/alizad/PycharmProjects/mubes-ubem/examples/ForTest/InputFiles/domestic_hot_water_40_apartments.txt,    !- File Name
    1,                        !- Column Number
    0,                        !- Rows to Skip at Top
    8760,                     !- Number of Hours of Data
    Comma,                    !- Column Separator
    No;                       !- Interpolate to Timestep

SCHEDULE:FILE,
    ColdWaterTemp,            !- Name
    Any Number,               !- Schedule Type Limits Name
    /Users/alizad/PycharmProjects/mubes-ubem/examples/ForTest/InputFiles/cold_water_temperature_stockholm.txt,    !- File Name
    1,                        !- Column Number
    0,                        !- Rows to Skip at Top
    8760,                     !- Number of Hours of Data
    Comma,                    !- Column Separator
    No;                       !- Interpolate to Timestep

MATERIAL,
    DefaultMaterial,          !- Name
    Rough,                    !- Roughness
    0.1,                      !- Thickness
    0.1,                      !- Conductivity
    1000,                     !- Density
    1000,                     !- Specific Heat
    0.9,                      !- Thermal Absorptance
    0.7,                      !- Solar Absorptance
    0.7;                      !- Visible Absorptance

MATERIAL,
    Basement Floor,           !- Name
    Rough,                    !- Roughness
    0.1,                      !- Thickness
    0.9,                      !- Conductivity
    2300,                     !- Density
    1000,                     !- Specific Heat
    0.9,                      !- Thermal Absorptance
    0.7,                      !- Solar Absorptance
    0.7;                      !- Visible Absorptance

MATERIAL,
    Heated1rstFloor Inertia,    !- Name
    Rough,                    !- Roughness
    0.1,                      !- Thickness
    0.9,                      !- Conductivity
    2300,                     !- Density
    1000,                     !- Specific Heat
    0.9,                      !- Thermal Absorptance
    0.7,                      !- Solar Absorptance
    0.7;                      !- Visible Absorptance

MATERIAL,
    Heated1rstFloor Insulation,    !- Name
    Rough,                    !- Roughness
    0.15,                     !- Thickness
    0.035,                    !- Conductivity
    150,                      !- Density
    1000,                     !- Specific Heat
    0.9,                      !- Thermal Absorptance
    0.7,                      !- Solar Absorptance
    0.7;                      !- Visible Absorptance

MATERIAL,
    Roof Insulation,          !- Name
    Rough,                    !- Roughness
    0.3,                      !- Thickness
    0.03,                     !- Conductivity
    150,                      !- Density
    1000,                     !- Specific Heat
    0.9,                      !- Thermal Absorptance
    0.7,                      !- Solar Absorptance
    0.7;                      !- Visible Absorptance

MATERIAL,
    Wall Inertia,             !- Name
    Rough,                    !- Roughness
    0.2,                      !- Thickness
    0.9,                      !- Conductivity
    2300,                     !- Density
    1000,                     !- Specific Heat
    0.9,                      !- Thermal Absorptance
    0.7,                      !- Solar Absorptance
    0.7;                      !- Visible Absorptance

MATERIAL,
    Wall Insulation,          !- Name
    Rough,                    !- Roughness
    0.2,                      !- Thickness
    0.03,                     !- Conductivity
    150,                      !- Density
    1000,                     !- Specific Heat
    0.9,                      !- Thermal Absorptance
    0.7,                      !- Solar Absorptance
    0.7;                      !- Visible Absorptance

MATERIAL,
    HeatedZoneIntMass,        !- Name
    Rough,                    !- Roughness
    0.1,                      !- Thickness
    0.3,                      !- Conductivity
    600,                      !- Density
    1400,                     !- Specific Heat
    0.9,                      !- Thermal Absorptance
    0.7,                      !- Solar Absorptance
    0.7;                      !- Visible Absorptance

MATERIAL,
    NonHeatedZoneIntMass,     !- Name
    Rough,                    !- Roughness
    0.1,                      !- Thickness
    0.3,                      !- Conductivity
    600,                      !- Density
    1400,                     !- Specific Heat
    0.9,                      !- Thermal Absorptance
    0.7,                      !- Solar Absorptance
    0.7;                      !- Visible Absorptance

MATERIAL,
    AirWallMaterial,          !- Name
    MediumSmooth,             !- Roughness
    0.01,                     !- Thickness
    0.6,                      !- Conductivity
    800,                      !- Density
    1000,                     !- Specific Heat
    0.95,                     !- Thermal Absorptance
    0.7,                      !- Solar Absorptance
    0.7;                      !- Visible Absorptance

WINDOWMATERIAL:SIMPLEGLAZINGSYSTEM,
    DefaultGlazing,           !- Name
    2.7,                      !- UFactor
    0.763,                    !- Solar Heat Gain Coefficient
    0.8;                      !- Visible Transmittance

WINDOWMATERIAL:SIMPLEGLAZINGSYSTEM,
    Window,                   !- Name
    1.9,                      !- UFactor
    0.7,                      !- Solar Heat Gain Coefficient
    0.8;                      !- Visible Transmittance

CONSTRUCTION,
    Project Wall,             !- Name
    Wall Inertia,             !- Outside Layer
    Wall Insulation;          !- Layer 2

CONSTRUCTION,
    Project Basement Wall,    !- Name
    Wall Inertia;             !- Outside Layer

CONSTRUCTION,
    Project Basement Floor,    !- Name
    Basement Floor;           !- Outside Layer

CONSTRUCTION,
    Project Flat Roof,        !- Name
    Roof Insulation;          !- Outside Layer

CONSTRUCTION,
    Project External Window,    !- Name
    Window;                   !- Outside Layer

CONSTRUCTION,
    Project Heated1rstFloor,    !- Name
    Heated1rstFloor Inertia,    !- Outside Layer
    Heated1rstFloor Insulation;    !- Layer 2

CONSTRUCTION,
    Project Heated1rstFloor Rev,    !- Name
    Heated1rstFloor Insulation,    !- Outside Layer
    Heated1rstFloor Inertia;    !- Layer 2

CONSTRUCTION,
    HeatedZoneIntMassObj,     !- Name
    HeatedZoneIntMass;        !- Outside Layer

CONSTRUCTION,
    NonHeatedZoneIntMassObj,    !- Name
    NonHeatedZoneIntMass;     !- Outside Layer

GlobalGeometryRules,
    UpperLeftCorner,          !- Starting Vertex Position
    CounterClockWise,         !- Vertex Entry Direction
    World;                    !- Coordinate System

ZONE,
    Block Build0_Alt0 Storey -1,    !- Name
    0,                        !- Direction of Relative North
    0,                        !- X Origin
    0,                        !- Y Origin
    0,                        !- Z Origin
    1,                        !- Type
    1,                        !- Multiplier
    autocalculate,            !- Ceiling Height
    autocalculate,            !- Volume
    autocalculate,            !- Floor Area
    ,                         !- Zone Inside Convection Algorithm
    ,                         !- Zone Outside Convection Algorithm
    Yes;                      !- Part of Total Floor Area

ZONE,
    Block Build0_Alt0 Storey 0,    !- Name
    0,                        !- Direction of Relative North
    0,                        !- X Origin
    0,                        !- Y Origin
    0,                        !- Z Origin
    1,                        !- Type
    1,                        !- Multiplier
    autocalculate,            !- Ceiling Height
    autocalculate,            !- Volume
    autocalculate,            !- Floor Area
    ,                         !- Zone Inside Convection Algorithm
    ,                         !- Zone Outside Convection Algorithm
    Yes;                      !- Part of Total Floor Area

BUILDINGSURFACE:DETAILED,
    Block Build0_Alt0 Storey -1 Wall 0001,    !- Name
    wall,                     !- Surface Type
    Project Basement Wall,    !- Construction Name
    Block Build0_Alt0 Storey -1,    !- Zone Name
    ground,                   !- Outside Boundary Condition
    ,                         !- Outside Boundary Condition Object
    NoSun,                    !- Sun Exposure
    NoWind,                   !- Wind Exposure
    autocalculate,            !- View Factor to Ground
    autocalculate,            !- Number of Vertices
    16.6319,                  !- Vertex 1 Xcoordinate
    -10.406,                  !- Vertex 1 Ycoordinate
    0,                        !- Vertex 1 Zcoordinate
    16.6319,                  !- Vertex 2 Xcoordinate
    -10.406,                  !- Vertex 2 Ycoordinate
    -2.5,                     !- Vertex 2 Zcoordinate
    22.2549,                  !- Vertex 3 Xcoordinate
    -0.651,                   !- Vertex 3 Ycoordinate
    -2.5,                     !- Vertex 3 Zcoordinate
    22.2549,                  !- Vertex 4 Xcoordinate
    -0.651,                   !- Vertex 4 Ycoordinate
    0;                        !- Vertex 4 Zcoordinate

BUILDINGSURFACE:DETAILED,
    Block Build0_Alt0 Storey -1 Wall 0002,    !- Name
    wall,                     !- Surface Type
    Project Basement Wall,    !- Construction Name
    Block Build0_Alt0 Storey -1,    !- Zone Name
    ground,                   !- Outside Boundary Condition
    ,                         !- Outside Boundary Condition Object
    NoSun,                    !- Sun Exposure
    NoWind,                   !- Wind Exposure
    autocalculate,            !- View Factor to Ground
    autocalculate,            !- Number of Vertices
    22.2549,                  !- Vertex 1 Xcoordinate
    -0.651,                   !- Vertex 1 Ycoordinate
    0,                        !- Vertex 1 Zcoordinate
    22.2549,                  !- Vertex 2 Xcoordinate
    -0.651,                   !- Vertex 2 Ycoordinate
    -2.5,                     !- Vertex 2 Zcoordinate
    -9.4891,                  !- Vertex 3 Xcoordinate
    17.574,                   !- Vertex 3 Ycoordinate
    -2.5,                     !- Vertex 3 Zcoordinate
    -9.4891,                  !- Vertex 4 Xcoordinate
    17.574,                   !- Vertex 4 Ycoordinate
    0;                        !- Vertex 4 Zcoordinate

BUILDINGSURFACE:DETAILED,
    Block Build0_Alt0 Storey -1 Wall 0003,    !- Name
    wall,                     !- Surface Type
    Project Basement Wall,    !- Construction Name
    Block Build0_Alt0 Storey -1,    !- Zone Name
    ground,                   !- Outside Boundary Condition
    ,                         !- Outside Boundary Condition Object
    NoSun,                    !- Sun Exposure
    NoWind,                   !- Wind Exposure
    autocalculate,            !- View Factor to Ground
    autocalculate,            !- Number of Vertices
    -9.4891,                  !- Vertex 1 Xcoordinate
    17.574,                   !- Vertex 1 Ycoordinate
    0,                        !- Vertex 1 Zcoordinate
    -9.4891,                  !- Vertex 2 Xcoordinate
    17.574,                   !- Vertex 2 Ycoordinate
    -2.5,                     !- Vertex 2 Zcoordinate
    -15.0871,                 !- Vertex 3 Xcoordinate
    7.844,                    !- Vertex 3 Ycoordinate
    -2.5,                     !- Vertex 3 Zcoordinate
    -15.0871,                 !- Vertex 4 Xcoordinate
    7.844,                    !- Vertex 4 Ycoordinate
    0;                        !- Vertex 4 Zcoordinate

BUILDINGSURFACE:DETAILED,
    Block Build0_Alt0 Storey -1 Wall 0004,    !- Name
    wall,                     !- Surface Type
    Project Basement Wall,    !- Construction Name
    Block Build0_Alt0 Storey -1,    !- Zone Name
    ground,                   !- Outside Boundary Condition
    ,                         !- Outside Boundary Condition Object
    NoSun,                    !- Sun Exposure
    NoWind,                   !- Wind Exposure
    autocalculate,            !- View Factor to Ground
    autocalculate,            !- Number of Vertices
    -15.0871,                 !- Vertex 1 Xcoordinate
    7.844,                    !- Vertex 1 Ycoordinate
    0,                        !- Vertex 1 Zcoordinate
    -15.0871,                 !- Vertex 2 Xcoordinate
    7.844,                    !- Vertex 2 Ycoordinate
    -2.5,                     !- Vertex 2 Zcoordinate
    16.6319,                  !- Vertex 3 Xcoordinate
    -10.406,                  !- Vertex 3 Ycoordinate
    -2.5,                     !- Vertex 3 Zcoordinate
    16.6319,                  !- Vertex 4 Xcoordinate
    -10.406,                  !- Vertex 4 Ycoordinate
    0;                        !- Vertex 4 Zcoordinate

BUILDINGSURFACE:DETAILED,
    Block Build0_Alt0 Storey -1 Floor 0001,    !- Name
    floor,                    !- Surface Type
    Project Basement Floor,    !- Construction Name
    Block Build0_Alt0 Storey -1,    !- Zone Name
    ground,                   !- Outside Boundary Condition
    ,                         !- Outside Boundary Condition Object
    NoSun,                    !- Sun Exposure
    NoWind,                   !- Wind Exposure
    autocalculate,            !- View Factor to Ground
    autocalculate,            !- Number of Vertices
    22.2549,                  !- Vertex 1 Xcoordinate
    -0.651,                   !- Vertex 1 Ycoordinate
    -2.5,                     !- Vertex 1 Zcoordinate
    16.6319,                  !- Vertex 2 Xcoordinate
    -10.406,                  !- Vertex 2 Ycoordinate
    -2.5,                     !- Vertex 2 Zcoordinate
    -15.0871,                 !- Vertex 3 Xcoordinate
    7.844,                    !- Vertex 3 Ycoordinate
    -2.5,                     !- Vertex 3 Zcoordinate
    -9.4891,                  !- Vertex 4 Xcoordinate
    17.574,                   !- Vertex 4 Ycoordinate
    -2.5;                     !- Vertex 4 Zcoordinate

BUILDINGSURFACE:DETAILED,
    Block Build0_Alt0 Storey 0 Wall 0001,    !- Name
    wall,                     !- Surface Type
    Project Wall,             !- Construction Name
    Block Build0_Alt0 Storey 0,    !- Zone Name
    outdoors,                 !- Outside Boundary Condition
    ,                         !- Outside Boundary Condition Object
    SunExposed,               !- Sun Exposure
    WindExposed,              !- Wind Exposure
    autocalculate,            !- View Factor to Ground
    autocalculate,            !- Number of Vertices
    16.6319,                  !- Vertex 1 Xcoordinate
    -10.406,                  !- Vertex 1 Ycoordinate
    9,                        !- Vertex 1 Zcoordinate
    16.6319,                  !- Vertex 2 Xcoordinate
    -10.406,                  !- Vertex 2 Ycoordinate
    0,                        !- Vertex 2 Zcoordinate
    22.2549,                  !- Vertex 3 Xcoordinate
    -0.651,                   !- Vertex 3 Ycoordinate
    0,                        !- Vertex 3 Zcoordinate
    22.2549,                  !- Vertex 4 Xcoordinate
    -0.651,                   !- Vertex 4 Ycoordinate
    9;                        !- Vertex 4 Zcoordinate

BUILDINGSURFACE:DETAILED,
    Block Build0_Alt0 Storey 0 Wall 0002,    !- Name
    wall,                     !- Surface Type
    Project Wall,             !- Construction Name
    Block Build0_Alt0 Storey 0,    !- Zone Name
    outdoors,                 !- Outside Boundary Condition
    ,                         !- Outside Boundary Condition Object
    SunExposed,               !- Sun Exposure
    WindExposed,              !- Wind Exposure
    autocalculate,            !- View Factor to Ground
    autocalculate,            !- Number of Vertices
    22.2549,                  !- Vertex 1 Xcoordinate
    -0.651,                   !- Vertex 1 Ycoordinate
    9,                        !- Vertex 1 Zcoordinate
    22.2549,                  !- Vertex 2 Xcoordinate
    -0.651,                   !- Vertex 2 Ycoordinate
    0,                        !- Vertex 2 Zcoordinate
    -9.4891,                  !- Vertex 3 Xcoordinate
    17.574,                   !- Vertex 3 Ycoordinate
    0,                        !- Vertex 3 Zcoordinate
    -9.4891,                  !- Vertex 4 Xcoordinate
    17.574,                   !- Vertex 4 Ycoordinate
    9;                        !- Vertex 4 Zcoordinate

BUILDINGSURFACE:DETAILED,
    Block Build0_Alt0 Storey 0 Wall 0003,    !- Name
    wall,                     !- Surface Type
    Project Wall,             !- Construction Name
    Block Build0_Alt0 Storey 0,    !- Zone Name
    outdoors,                 !- Outside Boundary Condition
    ,                         !- Outside Boundary Condition Object
    SunExposed,               !- Sun Exposure
    WindExposed,              !- Wind Exposure
    autocalculate,            !- View Factor to Ground
    autocalculate,            !- Number of Vertices
    -9.4891,                  !- Vertex 1 Xcoordinate
    17.574,                   !- Vertex 1 Ycoordinate
    9,                        !- Vertex 1 Zcoordinate
    -9.4891,                  !- Vertex 2 Xcoordinate
    17.574,                   !- Vertex 2 Ycoordinate
    0,                        !- Vertex 2 Zcoordinate
    -15.0871,                 !- Vertex 3 Xcoordinate
    7.844,                    !- Vertex 3 Ycoordinate
    0,                        !- Vertex 3 Zcoordinate
    -15.0871,                 !- Vertex 4 Xcoordinate
    7.844,                    !- Vertex 4 Ycoordinate
    9;                        !- Vertex 4 Zcoordinate

BUILDINGSURFACE:DETAILED,
    Block Build0_Alt0 Storey 0 Wall 0004,    !- Name
    wall,                     !- Surface Type
    Project Wall,             !- Construction Name
    Block Build0_Alt0 Storey 0,    !- Zone Name
    outdoors,                 !- Outside Boundary Condition
    ,                         !- Outside Boundary Condition Object
    SunExposed,               !- Sun Exposure
    WindExposed,              !- Wind Exposure
    autocalculate,            !- View Factor to Ground
    autocalculate,            !- Number of Vertices
    -15.0871,                 !- Vertex 1 Xcoordinate
    7.844,                    !- Vertex 1 Ycoordinate
    9,                        !- Vertex 1 Zcoordinate
    -15.0871,                 !- Vertex 2 Xcoordinate
    7.844,                    !- Vertex 2 Ycoordinate
    0,                        !- Vertex 2 Zcoordinate
    16.6319,                  !- Vertex 3 Xcoordinate
    -10.406,                  !- Vertex 3 Ycoordinate
    0,                        !- Vertex 3 Zcoordinate
    16.6319,                  !- Vertex 4 Xcoordinate
    -10.406,                  !- Vertex 4 Ycoordinate
    9;                        !- Vertex 4 Zcoordinate

BUILDINGSURFACE:DETAILED,
    Block Build0_Alt0 Storey 0 Roof 0001,    !- Name
    roof,                     !- Surface Type
    Project Flat Roof,        !- Construction Name
    Block Build0_Alt0 Storey 0,    !- Zone Name
    outdoors,                 !- Outside Boundary Condition
    ,                         !- Outside Boundary Condition Object
    SunExposed,               !- Sun Exposure
    WindExposed,              !- Wind Exposure
    autocalculate,            !- View Factor to Ground
    autocalculate,            !- Number of Vertices
    16.6319,                  !- Vertex 1 Xcoordinate
    -10.406,                  !- Vertex 1 Ycoordinate
    9,                        !- Vertex 1 Zcoordinate
    22.2549,                  !- Vertex 2 Xcoordinate
    -0.651,                   !- Vertex 2 Ycoordinate
    9,                        !- Vertex 2 Zcoordinate
    -9.4891,                  !- Vertex 3 Xcoordinate
    17.574,                   !- Vertex 3 Ycoordinate
    9,                        !- Vertex 3 Zcoordinate
    -15.0871,                 !- Vertex 4 Xcoordinate
    7.844,                    !- Vertex 4 Ycoordinate
    9;                        !- Vertex 4 Zcoordinate

BUILDINGSURFACE:DETAILED,
    Block Build0_Alt0 Storey -1 Ceiling 0001_1,    !- Name
    ceiling,                  !- Surface Type
    Project Heated1rstFloor Rev,    !- Construction Name
    Block Build0_Alt0 Storey -1,    !- Zone Name
    surface,                  !- Outside Boundary Condition
    Block Build0_Alt0 Storey 0 Floor 0001_1,    !- Outside Boundary Condition Object
    NoSun,                    !- Sun Exposure
    NoWind,                   !- Wind Exposure
    autocalculate,            !- View Factor to Ground
    autocalculate,            !- Number of Vertices
    16.63189999992028,        !- Vertex 1 Xcoordinate
    -1.040600e+01,            !- Vertex 1 Ycoordinate
    0,                        !- Vertex 1 Zcoordinate
    22.254899999592453,       !- Vertex 2 Xcoordinate
    -6.510000e-01,            !- Vertex 2 Ycoordinate
    0,                        !- Vertex 2 Zcoordinate
    -9.489099999889731,       !- Vertex 3 Xcoordinate
    17.57399999955669,        !- Vertex 3 Ycoordinate
    0,                        !- Vertex 3 Zcoordinate
    -1.508710e+01,            !- Vertex 4 Xcoordinate
    7.843999999575317,        !- Vertex 4 Ycoordinate
    0;                        !- Vertex 4 Zcoordinate

BUILDINGSURFACE:DETAILED,
    Block Build0_Alt0 Storey 0 Floor 0001_1,    !- Name
    floor,                    !- Surface Type
    Project Heated1rstFloor,    !- Construction Name
    Block Build0_Alt0 Storey 0,    !- Zone Name
    surface,                  !- Outside Boundary Condition
    Block Build0_Alt0 Storey -1 Ceiling 0001_1,    !- Outside Boundary Condition Object
    NoSun,                    !- Sun Exposure
    NoWind,                   !- Wind Exposure
    autocalculate,            !- View Factor to Ground
    autocalculate,            !- Number of Vertices
    22.254899999592453,       !- Vertex 1 Xcoordinate
    -6.510000e-01,            !- Vertex 1 Ycoordinate
    0,                        !- Vertex 1 Zcoordinate
    16.63189999992028,        !- Vertex 2 Xcoordinate
    -1.040600e+01,            !- Vertex 2 Ycoordinate
    0,                        !- Vertex 2 Zcoordinate
    -1.508710e+01,            !- Vertex 3 Xcoordinate
    7.843999999575317,        !- Vertex 3 Ycoordinate
    0,                        !- Vertex 3 Zcoordinate
    -9.489099999889731,       !- Vertex 4 Xcoordinate
    17.57399999955669,        !- Vertex 4 Ycoordinate
    0;                        !- Vertex 4 Zcoordinate

FENESTRATIONSURFACE:DETAILED,
    Block Build0_Alt0 Storey 0 Wall 0001 window,    !- Name
    Window,                   !- Surface Type
    Project External Window,    !- Construction Name
    Block Build0_Alt0 Storey 0 Wall 0001,    !- Building Surface Name
    ,                         !- Outside Boundary Condition Object
    autocalculate,            !- View Factor to Ground
    ,                         !- Frame and Divider Name
    1.0,                      !- Multiplier
    autocalculate,            !- Number of Vertices
    16.6347115,               !- Vertex 1 Xcoordinate
    -10.4011225,              !- Vertex 1 Ycoordinate
    5.85,                     !- Vertex 1 Zcoordinate
    16.6347115,               !- Vertex 2 Xcoordinate
    -10.4011225,              !- Vertex 2 Ycoordinate
    3.1500000000000004,       !- Vertex 2 Zcoordinate
    22.2520885,               !- Vertex 3 Xcoordinate
    -6.558775e-01,            !- Vertex 3 Ycoordinate
    3.1500000000000004,       !- Vertex 3 Zcoordinate
    22.2520885,               !- Vertex 4 Xcoordinate
    -6.558775e-01,            !- Vertex 4 Ycoordinate
    5.85;                     !- Vertex 4 Zcoordinate

FENESTRATIONSURFACE:DETAILED,
    Block Build0_Alt0 Storey 0 Wall 0002 window,    !- Name
    Window,                   !- Surface Type
    Project External Window,    !- Construction Name
    Block Build0_Alt0 Storey 0 Wall 0002,    !- Building Surface Name
    ,                         !- Outside Boundary Condition Object
    autocalculate,            !- View Factor to Ground
    ,                         !- Frame and Divider Name
    1.0,                      !- Multiplier
    autocalculate,            !- Number of Vertices
    22.239027999999998,       !- Vertex 1 Xcoordinate
    -6.418875e-01,            !- Vertex 1 Ycoordinate
    5.85,                     !- Vertex 1 Zcoordinate
    22.239027999999998,       !- Vertex 2 Xcoordinate
    -6.418875e-01,            !- Vertex 2 Ycoordinate
    3.1500000000000004,       !- Vertex 2 Zcoordinate
    -9.473228,                !- Vertex 3 Xcoordinate
    17.5648875,               !- Vertex 3 Ycoordinate
    3.1500000000000004,       !- Vertex 3 Zcoordinate
    -9.473228,                !- Vertex 4 Xcoordinate
    17.5648875,               !- Vertex 4 Ycoordinate
    5.85;                     !- Vertex 4 Zcoordinate

FENESTRATIONSURFACE:DETAILED,
    Block Build0_Alt0 Storey 0 Wall 0003 window,    !- Name
    Window,                   !- Surface Type
    Project External Window,    !- Construction Name
    Block Build0_Alt0 Storey 0 Wall 0003,    !- Building Surface Name
    ,                         !- Outside Boundary Condition Object
    autocalculate,            !- View Factor to Ground
    ,                         !- Frame and Divider Name
    1.0,                      !- Multiplier
    autocalculate,            !- Number of Vertices
    -9.491899,                !- Vertex 1 Xcoordinate
    17.569135000000003,       !- Vertex 1 Ycoordinate
    5.85,                     !- Vertex 1 Zcoordinate
    -9.491899,                !- Vertex 2 Xcoordinate
    17.569135000000003,       !- Vertex 2 Ycoordinate
    3.1500000000000004,       !- Vertex 2 Zcoordinate
    -15.084301,               !- Vertex 3 Xcoordinate
    7.848865,                 !- Vertex 3 Ycoordinate
    3.1500000000000004,       !- Vertex 3 Zcoordinate
    -15.084301,               !- Vertex 4 Xcoordinate
    7.848865,                 !- Vertex 4 Ycoordinate
    5.85;                     !- Vertex 4 Zcoordinate

FENESTRATIONSURFACE:DETAILED,
    Block Build0_Alt0 Storey 0 Wall 0004 window,    !- Name
    Window,                   !- Surface Type
    Project External Window,    !- Construction Name
    Block Build0_Alt0 Storey 0 Wall 0004,    !- Building Surface Name
    ,                         !- Outside Boundary Condition Object
    autocalculate,            !- View Factor to Ground
    ,                         !- Frame and Divider Name
    1.0,                      !- Multiplier
    autocalculate,            !- Number of Vertices
    -15.0712405,              !- Vertex 1 Xcoordinate
    7.834875,                 !- Vertex 1 Ycoordinate
    5.85,                     !- Vertex 1 Zcoordinate
    -15.0712405,              !- Vertex 2 Xcoordinate
    7.834875,                 !- Vertex 2 Ycoordinate
    3.1500000000000004,       !- Vertex 2 Zcoordinate
    16.616040500000004,       !- Vertex 3 Xcoordinate
    -1.039688e+01,            !- Vertex 3 Ycoordinate
    3.1500000000000004,       !- Vertex 3 Zcoordinate
    16.616040500000004,       !- Vertex 4 Xcoordinate
    -1.039688e+01,            !- Vertex 4 Ycoordinate
    5.85;                     !- Vertex 4 Zcoordinate

INTERNALMASS,
    Block Build0_Alt0 Storey -1IntMass,    !- Name
    NonHeatedZoneIntMassObj,    !- Construction Name
    Block Build0_Alt0 Storey -1,    !- Zone or ZoneList Name
    823;                      !- Surface Area

INTERNALMASS,
    Block Build0_Alt0 Storey 0IntMass,    !- Name
    HeatedZoneIntMassObj,     !- Construction Name
    Block Build0_Alt0 Storey 0,    !- Zone or ZoneList Name
    2469;                     !- Surface Area

SHADING:SITE:DETAILED,
    Shading_V0_1,             !- Name
    ,                         !- Transmittance Schedule Name
    autocalculate,            !- Number of Vertices
    133.1156,                 !- Vertex 1 Xcoordinate
    -9.7256,                  !- Vertex 1 Ycoordinate
    15.8,                     !- Vertex 1 Zcoordinate
    133.1156,                 !- Vertex 2 Xcoordinate
    -9.7256,                  !- Vertex 2 Ycoordinate
    0,                        !- Vertex 2 Zcoordinate
    132.4039,                 !- Vertex 3 Xcoordinate
    -19.388,                  !- Vertex 3 Ycoordinate
    0,                        !- Vertex 3 Zcoordinate
    132.4039,                 !- Vertex 4 Xcoordinate
    -19.388,                  !- Vertex 4 Ycoordinate
    15.8;                     !- Vertex 4 Zcoordinate

SHADING:SITE:DETAILED,
    Shading_V1_1,             !- Name
    ,                         !- Transmittance Schedule Name
    autocalculate,            !- Number of Vertices
    132.4039,                 !- Vertex 1 Xcoordinate
    -19.388,                  !- Vertex 1 Ycoordinate
    15.8,                     !- Vertex 1 Zcoordinate
    132.4039,                 !- Vertex 2 Xcoordinate
    -19.388,                  !- Vertex 2 Ycoordinate
    0,                        !- Vertex 2 Zcoordinate
    123.6779,                 !- Vertex 3 Xcoordinate
    -26.783,                  !- Vertex 3 Ycoordinate
    0,                        !- Vertex 3 Zcoordinate
    123.6779,                 !- Vertex 4 Xcoordinate
    -26.783,                  !- Vertex 4 Ycoordinate
    15.8;                     !- Vertex 4 Zcoordinate

SHADING:SITE:DETAILED,
    Shading_V2_1,             !- Name
    ,                         !- Transmittance Schedule Name
    autocalculate,            !- Number of Vertices
    123.6779,                 !- Vertex 1 Xcoordinate
    -26.783,                  !- Vertex 1 Ycoordinate
    15.8,                     !- Vertex 1 Zcoordinate
    123.6779,                 !- Vertex 2 Xcoordinate
    -26.783,                  !- Vertex 2 Ycoordinate
    0,                        !- Vertex 2 Zcoordinate
    130.2579,                 !- Vertex 3 Xcoordinate
    -34.511,                  !- Vertex 3 Ycoordinate
    0,                        !- Vertex 3 Zcoordinate
    130.2579,                 !- Vertex 4 Xcoordinate
    -34.511,                  !- Vertex 4 Ycoordinate
    15.8;                     !- Vertex 4 Zcoordinate

SHADING:SITE:DETAILED,
    Shading_V92_1,            !- Name
    ,                         !- Transmittance Schedule Name
    autocalculate,            !- Number of Vertices
    128.898,                  !- Vertex 1 Xcoordinate
    4.4952,                   !- Vertex 1 Ycoordinate
    12,                       !- Vertex 1 Zcoordinate
    128.898,                  !- Vertex 2 Xcoordinate
    4.4952,                   !- Vertex 2 Ycoordinate
    0,                        !- Vertex 2 Zcoordinate
    133.7609,                 !- Vertex 3 Xcoordinate
    -0.97,                    !- Vertex 3 Ycoordinate
    0,                        !- Vertex 3 Zcoordinate
    133.7609,                 !- Vertex 4 Xcoordinate
    -0.97,                    !- Vertex 4 Ycoordinate
    12;                       !- Vertex 4 Zcoordinate

SHADING:SITE:DETAILED,
    Shading_V93_1,            !- Name
    ,                         !- Transmittance Schedule Name
    autocalculate,            !- Number of Vertices
    133.7609,                 !- Vertex 1 Xcoordinate
    -0.97,                    !- Vertex 1 Ycoordinate
    12,                       !- Vertex 1 Zcoordinate
    133.7609,                 !- Vertex 2 Xcoordinate
    -0.97,                    !- Vertex 2 Ycoordinate
    0,                        !- Vertex 2 Zcoordinate
    133.1156,                 !- Vertex 3 Xcoordinate
    -9.7256,                  !- Vertex 3 Ycoordinate
    0,                        !- Vertex 3 Zcoordinate
    133.1156,                 !- Vertex 4 Xcoordinate
    -9.7256,                  !- Vertex 4 Ycoordinate
    12;                       !- Vertex 4 Zcoordinate

SHADING:SITE:DETAILED,
    Shading_V104_1,           !- Name
    ,                         !- Transmittance Schedule Name
    autocalculate,            !- Number of Vertices
    146.9929,                 !- Vertex 1 Xcoordinate
    51.324,                   !- Vertex 1 Ycoordinate
    15.5,                     !- Vertex 1 Zcoordinate
    146.9929,                 !- Vertex 2 Xcoordinate
    51.324,                   !- Vertex 2 Ycoordinate
    0,                        !- Vertex 2 Zcoordinate
    139.4139,                 !- Vertex 3 Xcoordinate
    44.902,                   !- Vertex 3 Ycoordinate
    0,                        !- Vertex 3 Zcoordinate
    139.4139,                 !- Vertex 4 Xcoordinate
    44.902,                   !- Vertex 4 Ycoordinate
    15.5;                     !- Vertex 4 Zcoordinate

SHADING:SITE:DETAILED,
    Shading_V227_1,           !- Name
    ,                         !- Transmittance Schedule Name
    autocalculate,            !- Number of Vertices
    51.4924,                  !- Vertex 1 Xcoordinate
    47.1907,                  !- Vertex 1 Ycoordinate
    11.3,                     !- Vertex 1 Zcoordinate
    51.4924,                  !- Vertex 2 Xcoordinate
    47.1907,                  !- Vertex 2 Ycoordinate
    0,                        !- Vertex 2 Zcoordinate
    62.2599,                  !- Vertex 3 Xcoordinate
    46.392,                   !- Vertex 3 Ycoordinate
    0,                        !- Vertex 3 Zcoordinate
    62.2599,                  !- Vertex 4 Xcoordinate
    46.392,                   !- Vertex 4 Ycoordinate
    11.3;                     !- Vertex 4 Zcoordinate

SHADING:SITE:DETAILED,
    Shading_V228_1,           !- Name
    ,                         !- Transmittance Schedule Name
    autocalculate,            !- Number of Vertices
    62.2599,                  !- Vertex 1 Xcoordinate
    46.392,                   !- Vertex 1 Ycoordinate
    11.3,                     !- Vertex 1 Zcoordinate
    62.2599,                  !- Vertex 2 Xcoordinate
    46.392,                   !- Vertex 2 Ycoordinate
    0,                        !- Vertex 2 Zcoordinate
    68.3409,                  !- Vertex 3 Xcoordinate
    39.367,                   !- Vertex 3 Ycoordinate
    0,                        !- Vertex 3 Zcoordinate
    68.3409,                  !- Vertex 4 Xcoordinate
    39.367,                   !- Vertex 4 Ycoordinate
    11.3;                     !- Vertex 4 Zcoordinate

SHADING:SITE:DETAILED,
    Shading_V229_1,           !- Name
    ,                         !- Transmittance Schedule Name
    autocalculate,            !- Number of Vertices
    68.3409,                  !- Vertex 1 Xcoordinate
    39.367,                   !- Vertex 1 Ycoordinate
    11.3,                     !- Vertex 1 Zcoordinate
    68.3409,                  !- Vertex 2 Xcoordinate
    39.367,                   !- Vertex 2 Ycoordinate
    0,                        !- Vertex 2 Zcoordinate
    75.9809,                  !- Vertex 3 Xcoordinate
    45.954,                   !- Vertex 3 Ycoordinate
    0,                        !- Vertex 3 Zcoordinate
    75.9809,                  !- Vertex 4 Xcoordinate
    45.954,                   !- Vertex 4 Ycoordinate
    11.3;                     !- Vertex 4 Zcoordinate

SHADING:SITE:DETAILED,
    Shading_V278_1,           !- Name
    ,                         !- Transmittance Schedule Name
    autocalculate,            !- Number of Vertices
    85.5889,                  !- Vertex 1 Xcoordinate
    54.572,                   !- Vertex 1 Ycoordinate
    18.7,                     !- Vertex 1 Zcoordinate
    85.5889,                  !- Vertex 2 Xcoordinate
    54.572,                   !- Vertex 2 Ycoordinate
    0,                        !- Vertex 2 Zcoordinate
    90.5689,                  !- Vertex 3 Xcoordinate
    48.791,                   !- Vertex 3 Ycoordinate
    0,                        !- Vertex 3 Zcoordinate
    90.5689,                  !- Vertex 4 Xcoordinate
    48.791,                   !- Vertex 4 Ycoordinate
    18.7;                     !- Vertex 4 Zcoordinate

SHADING:SITE:DETAILED,
    Shading_V279_1,           !- Name
    ,                         !- Transmittance Schedule Name
    autocalculate,            !- Number of Vertices
    90.5689,                  !- Vertex 1 Xcoordinate
    48.791,                   !- Vertex 1 Ycoordinate
    18.7,                     !- Vertex 1 Zcoordinate
    90.5689,                  !- Vertex 2 Xcoordinate
    48.791,                   !- Vertex 2 Ycoordinate
    0,                        !- Vertex 2 Zcoordinate
    83.4039,                  !- Vertex 3 Xcoordinate
    42.631,                   !- Vertex 3 Ycoordinate
    0,                        !- Vertex 3 Zcoordinate
    83.4039,                  !- Vertex 4 Xcoordinate
    42.631,                   !- Vertex 4 Ycoordinate
    18.7;                     !- Vertex 4 Zcoordinate

SHADING:SITE:DETAILED,
    Shading_V280_1,           !- Name
    ,                         !- Transmittance Schedule Name
    autocalculate,            !- Number of Vertices
    83.4039,                  !- Vertex 1 Xcoordinate
    42.631,                   !- Vertex 1 Ycoordinate
    18.7,                     !- Vertex 1 Zcoordinate
    83.4039,                  !- Vertex 2 Xcoordinate
    42.631,                   !- Vertex 2 Ycoordinate
    0,                        !- Vertex 2 Zcoordinate
    91.6679,                  !- Vertex 3 Xcoordinate
    33.008,                   !- Vertex 3 Ycoordinate
    0,                        !- Vertex 3 Zcoordinate
    91.6679,                  !- Vertex 4 Xcoordinate
    33.008,                   !- Vertex 4 Ycoordinate
    18.7;                     !- Vertex 4 Zcoordinate

SHADING:SITE:DETAILED,
    Shading_V282_1,           !- Name
    ,                         !- Transmittance Schedule Name
    autocalculate,            !- Number of Vertices
    98.8389,                  !- Vertex 1 Xcoordinate
    39.174,                   !- Vertex 1 Ycoordinate
    18.7,                     !- Vertex 1 Zcoordinate
    98.8389,                  !- Vertex 2 Xcoordinate
    39.174,                   !- Vertex 2 Ycoordinate
    0,                        !- Vertex 2 Zcoordinate
    103.8219,                 !- Vertex 3 Xcoordinate
    33.371,                   !- Vertex 3 Ycoordinate
    0,                        !- Vertex 3 Zcoordinate
    103.8219,                 !- Vertex 4 Xcoordinate
    33.371,                   !- Vertex 4 Ycoordinate
    18.7;                     !- Vertex 4 Zcoordinate

SHADING:SITE:DETAILED,
    Shading_V385_1,           !- Name
    ,                         !- Transmittance Schedule Name
    autocalculate,            !- Number of Vertices
    21.1319,                  !- Vertex 1 Xcoordinate
    -56.105,                  !- Vertex 1 Ycoordinate
    10.4,                     !- Vertex 1 Zcoordinate
    21.1319,                  !- Vertex 2 Xcoordinate
    -56.105,                  !- Vertex 2 Ycoordinate
    0,                        !- Vertex 2 Zcoordinate
    10.8159,                  !- Vertex 3 Xcoordinate
    -57.807,                  !- Vertex 3 Ycoordinate
    0,                        !- Vertex 3 Zcoordinate
    10.8159,                  !- Vertex 4 Xcoordinate
    -57.807,                  !- Vertex 4 Ycoordinate
    10.4;                     !- Vertex 4 Zcoordinate

SHADING:SITE:DETAILED,
    Shading_V388_1,           !- Name
    ,                         !- Transmittance Schedule Name
    autocalculate,            !- Number of Vertices
    24.6349,                  !- Vertex 1 Xcoordinate
    -79.577,                  !- Vertex 1 Ycoordinate
    10.4,                     !- Vertex 1 Zcoordinate
    24.6349,                  !- Vertex 2 Xcoordinate
    -79.577,                  !- Vertex 2 Ycoordinate
    0,                        !- Vertex 2 Zcoordinate
    21.1319,                  !- Vertex 3 Xcoordinate
    -56.105,                  !- Vertex 3 Ycoordinate
    0,                        !- Vertex 3 Zcoordinate
    21.1319,                  !- Vertex 4 Xcoordinate
    -56.105,                  !- Vertex 4 Ycoordinate
    10.4;                     !- Vertex 4 Zcoordinate

SHADING:SITE:DETAILED,
    Shading_V410_1,           !- Name
    ,                         !- Transmittance Schedule Name
    autocalculate,            !- Number of Vertices
    27.7039,                  !- Vertex 1 Xcoordinate
    -7.935,                   !- Vertex 1 Ycoordinate
    10.2,                     !- Vertex 1 Zcoordinate
    27.7039,                  !- Vertex 2 Xcoordinate
    -7.935,                   !- Vertex 2 Ycoordinate
    0,                        !- Vertex 2 Zcoordinate
    19.9789,                  !- Vertex 3 Xcoordinate
    -14.579,                  !- Vertex 3 Ycoordinate
    0,                        !- Vertex 3 Zcoordinate
    19.9789,                  !- Vertex 4 Xcoordinate
    -14.579,                  !- Vertex 4 Ycoordinate
    10.2;                     !- Vertex 4 Zcoordinate

SHADING:SITE:DETAILED,
    Shading_V511_1,           !- Name
    ,                         !- Transmittance Schedule Name
    autocalculate,            !- Number of Vertices
    117.3409,                 !- Vertex 1 Xcoordinate
    33.206,                   !- Vertex 1 Ycoordinate
    19,                       !- Vertex 1 Zcoordinate
    117.3409,                 !- Vertex 2 Xcoordinate
    33.206,                   !- Vertex 2 Ycoordinate
    0,                        !- Vertex 2 Zcoordinate
    109.6859,                 !- Vertex 3 Xcoordinate
    26.618,                   !- Vertex 3 Ycoordinate
    0,                        !- Vertex 3 Zcoordinate
    109.6859,                 !- Vertex 4 Xcoordinate
    26.618,                   !- Vertex 4 Ycoordinate
    19;                       !- Vertex 4 Zcoordinate

SHADING:SITE:DETAILED,
    Shading_V512_1,           !- Name
    ,                         !- Transmittance Schedule Name
    autocalculate,            !- Number of Vertices
    109.6859,                 !- Vertex 1 Xcoordinate
    26.618,                   !- Vertex 1 Ycoordinate
    19,                       !- Vertex 1 Zcoordinate
    109.6859,                 !- Vertex 2 Xcoordinate
    26.618,                   !- Vertex 2 Ycoordinate
    0,                        !- Vertex 2 Zcoordinate
    114.6379,                 !- Vertex 3 Xcoordinate
    20.813,                   !- Vertex 3 Ycoordinate
    0,                        !- Vertex 3 Zcoordinate
    114.6379,                 !- Vertex 4 Xcoordinate
    20.813,                   !- Vertex 4 Ycoordinate
    19;                       !- Vertex 4 Zcoordinate

SHADING:SITE:DETAILED,
    Shading_V513_1,           !- Name
    ,                         !- Transmittance Schedule Name
    autocalculate,            !- Number of Vertices
    114.6379,                 !- Vertex 1 Xcoordinate
    20.813,                   !- Vertex 1 Ycoordinate
    19,                       !- Vertex 1 Zcoordinate
    114.6379,                 !- Vertex 2 Xcoordinate
    20.813,                   !- Vertex 2 Ycoordinate
    0,                        !- Vertex 2 Zcoordinate
    107.4949,                 !- Vertex 3 Xcoordinate
    14.647,                   !- Vertex 3 Ycoordinate
    0,                        !- Vertex 3 Zcoordinate
    107.4949,                 !- Vertex 4 Xcoordinate
    14.647,                   !- Vertex 4 Ycoordinate
    19;                       !- Vertex 4 Zcoordinate

SHADING:SITE:DETAILED,
    Shading_V514_1,           !- Name
    ,                         !- Transmittance Schedule Name
    autocalculate,            !- Number of Vertices
    107.4949,                 !- Vertex 1 Xcoordinate
    14.647,                   !- Vertex 1 Ycoordinate
    19,                       !- Vertex 1 Zcoordinate
    107.4949,                 !- Vertex 2 Xcoordinate
    14.647,                   !- Vertex 2 Ycoordinate
    0,                        !- Vertex 2 Zcoordinate
    115.8029,                 !- Vertex 3 Xcoordinate
    5.039,                    !- Vertex 3 Ycoordinate
    0,                        !- Vertex 3 Zcoordinate
    115.8029,                 !- Vertex 4 Xcoordinate
    5.039,                    !- Vertex 4 Ycoordinate
    19;                       !- Vertex 4 Zcoordinate

SHADING:SITE:DETAILED,
    Shading_V12_1,            !- Name
    ,                         !- Transmittance Schedule Name
    autocalculate,            !- Number of Vertices
    146.5219,                 !- Vertex 1 Xcoordinate
    -38.293,                  !- Vertex 1 Ycoordinate
    16.1,                     !- Vertex 1 Zcoordinate
    146.5219,                 !- Vertex 2 Xcoordinate
    -38.293,                  !- Vertex 2 Ycoordinate
    0,                        !- Vertex 2 Zcoordinate
    139.0129,                 !- Vertex 3 Xcoordinate
    -44.762,                  !- Vertex 3 Ycoordinate
    0,                        !- Vertex 3 Zcoordinate
    139.0129,                 !- Vertex 4 Xcoordinate
    -44.762,                  !- Vertex 4 Ycoordinate
    16.1;                     !- Vertex 4 Zcoordinate

SHADING:SITE:DETAILED,
    Shading_V27_1,            !- Name
    ,                         !- Transmittance Schedule Name
    autocalculate,            !- Number of Vertices
    93.9989,                  !- Vertex 1 Xcoordinate
    -27.211,                  !- Vertex 1 Ycoordinate
    9,                        !- Vertex 1 Zcoordinate
    93.9989,                  !- Vertex 2 Xcoordinate
    -27.211,                  !- Vertex 2 Ycoordinate
    0,                        !- Vertex 2 Zcoordinate
    85.2849,                  !- Vertex 3 Xcoordinate
    -32.674,                  !- Vertex 3 Ycoordinate
    0,                        !- Vertex 3 Zcoordinate
    85.2849,                  !- Vertex 4 Xcoordinate
    -32.674,                  !- Vertex 4 Ycoordinate
    9;                        !- Vertex 4 Zcoordinate

SHADING:SITE:DETAILED,
    Shading_V105_1,           !- Name
    ,                         !- Transmittance Schedule Name
    autocalculate,            !- Number of Vertices
    139.4139,                 !- Vertex 1 Xcoordinate
    44.902,                   !- Vertex 1 Ycoordinate
    15.5,                     !- Vertex 1 Zcoordinate
    139.4139,                 !- Vertex 2 Xcoordinate
    44.902,                   !- Vertex 2 Ycoordinate
    0,                        !- Vertex 2 Zcoordinate
    146.0399,                 !- Vertex 3 Xcoordinate
    37.157,                   !- Vertex 3 Ycoordinate
    0,                        !- Vertex 3 Zcoordinate
    146.0399,                 !- Vertex 4 Xcoordinate
    37.157,                   !- Vertex 4 Ycoordinate
    15.5;                     !- Vertex 4 Zcoordinate

SHADING:SITE:DETAILED,
    Shading_V183_1,           !- Name
    ,                         !- Transmittance Schedule Name
    autocalculate,            !- Number of Vertices
    -31.1441,                 !- Vertex 1 Xcoordinate
    34.95,                    !- Vertex 1 Ycoordinate
    12.7,                     !- Vertex 1 Zcoordinate
    -31.1441,                 !- Vertex 2 Xcoordinate
    34.95,                    !- Vertex 2 Ycoordinate
    0,                        !- Vertex 2 Zcoordinate
    -37.3281,                 !- Vertex 3 Xcoordinate
    42.102,                   !- Vertex 3 Ycoordinate
    0,                        !- Vertex 3 Zcoordinate
    -37.3281,                 !- Vertex 4 Xcoordinate
    42.102,                   !- Vertex 4 Ycoordinate
    12.7;                     !- Vertex 4 Zcoordinate

SHADING:SITE:DETAILED,
    Shading_V184_1,           !- Name
    ,                         !- Transmittance Schedule Name
    autocalculate,            !- Number of Vertices
    -37.3281,                 !- Vertex 1 Xcoordinate
    42.102,                   !- Vertex 1 Ycoordinate
    12.7,                     !- Vertex 1 Zcoordinate
    -37.3281,                 !- Vertex 2 Xcoordinate
    42.102,                   !- Vertex 2 Ycoordinate
    0,                        !- Vertex 2 Zcoordinate
    -24.7671,                 !- Vertex 3 Xcoordinate
    52.928,                   !- Vertex 3 Ycoordinate
    0,                        !- Vertex 3 Zcoordinate
    -24.7671,                 !- Vertex 4 Xcoordinate
    52.928,                   !- Vertex 4 Ycoordinate
    12.7;                     !- Vertex 4 Zcoordinate

SHADING:SITE:DETAILED,
    Shading_V185_1,           !- Name
    ,                         !- Transmittance Schedule Name
    autocalculate,            !- Number of Vertices
    -24.7671,                 !- Vertex 1 Xcoordinate
    52.928,                   !- Vertex 1 Ycoordinate
    12.7,                     !- Vertex 1 Zcoordinate
    -24.7671,                 !- Vertex 2 Xcoordinate
    52.928,                   !- Vertex 2 Ycoordinate
    0,                        !- Vertex 2 Zcoordinate
    -5.9691,                  !- Vertex 3 Xcoordinate
    51.531,                   !- Vertex 3 Ycoordinate
    0,                        !- Vertex 3 Zcoordinate
    -5.9691,                  !- Vertex 4 Xcoordinate
    51.531,                   !- Vertex 4 Ycoordinate
    12.7;                     !- Vertex 4 Zcoordinate

SHADING:SITE:DETAILED,
    Shading_V187_1,           !- Name
    ,                         !- Transmittance Schedule Name
    autocalculate,            !- Number of Vertices
    -6.6291,                  !- Vertex 1 Xcoordinate
    42.114,                   !- Vertex 1 Ycoordinate
    12.7,                     !- Vertex 1 Zcoordinate
    -6.6291,                  !- Vertex 2 Xcoordinate
    42.114,                   !- Vertex 2 Ycoordinate
    0,                        !- Vertex 2 Zcoordinate
    5.9089,                   !- Vertex 3 Xcoordinate
    41.309,                   !- Vertex 3 Ycoordinate
    0,                        !- Vertex 3 Zcoordinate
    5.9089,                   !- Vertex 4 Xcoordinate
    41.309,                   !- Vertex 4 Ycoordinate
    12.7;                     !- Vertex 4 Zcoordinate

SHADING:SITE:DETAILED,
    Shading_V188_1,           !- Name
    ,                         !- Transmittance Schedule Name
    autocalculate,            !- Number of Vertices
    5.9089,                   !- Vertex 1 Xcoordinate
    41.309,                   !- Vertex 1 Ycoordinate
    12.7,                     !- Vertex 1 Zcoordinate
    5.9089,                   !- Vertex 2 Xcoordinate
    41.309,                   !- Vertex 2 Ycoordinate
    0,                        !- Vertex 2 Zcoordinate
    6.6979,                   !- Vertex 3 Xcoordinate
    50.57,                    !- Vertex 3 Ycoordinate
    0,                        !- Vertex 3 Zcoordinate
    6.6979,                   !- Vertex 4 Xcoordinate
    50.57,                    !- Vertex 4 Ycoordinate
    12.7;                     !- Vertex 4 Zcoordinate

SHADING:SITE:DETAILED,
    Shading_V189_1,           !- Name
    ,                         !- Transmittance Schedule Name
    autocalculate,            !- Number of Vertices
    6.6979,                   !- Vertex 1 Xcoordinate
    50.57,                    !- Vertex 1 Ycoordinate
    12.7,                     !- Vertex 1 Zcoordinate
    6.6979,                   !- Vertex 2 Xcoordinate
    50.57,                    !- Vertex 2 Ycoordinate
    0,                        !- Vertex 2 Zcoordinate
    13.6119,                  !- Vertex 3 Xcoordinate
    50.051,                   !- Vertex 3 Ycoordinate
    0,                        !- Vertex 3 Zcoordinate
    13.6119,                  !- Vertex 4 Xcoordinate
    50.051,                   !- Vertex 4 Ycoordinate
    12.7;                     !- Vertex 4 Zcoordinate

SHADING:SITE:DETAILED,
    Shading_V271_1,           !- Name
    ,                         !- Transmittance Schedule Name
    autocalculate,            !- Number of Vertices
    23.9859,                  !- Vertex 1 Xcoordinate
    59.366,                   !- Vertex 1 Ycoordinate
    17.1,                     !- Vertex 1 Zcoordinate
    23.9859,                  !- Vertex 2 Xcoordinate
    59.366,                   !- Vertex 2 Ycoordinate
    0,                        !- Vertex 2 Zcoordinate
    23.2489,                  !- Vertex 3 Xcoordinate
    49.314,                   !- Vertex 3 Ycoordinate
    0,                        !- Vertex 3 Zcoordinate
    23.2489,                  !- Vertex 4 Xcoordinate
    49.314,                   !- Vertex 4 Ycoordinate
    17.1;                     !- Vertex 4 Zcoordinate

SHADING:SITE:DETAILED,
    Shading_V272_1,           !- Name
    ,                         !- Transmittance Schedule Name
    autocalculate,            !- Number of Vertices
    23.2489,                  !- Vertex 1 Xcoordinate
    49.314,                   !- Vertex 1 Ycoordinate
    17.1,                     !- Vertex 1 Zcoordinate
    23.2489,                  !- Vertex 2 Xcoordinate
    49.314,                   !- Vertex 2 Ycoordinate
    0,                        !- Vertex 2 Zcoordinate
    30.8509,                  !- Vertex 3 Xcoordinate
    48.781,                   !- Vertex 3 Ycoordinate
    0,                        !- Vertex 3 Zcoordinate
    30.8509,                  !- Vertex 4 Xcoordinate
    48.781,                   !- Vertex 4 Ycoordinate
    17.1;                     !- Vertex 4 Zcoordinate

SHADING:SITE:DETAILED,
    Shading_V273_1,           !- Name
    ,                         !- Transmittance Schedule Name
    autocalculate,            !- Number of Vertices
    30.8509,                  !- Vertex 1 Xcoordinate
    48.781,                   !- Vertex 1 Ycoordinate
    17.1,                     !- Vertex 1 Zcoordinate
    30.8509,                  !- Vertex 2 Xcoordinate
    48.781,                   !- Vertex 2 Ycoordinate
    0,                        !- Vertex 2 Zcoordinate
    30.1179,                  !- Vertex 3 Xcoordinate
    39.381,                   !- Vertex 3 Ycoordinate
    0,                        !- Vertex 3 Zcoordinate
    30.1179,                  !- Vertex 4 Xcoordinate
    39.381,                   !- Vertex 4 Ycoordinate
    17.1;                     !- Vertex 4 Zcoordinate

SHADING:SITE:DETAILED,
    Shading_V274_1,           !- Name
    ,                         !- Transmittance Schedule Name
    autocalculate,            !- Number of Vertices
    30.1179,                  !- Vertex 1 Xcoordinate
    39.381,                   !- Vertex 1 Ycoordinate
    17.1,                     !- Vertex 1 Zcoordinate
    30.1179,                  !- Vertex 2 Xcoordinate
    39.381,                   !- Vertex 2 Ycoordinate
    0,                        !- Vertex 2 Zcoordinate
    42.7599,                  !- Vertex 3 Xcoordinate
    38.394,                   !- Vertex 3 Ycoordinate
    0,                        !- Vertex 3 Zcoordinate
    42.7599,                  !- Vertex 4 Xcoordinate
    38.394,                   !- Vertex 4 Ycoordinate
    17.1;                     !- Vertex 4 Zcoordinate

SHADING:SITE:DETAILED,
    Shading_V186_1,           !- Name
    ,                         !- Transmittance Schedule Name
    autocalculate,            !- Number of Vertices
    -5.9691,                  !- Vertex 1 Xcoordinate
    51.531,                   !- Vertex 1 Ycoordinate
    12.7,                     !- Vertex 1 Zcoordinate
    -5.9691,                  !- Vertex 2 Xcoordinate
    51.531,                   !- Vertex 2 Ycoordinate
    0,                        !- Vertex 2 Zcoordinate
    -6.6291,                  !- Vertex 3 Xcoordinate
    42.114,                   !- Vertex 3 Ycoordinate
    0,                        !- Vertex 3 Zcoordinate
    -6.6291,                  !- Vertex 4 Xcoordinate
    42.114,                   !- Vertex 4 Ycoordinate
    12.7;                     !- Vertex 4 Zcoordinate

SHADING:SITE:DETAILED,
    Shading_V207_1,           !- Name
    ,                         !- Transmittance Schedule Name
    autocalculate,            !- Number of Vertices
    -40.7911,                 !- Vertex 1 Xcoordinate
    26.635,                   !- Vertex 1 Ycoordinate
    12.7,                     !- Vertex 1 Zcoordinate
    -40.7911,                 !- Vertex 2 Xcoordinate
    26.635,                   !- Vertex 2 Ycoordinate
    0,                        !- Vertex 2 Zcoordinate
    -31.1441,                 !- Vertex 3 Xcoordinate
    34.95,                    !- Vertex 3 Ycoordinate
    0,                        !- Vertex 3 Zcoordinate
    -31.1441,                 !- Vertex 4 Xcoordinate
    34.95,                    !- Vertex 4 Ycoordinate
    12.7;                     !- Vertex 4 Zcoordinate

SHADING:SITE:DETAILED,
    Shading_V22_1,            !- Name
    ,                         !- Transmittance Schedule Name
    autocalculate,            !- Number of Vertices
    64.2089,                  !- Vertex 1 Xcoordinate
    -114.875,                 !- Vertex 1 Ycoordinate
    6.9,                      !- Vertex 1 Zcoordinate
    64.2089,                  !- Vertex 2 Xcoordinate
    -114.875,                 !- Vertex 2 Ycoordinate
    0,                        !- Vertex 2 Zcoordinate
    41.5899,                  !- Vertex 3 Xcoordinate
    -102.779,                 !- Vertex 3 Ycoordinate
    0,                        !- Vertex 3 Zcoordinate
    41.5899,                  !- Vertex 4 Xcoordinate
    -102.779,                 !- Vertex 4 Ycoordinate
    6.9;                      !- Vertex 4 Zcoordinate

SHADING:SITE:DETAILED,
    Shading_V381_1,           !- Name
    ,                         !- Transmittance Schedule Name
    autocalculate,            !- Number of Vertices
    62.3229,                  !- Vertex 1 Xcoordinate
    -87.335,                  !- Vertex 1 Ycoordinate
    8.6,                      !- Vertex 1 Zcoordinate
    62.3229,                  !- Vertex 2 Xcoordinate
    -87.335,                  !- Vertex 2 Ycoordinate
    0,                        !- Vertex 2 Zcoordinate
    48.4319,                  !- Vertex 3 Xcoordinate
    -69.081,                  !- Vertex 3 Ycoordinate
    0,                        !- Vertex 3 Zcoordinate
    48.4319,                  !- Vertex 4 Xcoordinate
    -69.081,                  !- Vertex 4 Ycoordinate
    8.6;                      !- Vertex 4 Zcoordinate

SHADING:SITE:DETAILED,
    Shading_V382_1,           !- Name
    ,                         !- Transmittance Schedule Name
    autocalculate,            !- Number of Vertices
    48.4319,                  !- Vertex 1 Xcoordinate
    -69.081,                  !- Vertex 1 Ycoordinate
    8.6,                      !- Vertex 1 Zcoordinate
    48.4319,                  !- Vertex 2 Xcoordinate
    -69.081,                  !- Vertex 2 Ycoordinate
    0,                        !- Vertex 2 Zcoordinate
    40.2159,                  !- Vertex 3 Xcoordinate
    -75.351,                  !- Vertex 3 Ycoordinate
    0,                        !- Vertex 3 Zcoordinate
    40.2159,                  !- Vertex 4 Xcoordinate
    -75.351,                  !- Vertex 4 Ycoordinate
    8.6;                      !- Vertex 4 Zcoordinate

SHADING:SITE:DETAILED,
    Shading_V386_1,           !- Name
    ,                         !- Transmittance Schedule Name
    autocalculate,            !- Number of Vertices
    10.8159,                  !- Vertex 1 Xcoordinate
    -57.807,                  !- Vertex 1 Ycoordinate
    10.4,                     !- Vertex 1 Zcoordinate
    10.8159,                  !- Vertex 2 Xcoordinate
    -57.807,                  !- Vertex 2 Ycoordinate
    0,                        !- Vertex 2 Zcoordinate
    14.4349,                  !- Vertex 3 Xcoordinate
    -81.282,                  !- Vertex 3 Ycoordinate
    0,                        !- Vertex 3 Zcoordinate
    14.4349,                  !- Vertex 4 Xcoordinate
    -81.282,                  !- Vertex 4 Ycoordinate
    10.4;                     !- Vertex 4 Zcoordinate

SHADING:SITE:DETAILED,
    Shading_V411_1,           !- Name
    ,                         !- Transmittance Schedule Name
    autocalculate,            !- Number of Vertices
    19.9789,                  !- Vertex 1 Xcoordinate
    -14.579,                  !- Vertex 1 Ycoordinate
    10.2,                     !- Vertex 1 Zcoordinate
    19.9789,                  !- Vertex 2 Xcoordinate
    -14.579,                  !- Vertex 2 Ycoordinate
    0,                        !- Vertex 2 Zcoordinate
    35.6699,                  !- Vertex 3 Xcoordinate
    -32.815,                  !- Vertex 3 Ycoordinate
    0,                        !- Vertex 3 Zcoordinate
    35.6699,                  !- Vertex 4 Xcoordinate
    -32.815,                  !- Vertex 4 Ycoordinate
    10.2;                     !- Vertex 4 Zcoordinate

ELECTRICEQUIPMENT,
    Block Build0_Alt0 Storey 0Load,    !- Name
    Block Build0_Alt0 Storey 0,    !- Zone or ZoneList Name
    LoadSchedule,             !- Schedule Name
    Watts/Area,               !- Design Level Calculation Method
    ,                         !- Design Level
    0.03,                     !- Watts per Zone Floor Area
    ,                         !- Watts per Person
    0,                        !- Fraction Latent
    0,                        !- Fraction Radiant
    0,                        !- Fraction Lost
    General;                  !- EndUse Subcategory

ZONEINFILTRATION:DESIGNFLOWRATE,
    Block Build0_Alt0 Storey -1Leak,    !- Name
    Block Build0_Alt0 Storey -1,    !- Zone or ZoneList Name
    AlwaysON,                 !- Schedule Name
    AirChanges/Hour,          !- Design Flow Rate Calculation Method
    ,                         !- Design Flow Rate
    ,                         !- Flow per Zone Floor Area
    ,                         !- Flow per Exterior Surface Area
    1,                        !- Air Changes per Hour
    1,                        !- Constant Term Coefficient
    0,                        !- Temperature Term Coefficient
    0,                        !- Velocity Term Coefficient
    0;                        !- Velocity Squared Term Coefficient

ZONEINFILTRATION:FLOWCOEFFICIENT,
    Block Build0_Alt0 Storey 0Leak,    !- Name
    Block Build0_Alt0 Storey 0,    !- Zone Name
    AlwaysON,                 !- Schedule Name
    9.364487e-02,             !- Flow Coefficient
    0.098,                    !- Stack Coefficient
    0.667,                    !- Pressure Exponent
    0.17,                     !- Wind Coefficient
    0.5;                      !- Shelter Factor

ZONEVENTILATION:DESIGNFLOWRATE,
    Block Build0_Alt0 Storey 0FreeCool,    !- Name
    Block Build0_Alt0 Storey 0,    !- Zone or ZoneList Name
    AlwaysON,                 !- Schedule Name
    AirChanges/Hour,          !- Design Flow Rate Calculation Method
    ,                         !- Design Flow Rate
    ,                         !- Flow Rate per Zone Floor Area
    ,                         !- Flow Rate per Person
    4,                        !- Air Changes per Hour
    Natural,                  !- Ventilation Type
    0,                        !- Fan Pressure Rise
    1,                        !- Fan Total Efficiency
    1,                        !- Constant Term Coefficient
    0,                        !- Temperature Term Coefficient
    0,                        !- Velocity Term Coefficient
    0,                        !- Velocity Squared Term Coefficient
    26,                       !- Minimum Indoor Temperature
    ,                         !- Minimum Indoor Temperature Schedule Name
    100,                      !- Maximum Indoor Temperature
    ,                         !- Maximum Indoor Temperature Schedule Name
    1,                        !- Delta Temperature
    ,                         !- Delta Temperature Schedule Name
    -100,                     !- Minimum Outdoor Temperature
    ,                         !- Minimum Outdoor Temperature Schedule Name
    100,                      !- Maximum Outdoor Temperature
    ,                         !- Maximum Outdoor Temperature Schedule Name
    40;                       !- Maximum Wind Speed

HVACTEMPLATE:THERMOSTAT,
    ResidZone,                !- Name
    ,                         !- Heating Setpoint Schedule Name
    21,                       !- Constant Heating Setpoint
    ,                         !- Cooling Setpoint Schedule Name
    50;                       !- Constant Cooling Setpoint

HVACTEMPLATE:ZONE:IDEALLOADSAIRSYSTEM,
    Block Build0_Alt0 Storey 0,    !- Zone Name
    ResidZone,                !- Template Thermostat Name
    ,                         !- System Availability Schedule Name
    50,                       !- Maximum Heating Supply Air Temperature
    13,                       !- Minimum Cooling Supply Air Temperature
    0.0156,                   !- Maximum Heating Supply Air Humidity Ratio
    0.0077,                   !- Minimum Cooling Supply Air Humidity Ratio
    NoLimit,                  !- Heating Limit
    ,                         !- Maximum Heating Air Flow Rate
    30859.92243689559,        !- Maximum Sensible Heating Capacity
    NoLimit,                  !- Cooling Limit
    ,                         !- Maximum Cooling Air Flow Rate
    ,                         !- Maximum Total Cooling Capacity
    ,                         !- Heating Availability Schedule Name
    ,                         !- Cooling Availability Schedule Name
    ConstantSensibleHeatRatio,    !- Dehumidification Control Type
    0.7,                      !- Cooling Sensible Heat Ratio
    60,                       !- Dehumidification Setpoint
    None,                     !- Humidification Control Type
    30,                       !- Humidification Setpoint
    Flow/Area,                !- Outdoor Air Method
    0.007,                    !- Outdoor Air Flow Rate per Person
    1.050000e-03,             !- Outdoor Air Flow Rate per Zone Floor Area
    0,                        !- Outdoor Air Flow Rate per Zone
    ,                         !- Design Specification Outdoor Air Object Name
    None,                     !- Demand Controlled Ventilation Type
    NoEconomizer,             !- Outdoor Air Economizer Type
    None,                     !- Heat Recovery Type
    0,                        !- Sensible Heat Recovery Effectiveness
    0;                        !- Latent Heat Recovery Effectiveness

OUTDOORAIR:NODE,
    Block Build0_Alt0 Storey 0 IDEAL LOADS OUTDOOR AIR INLET,    !- Name
    -1,                       !- Height Above Ground
    ,                         !- Drybulb Temperature Schedule Name
    ,                         !- Wetbulb Temperature Schedule Name
    ,                         !- Wind Speed Schedule Name
    ,                         !- Wind Direction Schedule Name
    ,                         !- Wind Pressure Coefficient Curve Name
    No,                       !- Symmetric Wind Pressure Coefficient Curve
    Absolute;                 !- Wind Angle Type

ENERGYMANAGEMENTSYSTEM:SENSOR,
    T0,                       !- Name
    Block Build0_Alt0 Storey 0,    !- OutputVariable or OutputMeter Index Key Name
    Zone Mean Air Temperature;    !- OutputVariable or OutputMeter Name

ENERGYMANAGEMENTSYSTEM:SENSOR,
    Pow0,                     !- Name
    Block Build0_Alt0 Storey 0 IDEAL LOADS AIR SYSTEM,    !- OutputVariable or OutputMeter Index Key Name
    Zone Ideal Loads Supply Air Total Heating Rate;    !- OutputVariable or OutputMeter Name

ENERGYMANAGEMENTSYSTEM:SENSOR,
    DHWPow,                   !- Name
    DHW,                      !- OutputVariable or OutputMeter Index Key Name
    Water Use Equipment Heating Rate;    !- OutputVariable or OutputMeter Name

ENERGYMANAGEMENTSYSTEM:PROGRAMCALLINGMANAGER,
    Average Building Temperature,    !- Name
    EndOfZoneTimestepBeforeZoneReporting,    !- EnergyPlus Model Calling Point
    AverageZoneTemps;         !- Program Name 1

ENERGYMANAGEMENTSYSTEM:PROGRAMCALLINGMANAGER,
    Compute Total Building Heat Pow,    !- Name
    EndOfZoneTimestepBeforeZoneReporting,    !- EnergyPlus Model Calling Point
    TotZonePow;               !- Program Name 1

ENERGYMANAGEMENTSYSTEM:PROGRAMCALLINGMANAGER,
    Compute Total DHW Heat Pow,    !- Name
    EndOfZoneTimestepBeforeZoneReporting,    !- EnergyPlus Model Calling Point
    prgmDHWPow;               !- Program Name 1

ENERGYMANAGEMENTSYSTEM:PROGRAM,
    AverageZoneTemps,         !- Name
    SET SumNumerator = T0*Vol0,    !- Program Line 1
    SET SumDenominator  = Vol0,    !- Program Line 2
    SET AverageBuildingTemp  = SumNumerator / SumDenominator;    !- Program Line 3

ENERGYMANAGEMENTSYSTEM:PROGRAM,
    TotZonePow,               !- Name
    SET TotBuildPow = Pow0;    !- Program Line 1

ENERGYMANAGEMENTSYSTEM:PROGRAM,
    prgmDHWPow,               !- Name
    SET TotDHWPow = DHWPow;    !- Program Line 1

ENERGYMANAGEMENTSYSTEM:GLOBALVARIABLE,
    AverageBuildingTemp;      !- Erl Variable 1 Name

ENERGYMANAGEMENTSYSTEM:GLOBALVARIABLE,
    TotBuildPow;              !- Erl Variable 1 Name

ENERGYMANAGEMENTSYSTEM:GLOBALVARIABLE,
    TotDHWPow;                !- Erl Variable 1 Name

ENERGYMANAGEMENTSYSTEM:OUTPUTVARIABLE,
    Mean Heated Zones Air Temperature,    !- Name
    AverageBuildingTemp,      !- EMS Variable Name
    Averaged,                 !- Type of Data in Variable
    ZoneTimeStep;             !- Update Frequency

ENERGYMANAGEMENTSYSTEM:OUTPUTVARIABLE,
    Total Building Heating Power,    !- Name
    TotBuildPow,              !- EMS Variable Name
    Averaged,                 !- Type of Data in Variable
    ZoneTimeStep;             !- Update Frequency

ENERGYMANAGEMENTSYSTEM:OUTPUTVARIABLE,
    Total DHW Heating Power,    !- Name
    TotDHWPow,                !- EMS Variable Name
    Averaged,                 !- Type of Data in Variable
    ZoneTimeStep;             !- Update Frequency

ENERGYMANAGEMENTSYSTEM:INTERNALVARIABLE,
    Vol0,                     !- Name
    Block Build0_Alt0 Storey 0,    !- Internal Data Index Key Name
    Zone Air Volume;          !- Internal Data Type

WATERUSE:EQUIPMENT,
    DHW,                      !- Name
    General,                  !- EndUse Subcategory
    2.965148e-09,             !- Peak Flow Rate
    WaterTaps,                !- Flow Rate Fraction Schedule Name
    TargetWaterTemp,          !- Target Temperature Schedule Name
    HotWaterTemp,             !- Hot Water Supply Temperature Schedule Name
    ColdWaterTemp;            !- Cold Water Supply Temperature Schedule Name

Output:VariableDictionary,
    Regular;                  !- Key Field

OUTPUT:ENERGYMANAGEMENTSYSTEM,
    Verbose,                  !- Actuator Availability Dictionary Reporting
    Verbose,                  !- Internal Variable Availability Dictionary Reporting
    Verbose;                  !- EMS Runtime Language Debug Output Level

Output:Table:SummaryReports,
    AllSummary;               !- Report 1 Name

OutputControl:Table:Style,
    HTML;                     !- Column Separator

OUTPUT:VARIABLE,
    *,                        !- Key Value
    Site Outdoor Air Drybulb Temperature,    !- Variable Name
    Hourly;                   !- Reporting Frequency

OUTPUT:VARIABLE,
    *,                        !- Key Value
    Site Outdoor Air Relative Humidity,    !- Variable Name
    Hourly;                   !- Reporting Frequency

OUTPUT:VARIABLE,
    *,                        !- Key Value
    Site Outdoor Air Barometric Pressure,    !- Variable Name
    Hourly;                   !- Reporting Frequency

OUTPUT:VARIABLE,
    *,                        !- Key Value
    Site Wind Speed,          !- Variable Name
    Hourly;                   !- Reporting Frequency

OUTPUT:VARIABLE,
    *,                        !- Key Value
    Site Diffuse Solar Radiation Rate per Area,    !- Variable Name
    Hourly;                   !- Reporting Frequency

OUTPUT:VARIABLE,
    *,                        !- Key Value
    Site Direct Solar Radiation Rate per Area,    !- Variable Name
    Hourly;                   !- Reporting Frequency

OUTPUT:VARIABLE,
    *,                        !- Key Value
    Zone Electric Equipment Electric Power,    !- Variable Name
    Hourly;                   !- Reporting Frequency

OUTPUT:VARIABLE,
    *,                        !- Key Value
    Zone Electric Equipment Total Heating Rate,    !- Variable Name
    Hourly;                   !- Reporting Frequency

OUTPUT:VARIABLE,
    *,                        !- Key Value
    Surface Outside Face Incident Solar Radiation Rate per Area,    !- Variable Name
    Hourly;                   !- Reporting Frequency

OUTPUT:VARIABLE,
    *,                        !- Key Value
    Surface Outside Face Incident Beam Solar Radiation Rate per Area,    !- Variable Name
    Hourly;                   !- Reporting Frequency

OUTPUT:VARIABLE,
    *,                        !- Key Value
    Zone Ideal Loads Supply Air Total Heating Rate,    !- Variable Name
    Hourly;                   !- Reporting Frequency

OUTPUT:VARIABLE,
    *,                        !- Key Value
    Water Use Equipment Hot Water Mass Flow Rate,    !- Variable Name
    Hourly;                   !- Reporting Frequency

OUTPUT:VARIABLE,
    *,                        !- Key Value
    Water Use Equipment Cold Water Mass Flow Rate,    !- Variable Name
    Hourly;                   !- Reporting Frequency

OUTPUT:VARIABLE,
    *,                        !- Key Value
    Water Use Equipment Hot Water Temperature,    !- Variable Name
    Hourly;                   !- Reporting Frequency

OUTPUT:VARIABLE,
    *,                        !- Key Value
    Water Use Equipment Cold Water Temperature,    !- Variable Name
    Hourly;                   !- Reporting Frequency

OUTPUT:VARIABLE,
    *,                        !- Key Value
    Water Use Equipment Heating Rate,    !- Variable Name
    Hourly;                   !- Reporting Frequency

OUTPUT:VARIABLE,
    *,                        !- Key Value
    Mean Heated Zones Air Temperature,    !- Variable Name
    Hourly;                   !- Reporting Frequency

OUTPUT:VARIABLE,
    *,                        !- Key Value
    Total Building Heating Power,    !- Variable Name
    Hourly;                   !- Reporting Frequency

OUTPUT:VARIABLE,
    *,                        !- Key Value
    Total DHW Heating Power,    !- Variable Name
    Hourly;                   !- Reporting Frequency

OUTPUT:DIAGNOSTICS,
    DISPLAYEXTRAWARNINGS,     !- Key 1
    DisplayAdvancedReportVariables;    !- Key 2