!- Darwin Line endings 

Version,
    9.5;                      !- Version Identifier

SimulationControl,
    No,                       !- Do Zone Sizing Calculation
    No,                       !- Do System Sizing Calculation
    No,                       !- Do Plant Sizing Calculation
    No,                       !- Run Simulation for Sizing Periods
    Yes,                      !- Run Simulation for Weather File Run Periods
    No,                       !- Do HVAC Sizing Simulation for Sizing Periods
    1;                        !- Maximum Number of HVAC Sizing Simulation Passes

Building,
    None,                     !- Name
    0,                        !- North Axis
    Suburbs,                  !- Terrain
    0.04,                     !- Loads Convergence Tolerance Value
    0.4,                      !- Temperature Convergence Tolerance Value
    FullExterior,             !- Solar Distribution
    25,                       !- Maximum Number of Warmup Days
    6;                        !- Minimum Number of Warmup Days

SHADOWCALCULATION,
    PolygonClipping,          !- Shading Calculation Method
    Periodic,                 !- Shading Calculation Update Frequency Method
    20,                       !- Shading Calculation Update Frequency
    25000,                    !- Maximum Figures in Shadow Overlap Calculations
    SutherlandHodgman,        !- Polygon Clipping Algorithm
    512,                      !- Pixel Counting Resolution
    SimpleSkyDiffuseModeling,    !- Sky Diffuse Modeling Algorithm
    No,                       !- Output External Shading Calculation Results
    No,                       !- Disable SelfShading Within Shading Zone Groups
    No;                       !- Disable SelfShading From Shading Zone Groups to Other Zones

Timestep,
    4;                        !- Number of Timesteps per Hour

Site:Location,
    WeatherData/USA_CA_San.Francisco.Intl.AP.724940_TMY3.epw,    !- Name
    37.62,                    !- Latitude
    -122.4,                   !- Longitude
    -8,                       !- Time Zone
    2;                        !- Elevation

SizingPeriod:DesignDay,
    DENVER_STAPLETON Ann Htg 99.6% Condns DB,    !- Name
    12,                       !- Month
    21,                       !- Day of Month
    WinterDesignDay,          !- Day Type
    -20,                      !- Maximum DryBulb Temperature
    0,                        !- Daily DryBulb Temperature Range
    ,                         !- DryBulb Temperature Range Modifier Type
    ,                         !- DryBulb Temperature Range Modifier Day Schedule Name
    Wetbulb,                  !- Humidity Condition Type
    -20,                      !- Wetbulb or DewPoint at Maximum DryBulb
    ,                         !- Humidity Condition Day Schedule Name
    ,                         !- Humidity Ratio at Maximum DryBulb
    ,                         !- Enthalpy at Maximum DryBulb
    ,                         !- Daily WetBulb Temperature Range
    100594,                   !- Barometric Pressure
    2.3,                      !- Wind Speed
    180,                      !- Wind Direction
    No,                       !- Rain Indicator
    No,                       !- Snow Indicator
    No,                       !- Daylight Saving Time Indicator
    ASHRAEClearSky,           !- Solar Model Indicator
    ,                         !- Beam Solar Day Schedule Name
    ,                         !- Diffuse Solar Day Schedule Name
    ,                         !- ASHRAE Clear Sky Optical Depth for Beam Irradiance taub
    ,                         !- ASHRAE Clear Sky Optical Depth for Diffuse Irradiance taud
    0;                        !- Sky Clearness

SizingPeriod:DesignDay,
    DENVER_STAPLETON Ann Clg .4% Condns DB=>MWB,    !- Name
    7,                        !- Month
    21,                       !- Day of Month
    SummerDesignDay,          !- Day Type
    34.1,                     !- Maximum DryBulb Temperature
    15.2,                     !- Daily DryBulb Temperature Range
    ,                         !- DryBulb Temperature Range Modifier Type
    ,                         !- DryBulb Temperature Range Modifier Day Schedule Name
    Wetbulb,                  !- Humidity Condition Type
    15.8,                     !- Wetbulb or DewPoint at Maximum DryBulb
    ,                         !- Humidity Condition Day Schedule Name
    ,                         !- Humidity Ratio at Maximum DryBulb
    ,                         !- Enthalpy at Maximum DryBulb
    ,                         !- Daily WetBulb Temperature Range
    100594,                   !- Barometric Pressure
    4,                        !- Wind Speed
    120,                      !- Wind Direction
    No,                       !- Rain Indicator
    No,                       !- Snow Indicator
    No,                       !- Daylight Saving Time Indicator
    ASHRAEClearSky,           !- Solar Model Indicator
    ,                         !- Beam Solar Day Schedule Name
    ,                         !- Diffuse Solar Day Schedule Name
    ,                         !- ASHRAE Clear Sky Optical Depth for Beam Irradiance taub
    ,                         !- ASHRAE Clear Sky Optical Depth for Diffuse Irradiance taud
    1;                        !- Sky Clearness

RunPeriod,
    Run Period 1,             !- Name
    1,                        !- Begin Month
    1,                        !- Begin Day of Month
    ,                         !- Begin Year
    12,                       !- End Month
    31,                       !- End Day of Month
    ,                         !- End Year
    Tuesday,                  !- Day of Week for Start Day
    Yes,                      !- Use Weather File Holidays and Special Days
    Yes,                      !- Use Weather File Daylight Saving Period
    No,                       !- Apply Weekend Holiday Rule
    Yes,                      !- Use Weather File Rain Indicators
    Yes;                      !- Use Weather File Snow Indicators

SITE:GROUNDTEMPERATURE:BUILDINGSURFACE,
    15,                       !- January Ground Temperature
    15,                       !- February Ground Temperature
    15,                       !- March Ground Temperature
    15,                       !- April Ground Temperature
    15,                       !- May Ground Temperature
    15,                       !- June Ground Temperature
    15,                       !- July Ground Temperature
    15,                       !- August Ground Temperature
    15,                       !- September Ground Temperature
    15,                       !- October Ground Temperature
    15,                       !- November Ground Temperature
    15;                       !- December Ground Temperature

SCHEDULETYPELIMITS,
    Any Number,               !- Name
    ,                         !- Lower Limit Value
    ,                         !- Upper Limit Value
    ,                         !- Numeric Type
    Dimensionless;            !- Unit Type

SCHEDULE:COMPACT,
    AlwaysON,                 !- Name
    Any Number,               !- Schedule Type Limits Name
    Through: 12/31,           !- Field 1
    For: AllDays,             !- Field 2
    Until: 24:00,             !- Field 3
    1;                        !- Field 4

SCHEDULE:COMPACT,
    OccupActivity,            !- Name
    Any Number,               !- Schedule Type Limits Name
    Through: 12/31,           !- Field 1
    For: AllDays,             !- Field 2
    Until: 24:00,             !- Field 3
    70;                       !- Field 4

SCHEDULE:COMPACT,
    HotWaterTemp,             !- Name
    Any Number,               !- Schedule Type Limits Name
    Through: 12/31,           !- Field 1
    For: AllDays,             !- Field 2
    Until: 24:00,             !- Field 3
    55;                       !- Field 4

SCHEDULE:COMPACT,
    TargetWaterTemp,          !- Name
    Any Number,               !- Schedule Type Limits Name
    Through: 12/31,           !- Field 1
    For: AllDays,             !- Field 2
    Until: 24:00,             !- Field 3
    37;                       !- Field 4

SCHEDULE:FILE,
    LoadSchedule,             !- Name
    Any Number,               !- Schedule Type Limits Name
    /Users/alizad/PycharmProjects/mubes-ubem/examples/ForTest/InputFiles/Building29_winter.txt,    !- File Name
    1,                        !- Column Number
    0,                        !- Rows to Skip at Top
    8760,                     !- Number of Hours of Data
    Comma,                    !- Column Separator
    No;                       !- Interpolate to Timestep

SCHEDULE:FILE,
    Watertaps,                !- Name
    Any Number,               !- Schedule Type Limits Name
    /Users/alizad/PycharmProjects/mubes-ubem/examples/ForTest/InputFiles/domestic_hot_water_40_apartments.txt,    !- File Name
    1,                        !- Column Number
    0,                        !- Rows to Skip at Top
    8760,                     !- Number of Hours of Data
    Comma,                    !- Column Separator
    No;                       !- Interpolate to Timestep

SCHEDULE:FILE,
    ColdWaterTemp,            !- Name
    Any Number,               !- Schedule Type Limits Name
    /Users/alizad/PycharmProjects/mubes-ubem/examples/ForTest/InputFiles/cold_water_temperature_stockholm.txt,    !- File Name
    1,                        !- Column Number
    0,                        !- Rows to Skip at Top
    8760,                     !- Number of Hours of Data
    Comma,                    !- Column Separator
    No;                       !- Interpolate to Timestep

MATERIAL,
    DefaultMaterial,          !- Name
    Rough,                    !- Roughness
    0.1,                      !- Thickness
    0.1,                      !- Conductivity
    1000,                     !- Density
    1000,                     !- Specific Heat
    0.9,                      !- Thermal Absorptance
    0.7,                      !- Solar Absorptance
    0.7;                      !- Visible Absorptance

MATERIAL,
    Basement Floor,           !- Name
    Rough,                    !- Roughness
    0.1,                      !- Thickness
    0.9,                      !- Conductivity
    2300,                     !- Density
    1000,                     !- Specific Heat
    0.9,                      !- Thermal Absorptance
    0.7,                      !- Solar Absorptance
    0.7;                      !- Visible Absorptance

MATERIAL,
    Heated1rstFloor Inertia,    !- Name
    Rough,                    !- Roughness
    0.1,                      !- Thickness
    0.9,                      !- Conductivity
    2300,                     !- Density
    1000,                     !- Specific Heat
    0.9,                      !- Thermal Absorptance
    0.7,                      !- Solar Absorptance
    0.7;                      !- Visible Absorptance

MATERIAL,
    Heated1rstFloor Insulation,    !- Name
    Rough,                    !- Roughness
    0.15,                     !- Thickness
    0.035,                    !- Conductivity
    150,                      !- Density
    1000,                     !- Specific Heat
    0.9,                      !- Thermal Absorptance
    0.7,                      !- Solar Absorptance
    0.7;                      !- Visible Absorptance

MATERIAL,
    Roof Insulation,          !- Name
    Rough,                    !- Roughness
    0.3,                      !- Thickness
    0.03,                     !- Conductivity
    150,                      !- Density
    1000,                     !- Specific Heat
    0.9,                      !- Thermal Absorptance
    0.7,                      !- Solar Absorptance
    0.7;                      !- Visible Absorptance

MATERIAL,
    Wall Inertia,             !- Name
    Rough,                    !- Roughness
    0.2,                      !- Thickness
    0.9,                      !- Conductivity
    2300,                     !- Density
    1000,                     !- Specific Heat
    0.9,                      !- Thermal Absorptance
    0.7,                      !- Solar Absorptance
    0.7;                      !- Visible Absorptance

MATERIAL,
    Wall Insulation,          !- Name
    Rough,                    !- Roughness
    0.2,                      !- Thickness
    0.03,                     !- Conductivity
    150,                      !- Density
    1000,                     !- Specific Heat
    0.9,                      !- Thermal Absorptance
    0.7,                      !- Solar Absorptance
    0.7;                      !- Visible Absorptance

MATERIAL,
    HeatedZoneIntMass,        !- Name
    Rough,                    !- Roughness
    0.1,                      !- Thickness
    0.3,                      !- Conductivity
    600,                      !- Density
    1400,                     !- Specific Heat
    0.9,                      !- Thermal Absorptance
    0.7,                      !- Solar Absorptance
    0.7;                      !- Visible Absorptance

MATERIAL,
    NonHeatedZoneIntMass,     !- Name
    Rough,                    !- Roughness
    0.1,                      !- Thickness
    0.3,                      !- Conductivity
    600,                      !- Density
    1400,                     !- Specific Heat
    0.9,                      !- Thermal Absorptance
    0.7,                      !- Solar Absorptance
    0.7;                      !- Visible Absorptance

MATERIAL,
    AirWallMaterial,          !- Name
    MediumSmooth,             !- Roughness
    0.01,                     !- Thickness
    0.6,                      !- Conductivity
    800,                      !- Density
    1000,                     !- Specific Heat
    0.95,                     !- Thermal Absorptance
    0.7,                      !- Solar Absorptance
    0.7;                      !- Visible Absorptance

WINDOWMATERIAL:SIMPLEGLAZINGSYSTEM,
    DefaultGlazing,           !- Name
    2.7,                      !- UFactor
    0.763,                    !- Solar Heat Gain Coefficient
    0.8;                      !- Visible Transmittance

WINDOWMATERIAL:SIMPLEGLAZINGSYSTEM,
    Window,                   !- Name
    1.9,                      !- UFactor
    0.7,                      !- Solar Heat Gain Coefficient
    0.8;                      !- Visible Transmittance

CONSTRUCTION,
    Project Wall,             !- Name
    Wall Inertia,             !- Outside Layer
    Wall Insulation;          !- Layer 2

CONSTRUCTION,
    Project Basement Wall,    !- Name
    Wall Inertia;             !- Outside Layer

CONSTRUCTION,
    Project Partition,        !- Name
    AirWallMaterial;          !- Outside Layer

CONSTRUCTION,
    Project Basement Floor,    !- Name
    Basement Floor;           !- Outside Layer

CONSTRUCTION,
    Project Flat Roof,        !- Name
    Roof Insulation;          !- Outside Layer

CONSTRUCTION,
    Project External Window,    !- Name
    Window;                   !- Outside Layer

CONSTRUCTION,
    Project Heated1rstFloor,    !- Name
    Heated1rstFloor Inertia,    !- Outside Layer
    Heated1rstFloor Insulation;    !- Layer 2

CONSTRUCTION,
    Project Heated1rstFloor Rev,    !- Name
    Heated1rstFloor Insulation,    !- Outside Layer
    Heated1rstFloor Inertia;    !- Layer 2

CONSTRUCTION,
    HeatedZoneIntMassObj,     !- Name
    HeatedZoneIntMass;        !- Outside Layer

CONSTRUCTION,
    NonHeatedZoneIntMassObj,    !- Name
    NonHeatedZoneIntMass;     !- Outside Layer

GlobalGeometryRules,
    UpperLeftCorner,          !- Starting Vertex Position
    CounterClockWise,         !- Vertex Entry Direction
    World;                    !- Coordinate System

ZONE,
    Block Build0_Alt0 Storey -1,    !- Name
    0,                        !- Direction of Relative North
    0,                        !- X Origin
    0,                        !- Y Origin
    0,                        !- Z Origin
    1,                        !- Type
    1,                        !- Multiplier
    autocalculate,            !- Ceiling Height
    autocalculate,            !- Volume
    autocalculate,            !- Floor Area
    ,                         !- Zone Inside Convection Algorithm
    ,                         !- Zone Outside Convection Algorithm
    Yes;                      !- Part of Total Floor Area

ZONE,
    Block Build0_Alt0 Storey 0,    !- Name
    0,                        !- Direction of Relative North
    0,                        !- X Origin
    0,                        !- Y Origin
    0,                        !- Z Origin
    1,                        !- Type
    1,                        !- Multiplier
    autocalculate,            !- Ceiling Height
    autocalculate,            !- Volume
    autocalculate,            !- Floor Area
    ,                         !- Zone Inside Convection Algorithm
    ,                         !- Zone Outside Convection Algorithm
    Yes;                      !- Part of Total Floor Area

ZONE,
    Block Build1_Alt0 Storey -1,    !- Name
    0,                        !- Direction of Relative North
    0,                        !- X Origin
    0,                        !- Y Origin
    0,                        !- Z Origin
    1,                        !- Type
    1,                        !- Multiplier
    autocalculate,            !- Ceiling Height
    autocalculate,            !- Volume
    autocalculate,            !- Floor Area
    ,                         !- Zone Inside Convection Algorithm
    ,                         !- Zone Outside Convection Algorithm
    Yes;                      !- Part of Total Floor Area

ZONE,
    Block Build1_Alt0 Storey 0,    !- Name
    0,                        !- Direction of Relative North
    0,                        !- X Origin
    0,                        !- Y Origin
    0,                        !- Z Origin
    1,                        !- Type
    1,                        !- Multiplier
    autocalculate,            !- Ceiling Height
    autocalculate,            !- Volume
    autocalculate,            !- Floor Area
    ,                         !- Zone Inside Convection Algorithm
    ,                         !- Zone Outside Convection Algorithm
    Yes;                      !- Part of Total Floor Area

BUILDINGSURFACE:DETAILED,
    Block Build0_Alt0 Storey -1 Wall 0001,    !- Name
    wall,                     !- Surface Type
    Project Basement Wall,    !- Construction Name
    Block Build0_Alt0 Storey -1,    !- Zone Name
    ground,                   !- Outside Boundary Condition
    ,                         !- Outside Boundary Condition Object
    NoSun,                    !- Sun Exposure
    NoWind,                   !- Wind Exposure
    autocalculate,            !- View Factor to Ground
    autocalculate,            !- Number of Vertices
    3.4772,                   !- Vertex 1 Xcoordinate
    1.1763,                   !- Vertex 1 Ycoordinate
    0,                        !- Vertex 1 Zcoordinate
    3.4772,                   !- Vertex 2 Xcoordinate
    1.1763,                   !- Vertex 2 Ycoordinate
    -2.5,                     !- Vertex 2 Zcoordinate
    8.3801,                   !- Vertex 3 Xcoordinate
    -4.5261,                  !- Vertex 3 Ycoordinate
    -2.5,                     !- Vertex 3 Zcoordinate
    8.3801,                   !- Vertex 4 Xcoordinate
    -4.5261,                  !- Vertex 4 Ycoordinate
    0;                        !- Vertex 4 Zcoordinate

BUILDINGSURFACE:DETAILED,
    Block Build0_Alt0 Storey -1 Wall 0002,    !- Name
    wall,                     !- Surface Type
    Project Basement Wall,    !- Construction Name
    Block Build0_Alt0 Storey -1,    !- Zone Name
    ground,                   !- Outside Boundary Condition
    ,                         !- Outside Boundary Condition Object
    NoSun,                    !- Sun Exposure
    NoWind,                   !- Wind Exposure
    autocalculate,            !- View Factor to Ground
    autocalculate,            !- Number of Vertices
    8.3801,                   !- Vertex 1 Xcoordinate
    -4.5261,                  !- Vertex 1 Ycoordinate
    0,                        !- Vertex 1 Zcoordinate
    8.3801,                   !- Vertex 2 Xcoordinate
    -4.5261,                  !- Vertex 2 Ycoordinate
    -2.5,                     !- Vertex 2 Zcoordinate
    7.5621,                   !- Vertex 3 Xcoordinate
    -15.9911,                 !- Vertex 3 Ycoordinate
    -2.5,                     !- Vertex 3 Zcoordinate
    7.5621,                   !- Vertex 4 Xcoordinate
    -15.9911,                 !- Vertex 4 Ycoordinate
    0;                        !- Vertex 4 Zcoordinate

BUILDINGSURFACE:DETAILED,
    Block Build0_Alt0 Storey -1 Wall 0003,    !- Name
    wall,                     !- Surface Type
    Project Basement Wall,    !- Construction Name
    Block Build0_Alt0 Storey -1,    !- Zone Name
    ground,                   !- Outside Boundary Condition
    ,                         !- Outside Boundary Condition Object
    NoSun,                    !- Sun Exposure
    NoWind,                   !- Wind Exposure
    autocalculate,            !- View Factor to Ground
    autocalculate,            !- Number of Vertices
    7.5621,                   !- Vertex 1 Xcoordinate
    -15.9911,                 !- Vertex 1 Ycoordinate
    0,                        !- Vertex 1 Zcoordinate
    7.5621,                   !- Vertex 2 Xcoordinate
    -15.9911,                 !- Vertex 2 Ycoordinate
    -2.5,                     !- Vertex 2 Zcoordinate
    17.8261,                  !- Vertex 3 Xcoordinate
    -16.7421,                 !- Vertex 3 Ycoordinate
    -2.5,                     !- Vertex 3 Zcoordinate
    17.8261,                  !- Vertex 4 Xcoordinate
    -16.7421,                 !- Vertex 4 Ycoordinate
    0;                        !- Vertex 4 Zcoordinate

BUILDINGSURFACE:DETAILED,
    Block Build0_Alt0 Storey -1 Wall 0004,    !- Name
    wall,                     !- Surface Type
    Project Basement Wall,    !- Construction Name
    Block Build0_Alt0 Storey -1,    !- Zone Name
    ground,                   !- Outside Boundary Condition
    ,                         !- Outside Boundary Condition Object
    NoSun,                    !- Sun Exposure
    NoWind,                   !- Wind Exposure
    autocalculate,            !- View Factor to Ground
    autocalculate,            !- Number of Vertices
    17.8261,                  !- Vertex 1 Xcoordinate
    -16.7421,                 !- Vertex 1 Ycoordinate
    0,                        !- Vertex 1 Zcoordinate
    17.8261,                  !- Vertex 2 Xcoordinate
    -16.7421,                 !- Vertex 2 Ycoordinate
    -2.5,                     !- Vertex 2 Zcoordinate
    18.5941,                  !- Vertex 3 Xcoordinate
    -6.8681,                  !- Vertex 3 Ycoordinate
    -2.5,                     !- Vertex 3 Zcoordinate
    18.5941,                  !- Vertex 4 Xcoordinate
    -6.8681,                  !- Vertex 4 Ycoordinate
    0;                        !- Vertex 4 Zcoordinate

BUILDINGSURFACE:DETAILED,
    Block Build0_Alt0 Storey -1 Wall 0005,    !- Name
    wall,                     !- Surface Type
    Project Basement Wall,    !- Construction Name
    Block Build0_Alt0 Storey -1,    !- Zone Name
    ground,                   !- Outside Boundary Condition
    ,                         !- Outside Boundary Condition Object
    NoSun,                    !- Sun Exposure
    NoWind,                   !- Wind Exposure
    autocalculate,            !- View Factor to Ground
    autocalculate,            !- Number of Vertices
    18.5941,                  !- Vertex 1 Xcoordinate
    -6.8681,                  !- Vertex 1 Ycoordinate
    0,                        !- Vertex 1 Zcoordinate
    18.5941,                  !- Vertex 2 Xcoordinate
    -6.8681,                  !- Vertex 2 Ycoordinate
    -2.5,                     !- Vertex 2 Zcoordinate
    22.5831,                  !- Vertex 3 Xcoordinate
    -7.1551,                  !- Vertex 3 Ycoordinate
    -2.5,                     !- Vertex 3 Zcoordinate
    22.5831,                  !- Vertex 4 Xcoordinate
    -7.1551,                  !- Vertex 4 Ycoordinate
    0;                        !- Vertex 4 Zcoordinate

BUILDINGSURFACE:DETAILED,
    Block Build0_Alt0 Storey -1 Wall 0006,    !- Name
    wall,                     !- Surface Type
    Project Basement Wall,    !- Construction Name
    Block Build0_Alt0 Storey -1,    !- Zone Name
    ground,                   !- Outside Boundary Condition
    ,                         !- Outside Boundary Condition Object
    NoSun,                    !- Sun Exposure
    NoWind,                   !- Wind Exposure
    autocalculate,            !- View Factor to Ground
    autocalculate,            !- Number of Vertices
    22.5831,                  !- Vertex 1 Xcoordinate
    -7.1551,                  !- Vertex 1 Ycoordinate
    0,                        !- Vertex 1 Zcoordinate
    22.5831,                  !- Vertex 2 Xcoordinate
    -7.1551,                  !- Vertex 2 Ycoordinate
    -2.5,                     !- Vertex 2 Zcoordinate
    23.1651,                  !- Vertex 3 Xcoordinate
    -0.0551,                  !- Vertex 3 Ycoordinate
    -2.5,                     !- Vertex 3 Zcoordinate
    23.1651,                  !- Vertex 4 Xcoordinate
    -0.0551,                  !- Vertex 4 Ycoordinate
    0;                        !- Vertex 4 Zcoordinate

BUILDINGSURFACE:DETAILED,
    Block Build0_Alt0 Storey -1 Wall 0007,    !- Name
    wall,                     !- Surface Type
    Project Basement Wall,    !- Construction Name
    Block Build0_Alt0 Storey -1,    !- Zone Name
    ground,                   !- Outside Boundary Condition
    ,                         !- Outside Boundary Condition Object
    NoSun,                    !- Sun Exposure
    NoWind,                   !- Wind Exposure
    autocalculate,            !- View Factor to Ground
    autocalculate,            !- Number of Vertices
    23.1651,                  !- Vertex 1 Xcoordinate
    -0.0551,                  !- Vertex 1 Ycoordinate
    0,                        !- Vertex 1 Zcoordinate
    23.1651,                  !- Vertex 2 Xcoordinate
    -0.0551,                  !- Vertex 2 Ycoordinate
    -2.5,                     !- Vertex 2 Zcoordinate
    15.8251,                  !- Vertex 3 Xcoordinate
    0.5879,                   !- Vertex 3 Ycoordinate
    -2.5,                     !- Vertex 3 Zcoordinate
    15.8251,                  !- Vertex 4 Xcoordinate
    0.5879,                   !- Vertex 4 Ycoordinate
    0;                        !- Vertex 4 Zcoordinate

BUILDINGSURFACE:DETAILED,
    Block Build0_Alt0 Storey -1 Wall 0008,    !- Name
    wall,                     !- Surface Type
    Project Basement Wall,    !- Construction Name
    Block Build0_Alt0 Storey -1,    !- Zone Name
    ground,                   !- Outside Boundary Condition
    ,                         !- Outside Boundary Condition Object
    NoSun,                    !- Sun Exposure
    NoWind,                   !- Wind Exposure
    autocalculate,            !- View Factor to Ground
    autocalculate,            !- Number of Vertices
    15.8251,                  !- Vertex 1 Xcoordinate
    0.5879,                   !- Vertex 1 Ycoordinate
    0,                        !- Vertex 1 Zcoordinate
    15.8251,                  !- Vertex 2 Xcoordinate
    0.5879,                   !- Vertex 2 Ycoordinate
    -2.5,                     !- Vertex 2 Zcoordinate
    10.2552,                  !- Vertex 3 Xcoordinate
    7.0667,                   !- Vertex 3 Ycoordinate
    -2.5,                     !- Vertex 3 Zcoordinate
    10.2552,                  !- Vertex 4 Xcoordinate
    7.0667,                   !- Vertex 4 Ycoordinate
    0;                        !- Vertex 4 Zcoordinate

BUILDINGSURFACE:DETAILED,
    Block Build0_Alt0 Storey -1 Floor 0001,    !- Name
    floor,                    !- Surface Type
    Project Basement Floor,    !- Construction Name
    Block Build0_Alt0 Storey -1,    !- Zone Name
    ground,                   !- Outside Boundary Condition
    ,                         !- Outside Boundary Condition Object
    NoSun,                    !- Sun Exposure
    NoWind,                   !- Wind Exposure
    autocalculate,            !- View Factor to Ground
    autocalculate,            !- Number of Vertices
    23.1651,                  !- Vertex 1 Xcoordinate
    -0.0551,                  !- Vertex 1 Ycoordinate
    -2.5,                     !- Vertex 1 Zcoordinate
    22.5831,                  !- Vertex 2 Xcoordinate
    -7.1551,                  !- Vertex 2 Ycoordinate
    -2.5,                     !- Vertex 2 Zcoordinate
    18.5941,                  !- Vertex 3 Xcoordinate
    -6.8681,                  !- Vertex 3 Ycoordinate
    -2.5,                     !- Vertex 3 Zcoordinate
    17.8261,                  !- Vertex 4 Xcoordinate
    -16.7421,                 !- Vertex 4 Ycoordinate
    -2.5,                     !- Vertex 4 Zcoordinate
    7.5621,                   !- Vertex 5 Xcoordinate
    -15.9911,                 !- Vertex 5 Ycoordinate
    -2.5,                     !- Vertex 5 Zcoordinate
    8.3801,                   !- Vertex 6 Xcoordinate
    -4.5261,                  !- Vertex 6 Ycoordinate
    -2.5,                     !- Vertex 6 Zcoordinate
    3.4772,                   !- Vertex 7 Xcoordinate
    1.1763,                   !- Vertex 7 Ycoordinate
    -2.5,                     !- Vertex 7 Zcoordinate
    10.2552,                  !- Vertex 8 Xcoordinate
    7.0667,                   !- Vertex 8 Ycoordinate
    -2.5,                     !- Vertex 8 Zcoordinate
    15.8251,                  !- Vertex 9 Xcoordinate
    0.5879,                   !- Vertex 9 Ycoordinate
    -2.5;                     !- Vertex 9 Zcoordinate

BUILDINGSURFACE:DETAILED,
    Block Build0_Alt0 Storey 0 Wall 0001,    !- Name
    wall,                     !- Surface Type
    Project Wall,             !- Construction Name
    Block Build0_Alt0 Storey 0,    !- Zone Name
    outdoors,                 !- Outside Boundary Condition
    ,                         !- Outside Boundary Condition Object
    SunExposed,               !- Sun Exposure
    WindExposed,              !- Wind Exposure
    autocalculate,            !- View Factor to Ground
    autocalculate,            !- Number of Vertices
    3.4772,                   !- Vertex 1 Xcoordinate
    1.1763,                   !- Vertex 1 Ycoordinate
    15,                       !- Vertex 1 Zcoordinate
    3.4772,                   !- Vertex 2 Xcoordinate
    1.1763,                   !- Vertex 2 Ycoordinate
    0,                        !- Vertex 2 Zcoordinate
    8.3801,                   !- Vertex 3 Xcoordinate
    -4.5261,                  !- Vertex 3 Ycoordinate
    0,                        !- Vertex 3 Zcoordinate
    8.3801,                   !- Vertex 4 Xcoordinate
    -4.5261,                  !- Vertex 4 Ycoordinate
    15;                       !- Vertex 4 Zcoordinate

BUILDINGSURFACE:DETAILED,
    Block Build0_Alt0 Storey 0 Wall 0002,    !- Name
    wall,                     !- Surface Type
    Project Wall,             !- Construction Name
    Block Build0_Alt0 Storey 0,    !- Zone Name
    outdoors,                 !- Outside Boundary Condition
    ,                         !- Outside Boundary Condition Object
    SunExposed,               !- Sun Exposure
    WindExposed,              !- Wind Exposure
    autocalculate,            !- View Factor to Ground
    autocalculate,            !- Number of Vertices
    8.3801,                   !- Vertex 1 Xcoordinate
    -4.5261,                  !- Vertex 1 Ycoordinate
    15,                       !- Vertex 1 Zcoordinate
    8.3801,                   !- Vertex 2 Xcoordinate
    -4.5261,                  !- Vertex 2 Ycoordinate
    0,                        !- Vertex 2 Zcoordinate
    7.5621,                   !- Vertex 3 Xcoordinate
    -15.9911,                 !- Vertex 3 Ycoordinate
    0,                        !- Vertex 3 Zcoordinate
    7.5621,                   !- Vertex 4 Xcoordinate
    -15.9911,                 !- Vertex 4 Ycoordinate
    15;                       !- Vertex 4 Zcoordinate

BUILDINGSURFACE:DETAILED,
    Block Build0_Alt0 Storey 0 Wall 0003,    !- Name
    wall,                     !- Surface Type
    Project Wall,             !- Construction Name
    Block Build0_Alt0 Storey 0,    !- Zone Name
    outdoors,                 !- Outside Boundary Condition
    ,                         !- Outside Boundary Condition Object
    SunExposed,               !- Sun Exposure
    WindExposed,              !- Wind Exposure
    autocalculate,            !- View Factor to Ground
    autocalculate,            !- Number of Vertices
    7.5621,                   !- Vertex 1 Xcoordinate
    -15.9911,                 !- Vertex 1 Ycoordinate
    15,                       !- Vertex 1 Zcoordinate
    7.5621,                   !- Vertex 2 Xcoordinate
    -15.9911,                 !- Vertex 2 Ycoordinate
    0,                        !- Vertex 2 Zcoordinate
    17.8261,                  !- Vertex 3 Xcoordinate
    -16.7421,                 !- Vertex 3 Ycoordinate
    0,                        !- Vertex 3 Zcoordinate
    17.8261,                  !- Vertex 4 Xcoordinate
    -16.7421,                 !- Vertex 4 Ycoordinate
    15;                       !- Vertex 4 Zcoordinate

BUILDINGSURFACE:DETAILED,
    Block Build0_Alt0 Storey 0 Wall 0004,    !- Name
    wall,                     !- Surface Type
    Project Wall,             !- Construction Name
    Block Build0_Alt0 Storey 0,    !- Zone Name
    outdoors,                 !- Outside Boundary Condition
    ,                         !- Outside Boundary Condition Object
    SunExposed,               !- Sun Exposure
    WindExposed,              !- Wind Exposure
    autocalculate,            !- View Factor to Ground
    autocalculate,            !- Number of Vertices
    17.8261,                  !- Vertex 1 Xcoordinate
    -16.7421,                 !- Vertex 1 Ycoordinate
    15,                       !- Vertex 1 Zcoordinate
    17.8261,                  !- Vertex 2 Xcoordinate
    -16.7421,                 !- Vertex 2 Ycoordinate
    0,                        !- Vertex 2 Zcoordinate
    18.5941,                  !- Vertex 3 Xcoordinate
    -6.8681,                  !- Vertex 3 Ycoordinate
    0,                        !- Vertex 3 Zcoordinate
    18.5941,                  !- Vertex 4 Xcoordinate
    -6.8681,                  !- Vertex 4 Ycoordinate
    15;                       !- Vertex 4 Zcoordinate

BUILDINGSURFACE:DETAILED,
    Block Build0_Alt0 Storey 0 Wall 0005,    !- Name
    wall,                     !- Surface Type
    Project Wall,             !- Construction Name
    Block Build0_Alt0 Storey 0,    !- Zone Name
    outdoors,                 !- Outside Boundary Condition
    ,                         !- Outside Boundary Condition Object
    SunExposed,               !- Sun Exposure
    WindExposed,              !- Wind Exposure
    autocalculate,            !- View Factor to Ground
    autocalculate,            !- Number of Vertices
    18.5941,                  !- Vertex 1 Xcoordinate
    -6.8681,                  !- Vertex 1 Ycoordinate
    15,                       !- Vertex 1 Zcoordinate
    18.5941,                  !- Vertex 2 Xcoordinate
    -6.8681,                  !- Vertex 2 Ycoordinate
    0,                        !- Vertex 2 Zcoordinate
    22.5831,                  !- Vertex 3 Xcoordinate
    -7.1551,                  !- Vertex 3 Ycoordinate
    0,                        !- Vertex 3 Zcoordinate
    22.5831,                  !- Vertex 4 Xcoordinate
    -7.1551,                  !- Vertex 4 Ycoordinate
    15;                       !- Vertex 4 Zcoordinate

BUILDINGSURFACE:DETAILED,
    Block Build0_Alt0 Storey 0 Wall 0006,    !- Name
    wall,                     !- Surface Type
    Project Wall,             !- Construction Name
    Block Build0_Alt0 Storey 0,    !- Zone Name
    outdoors,                 !- Outside Boundary Condition
    ,                         !- Outside Boundary Condition Object
    SunExposed,               !- Sun Exposure
    WindExposed,              !- Wind Exposure
    autocalculate,            !- View Factor to Ground
    autocalculate,            !- Number of Vertices
    22.5831,                  !- Vertex 1 Xcoordinate
    -7.1551,                  !- Vertex 1 Ycoordinate
    15,                       !- Vertex 1 Zcoordinate
    22.5831,                  !- Vertex 2 Xcoordinate
    -7.1551,                  !- Vertex 2 Ycoordinate
    0,                        !- Vertex 2 Zcoordinate
    23.1651,                  !- Vertex 3 Xcoordinate
    -0.0551,                  !- Vertex 3 Ycoordinate
    0,                        !- Vertex 3 Zcoordinate
    23.1651,                  !- Vertex 4 Xcoordinate
    -0.0551,                  !- Vertex 4 Ycoordinate
    15;                       !- Vertex 4 Zcoordinate

BUILDINGSURFACE:DETAILED,
    Block Build0_Alt0 Storey 0 Wall 0007,    !- Name
    wall,                     !- Surface Type
    Project Wall,             !- Construction Name
    Block Build0_Alt0 Storey 0,    !- Zone Name
    outdoors,                 !- Outside Boundary Condition
    ,                         !- Outside Boundary Condition Object
    SunExposed,               !- Sun Exposure
    WindExposed,              !- Wind Exposure
    autocalculate,            !- View Factor to Ground
    autocalculate,            !- Number of Vertices
    23.1651,                  !- Vertex 1 Xcoordinate
    -0.0551,                  !- Vertex 1 Ycoordinate
    15,                       !- Vertex 1 Zcoordinate
    23.1651,                  !- Vertex 2 Xcoordinate
    -0.0551,                  !- Vertex 2 Ycoordinate
    0,                        !- Vertex 2 Zcoordinate
    15.8251,                  !- Vertex 3 Xcoordinate
    0.5879,                   !- Vertex 3 Ycoordinate
    0,                        !- Vertex 3 Zcoordinate
    15.8251,                  !- Vertex 4 Xcoordinate
    0.5879,                   !- Vertex 4 Ycoordinate
    15;                       !- Vertex 4 Zcoordinate

BUILDINGSURFACE:DETAILED,
    Block Build0_Alt0 Storey 0 Wall 0008,    !- Name
    wall,                     !- Surface Type
    Project Wall,             !- Construction Name
    Block Build0_Alt0 Storey 0,    !- Zone Name
    outdoors,                 !- Outside Boundary Condition
    ,                         !- Outside Boundary Condition Object
    SunExposed,               !- Sun Exposure
    WindExposed,              !- Wind Exposure
    autocalculate,            !- View Factor to Ground
    autocalculate,            !- Number of Vertices
    15.8251,                  !- Vertex 1 Xcoordinate
    0.5879,                   !- Vertex 1 Ycoordinate
    15,                       !- Vertex 1 Zcoordinate
    15.8251,                  !- Vertex 2 Xcoordinate
    0.5879,                   !- Vertex 2 Ycoordinate
    0,                        !- Vertex 2 Zcoordinate
    10.2552,                  !- Vertex 3 Xcoordinate
    7.0667,                   !- Vertex 3 Ycoordinate
    0,                        !- Vertex 3 Zcoordinate
    10.2552,                  !- Vertex 4 Xcoordinate
    7.0667,                   !- Vertex 4 Ycoordinate
    15;                       !- Vertex 4 Zcoordinate

BUILDINGSURFACE:DETAILED,
    Block Build1_Alt0 Storey -1 Wall 0002,    !- Name
    wall,                     !- Surface Type
    Project Basement Wall,    !- Construction Name
    Block Build1_Alt0 Storey -1,    !- Zone Name
    ground,                   !- Outside Boundary Condition
    ,                         !- Outside Boundary Condition Object
    NoSun,                    !- Sun Exposure
    NoWind,                   !- Wind Exposure
    autocalculate,            !- View Factor to Ground
    autocalculate,            !- Number of Vertices
    10.2552,                  !- Vertex 1 Xcoordinate
    7.0667,                   !- Vertex 1 Ycoordinate
    0,                        !- Vertex 1 Zcoordinate
    10.2552,                  !- Vertex 2 Xcoordinate
    7.0667,                   !- Vertex 2 Ycoordinate
    -2.5,                     !- Vertex 2 Zcoordinate
    3.6051,                   !- Vertex 3 Xcoordinate
    14.8019,                  !- Vertex 3 Ycoordinate
    -2.5,                     !- Vertex 3 Zcoordinate
    3.6051,                   !- Vertex 4 Xcoordinate
    14.8019,                  !- Vertex 4 Ycoordinate
    0;                        !- Vertex 4 Zcoordinate

BUILDINGSURFACE:DETAILED,
    Block Build1_Alt0 Storey -1 Wall 0003,    !- Name
    wall,                     !- Surface Type
    Project Basement Wall,    !- Construction Name
    Block Build1_Alt0 Storey -1,    !- Zone Name
    ground,                   !- Outside Boundary Condition
    ,                         !- Outside Boundary Condition Object
    NoSun,                    !- Sun Exposure
    NoWind,                   !- Wind Exposure
    autocalculate,            !- View Factor to Ground
    autocalculate,            !- Number of Vertices
    3.6051,                   !- Vertex 1 Xcoordinate
    14.8019,                  !- Vertex 1 Ycoordinate
    0,                        !- Vertex 1 Zcoordinate
    3.6051,                   !- Vertex 2 Xcoordinate
    14.8019,                  !- Vertex 2 Ycoordinate
    -2.5,                     !- Vertex 2 Zcoordinate
    9.7641,                   !- Vertex 3 Xcoordinate
    20.0969,                  !- Vertex 3 Ycoordinate
    -2.5,                     !- Vertex 3 Zcoordinate
    9.7641,                   !- Vertex 4 Xcoordinate
    20.0969,                  !- Vertex 4 Ycoordinate
    0;                        !- Vertex 4 Zcoordinate

BUILDINGSURFACE:DETAILED,
    Block Build1_Alt0 Storey -1 Wall 0004,    !- Name
    wall,                     !- Surface Type
    Project Basement Wall,    !- Construction Name
    Block Build1_Alt0 Storey -1,    !- Zone Name
    ground,                   !- Outside Boundary Condition
    ,                         !- Outside Boundary Condition Object
    NoSun,                    !- Sun Exposure
    NoWind,                   !- Wind Exposure
    autocalculate,            !- View Factor to Ground
    autocalculate,            !- Number of Vertices
    9.7641,                   !- Vertex 1 Xcoordinate
    20.0969,                  !- Vertex 1 Ycoordinate
    0,                        !- Vertex 1 Zcoordinate
    9.7641,                   !- Vertex 2 Xcoordinate
    20.0969,                  !- Vertex 2 Ycoordinate
    -2.5,                     !- Vertex 2 Zcoordinate
    3.1641,                   !- Vertex 3 Xcoordinate
    27.7439,                  !- Vertex 3 Ycoordinate
    -2.5,                     !- Vertex 3 Zcoordinate
    3.1641,                   !- Vertex 4 Xcoordinate
    27.7439,                  !- Vertex 4 Ycoordinate
    0;                        !- Vertex 4 Zcoordinate

BUILDINGSURFACE:DETAILED,
    Block Build1_Alt0 Storey -1 Wall 0005,    !- Name
    wall,                     !- Surface Type
    Project Basement Wall,    !- Construction Name
    Block Build1_Alt0 Storey -1,    !- Zone Name
    ground,                   !- Outside Boundary Condition
    ,                         !- Outside Boundary Condition Object
    NoSun,                    !- Sun Exposure
    NoWind,                   !- Wind Exposure
    autocalculate,            !- View Factor to Ground
    autocalculate,            !- Number of Vertices
    3.1641,                   !- Vertex 1 Xcoordinate
    27.7439,                  !- Vertex 1 Ycoordinate
    0,                        !- Vertex 1 Zcoordinate
    3.1641,                   !- Vertex 2 Xcoordinate
    27.7439,                  !- Vertex 2 Ycoordinate
    -2.5,                     !- Vertex 2 Zcoordinate
    -2.1289,                  !- Vertex 3 Xcoordinate
    23.1729,                  !- Vertex 3 Ycoordinate
    -2.5,                     !- Vertex 3 Zcoordinate
    -2.1289,                  !- Vertex 4 Xcoordinate
    23.1729,                  !- Vertex 4 Ycoordinate
    0;                        !- Vertex 4 Zcoordinate

BUILDINGSURFACE:DETAILED,
    Block Build1_Alt0 Storey -1 Wall 0006,    !- Name
    wall,                     !- Surface Type
    Project Basement Wall,    !- Construction Name
    Block Build1_Alt0 Storey -1,    !- Zone Name
    ground,                   !- Outside Boundary Condition
    ,                         !- Outside Boundary Condition Object
    NoSun,                    !- Sun Exposure
    NoWind,                   !- Wind Exposure
    autocalculate,            !- View Factor to Ground
    autocalculate,            !- Number of Vertices
    -2.1289,                  !- Vertex 1 Xcoordinate
    23.1729,                  !- Vertex 1 Ycoordinate
    0,                        !- Vertex 1 Zcoordinate
    -2.1289,                  !- Vertex 2 Xcoordinate
    23.1729,                  !- Vertex 2 Ycoordinate
    -2.5,                     !- Vertex 2 Zcoordinate
    -7.9519,                  !- Vertex 3 Xcoordinate
    29.9649,                  !- Vertex 3 Ycoordinate
    -2.5,                     !- Vertex 3 Zcoordinate
    -7.9519,                  !- Vertex 4 Xcoordinate
    29.9649,                  !- Vertex 4 Ycoordinate
    0;                        !- Vertex 4 Zcoordinate

BUILDINGSURFACE:DETAILED,
    Block Build1_Alt0 Storey -1 Wall 0007,    !- Name
    wall,                     !- Surface Type
    Project Basement Wall,    !- Construction Name
    Block Build1_Alt0 Storey -1,    !- Zone Name
    ground,                   !- Outside Boundary Condition
    ,                         !- Outside Boundary Condition Object
    NoSun,                    !- Sun Exposure
    NoWind,                   !- Wind Exposure
    autocalculate,            !- View Factor to Ground
    autocalculate,            !- Number of Vertices
    -7.9519,                  !- Vertex 1 Xcoordinate
    29.9649,                  !- Vertex 1 Ycoordinate
    0,                        !- Vertex 1 Zcoordinate
    -7.9519,                  !- Vertex 2 Xcoordinate
    29.9649,                  !- Vertex 2 Ycoordinate
    -2.5,                     !- Vertex 2 Zcoordinate
    -15.6099,                 !- Vertex 3 Xcoordinate
    23.3799,                  !- Vertex 3 Ycoordinate
    -2.5,                     !- Vertex 3 Zcoordinate
    -15.6099,                 !- Vertex 4 Xcoordinate
    23.3799,                  !- Vertex 4 Ycoordinate
    0;                        !- Vertex 4 Zcoordinate

BUILDINGSURFACE:DETAILED,
    Block Build1_Alt0 Storey -1 Wall 0008,    !- Name
    wall,                     !- Surface Type
    Project Basement Wall,    !- Construction Name
    Block Build1_Alt0 Storey -1,    !- Zone Name
    ground,                   !- Outside Boundary Condition
    ,                         !- Outside Boundary Condition Object
    NoSun,                    !- Sun Exposure
    NoWind,                   !- Wind Exposure
    autocalculate,            !- View Factor to Ground
    autocalculate,            !- Number of Vertices
    -15.6099,                 !- Vertex 1 Xcoordinate
    23.3799,                  !- Vertex 1 Ycoordinate
    0,                        !- Vertex 1 Zcoordinate
    -15.6099,                 !- Vertex 2 Xcoordinate
    23.3799,                  !- Vertex 2 Ycoordinate
    -2.5,                     !- Vertex 2 Zcoordinate
    -11.7949,                 !- Vertex 3 Xcoordinate
    18.9429,                  !- Vertex 3 Ycoordinate
    -2.5,                     !- Vertex 3 Zcoordinate
    -11.7949,                 !- Vertex 4 Xcoordinate
    18.9429,                  !- Vertex 4 Ycoordinate
    0;                        !- Vertex 4 Zcoordinate

BUILDINGSURFACE:DETAILED,
    Block Build1_Alt0 Storey -1 Wall 0009,    !- Name
    wall,                     !- Surface Type
    Project Basement Wall,    !- Construction Name
    Block Build1_Alt0 Storey -1,    !- Zone Name
    ground,                   !- Outside Boundary Condition
    ,                         !- Outside Boundary Condition Object
    NoSun,                    !- Sun Exposure
    NoWind,                   !- Wind Exposure
    autocalculate,            !- View Factor to Ground
    autocalculate,            !- Number of Vertices
    -11.7949,                 !- Vertex 1 Xcoordinate
    18.9429,                  !- Vertex 1 Ycoordinate
    0,                        !- Vertex 1 Zcoordinate
    -11.7949,                 !- Vertex 2 Xcoordinate
    18.9429,                  !- Vertex 2 Ycoordinate
    -2.5,                     !- Vertex 2 Zcoordinate
    -16.4209,                 !- Vertex 3 Xcoordinate
    14.9659,                  !- Vertex 3 Ycoordinate
    -2.5,                     !- Vertex 3 Zcoordinate
    -16.4209,                 !- Vertex 4 Xcoordinate
    14.9659,                  !- Vertex 4 Ycoordinate
    0;                        !- Vertex 4 Zcoordinate

BUILDINGSURFACE:DETAILED,
    Block Build1_Alt0 Storey -1 Wall 0010,    !- Name
    wall,                     !- Surface Type
    Project Basement Wall,    !- Construction Name
    Block Build1_Alt0 Storey -1,    !- Zone Name
    ground,                   !- Outside Boundary Condition
    ,                         !- Outside Boundary Condition Object
    NoSun,                    !- Sun Exposure
    NoWind,                   !- Wind Exposure
    autocalculate,            !- View Factor to Ground
    autocalculate,            !- Number of Vertices
    -16.4209,                 !- Vertex 1 Xcoordinate
    14.9659,                  !- Vertex 1 Ycoordinate
    0,                        !- Vertex 1 Zcoordinate
    -16.4209,                 !- Vertex 2 Xcoordinate
    14.9659,                  !- Vertex 2 Ycoordinate
    -2.5,                     !- Vertex 2 Zcoordinate
    -13.8139,                 !- Vertex 3 Xcoordinate
    11.9339,                  !- Vertex 3 Ycoordinate
    -2.5,                     !- Vertex 3 Zcoordinate
    -13.8139,                 !- Vertex 4 Xcoordinate
    11.9339,                  !- Vertex 4 Ycoordinate
    0;                        !- Vertex 4 Zcoordinate

BUILDINGSURFACE:DETAILED,
    Block Build1_Alt0 Storey -1 Wall 0011,    !- Name
    wall,                     !- Surface Type
    Project Basement Wall,    !- Construction Name
    Block Build1_Alt0 Storey -1,    !- Zone Name
    ground,                   !- Outside Boundary Condition
    ,                         !- Outside Boundary Condition Object
    NoSun,                    !- Sun Exposure
    NoWind,                   !- Wind Exposure
    autocalculate,            !- View Factor to Ground
    autocalculate,            !- Number of Vertices
    -13.8139,                 !- Vertex 1 Xcoordinate
    11.9339,                  !- Vertex 1 Ycoordinate
    0,                        !- Vertex 1 Zcoordinate
    -13.8139,                 !- Vertex 2 Xcoordinate
    11.9339,                  !- Vertex 2 Ycoordinate
    -2.5,                     !- Vertex 2 Zcoordinate
    -16.8479,                 !- Vertex 3 Xcoordinate
    9.3249,                   !- Vertex 3 Ycoordinate
    -2.5,                     !- Vertex 3 Zcoordinate
    -16.8479,                 !- Vertex 4 Xcoordinate
    9.3249,                   !- Vertex 4 Ycoordinate
    0;                        !- Vertex 4 Zcoordinate

BUILDINGSURFACE:DETAILED,
    Block Build1_Alt0 Storey -1 Wall 0012,    !- Name
    wall,                     !- Surface Type
    Project Basement Wall,    !- Construction Name
    Block Build1_Alt0 Storey -1,    !- Zone Name
    ground,                   !- Outside Boundary Condition
    ,                         !- Outside Boundary Condition Object
    NoSun,                    !- Sun Exposure
    NoWind,                   !- Wind Exposure
    autocalculate,            !- View Factor to Ground
    autocalculate,            !- Number of Vertices
    -16.8479,                 !- Vertex 1 Xcoordinate
    9.3249,                   !- Vertex 1 Ycoordinate
    0,                        !- Vertex 1 Zcoordinate
    -16.8479,                 !- Vertex 2 Xcoordinate
    9.3249,                   !- Vertex 2 Ycoordinate
    -2.5,                     !- Vertex 2 Zcoordinate
    -11.3969,                 !- Vertex 3 Xcoordinate
    2.9879,                   !- Vertex 3 Ycoordinate
    -2.5,                     !- Vertex 3 Zcoordinate
    -11.3969,                 !- Vertex 4 Xcoordinate
    2.9879,                   !- Vertex 4 Ycoordinate
    0;                        !- Vertex 4 Zcoordinate

BUILDINGSURFACE:DETAILED,
    Block Build1_Alt0 Storey -1 Wall 0013,    !- Name
    wall,                     !- Surface Type
    Project Basement Wall,    !- Construction Name
    Block Build1_Alt0 Storey -1,    !- Zone Name
    ground,                   !- Outside Boundary Condition
    ,                         !- Outside Boundary Condition Object
    NoSun,                    !- Sun Exposure
    NoWind,                   !- Wind Exposure
    autocalculate,            !- View Factor to Ground
    autocalculate,            !- Number of Vertices
    -11.3969,                 !- Vertex 1 Xcoordinate
    2.9879,                   !- Vertex 1 Ycoordinate
    0,                        !- Vertex 1 Zcoordinate
    -11.3969,                 !- Vertex 2 Xcoordinate
    2.9879,                   !- Vertex 2 Ycoordinate
    -2.5,                     !- Vertex 2 Zcoordinate
    -8.3659,                  !- Vertex 3 Xcoordinate
    5.5939,                   !- Vertex 3 Ycoordinate
    -2.5,                     !- Vertex 3 Zcoordinate
    -8.3659,                  !- Vertex 4 Xcoordinate
    5.5939,                   !- Vertex 4 Ycoordinate
    0;                        !- Vertex 4 Zcoordinate

BUILDINGSURFACE:DETAILED,
    Block Build1_Alt0 Storey -1 Wall 0014,    !- Name
    wall,                     !- Surface Type
    Project Basement Wall,    !- Construction Name
    Block Build1_Alt0 Storey -1,    !- Zone Name
    ground,                   !- Outside Boundary Condition
    ,                         !- Outside Boundary Condition Object
    NoSun,                    !- Sun Exposure
    NoWind,                   !- Wind Exposure
    autocalculate,            !- View Factor to Ground
    autocalculate,            !- Number of Vertices
    -8.3659,                  !- Vertex 1 Xcoordinate
    5.5939,                   !- Vertex 1 Ycoordinate
    0,                        !- Vertex 1 Zcoordinate
    -8.3659,                  !- Vertex 2 Xcoordinate
    5.5939,                   !- Vertex 2 Ycoordinate
    -2.5,                     !- Vertex 2 Zcoordinate
    -5.7569,                  !- Vertex 3 Xcoordinate
    2.5609,                   !- Vertex 3 Ycoordinate
    -2.5,                     !- Vertex 3 Zcoordinate
    -5.7569,                  !- Vertex 4 Xcoordinate
    2.5609,                   !- Vertex 4 Ycoordinate
    0;                        !- Vertex 4 Zcoordinate

BUILDINGSURFACE:DETAILED,
    Block Build1_Alt0 Storey -1 Wall 0015,    !- Name
    wall,                     !- Surface Type
    Project Basement Wall,    !- Construction Name
    Block Build1_Alt0 Storey -1,    !- Zone Name
    ground,                   !- Outside Boundary Condition
    ,                         !- Outside Boundary Condition Object
    NoSun,                    !- Sun Exposure
    NoWind,                   !- Wind Exposure
    autocalculate,            !- View Factor to Ground
    autocalculate,            !- Number of Vertices
    -5.7569,                  !- Vertex 1 Xcoordinate
    2.5609,                   !- Vertex 1 Ycoordinate
    0,                        !- Vertex 1 Zcoordinate
    -5.7569,                  !- Vertex 2 Xcoordinate
    2.5609,                   !- Vertex 2 Ycoordinate
    -2.5,                     !- Vertex 2 Zcoordinate
    -1.1319,                  !- Vertex 3 Xcoordinate
    6.5369,                   !- Vertex 3 Ycoordinate
    -2.5,                     !- Vertex 3 Zcoordinate
    -1.1319,                  !- Vertex 4 Xcoordinate
    6.5369,                   !- Vertex 4 Ycoordinate
    0;                        !- Vertex 4 Zcoordinate

BUILDINGSURFACE:DETAILED,
    Block Build1_Alt0 Storey -1 Wall 0016,    !- Name
    wall,                     !- Surface Type
    Project Basement Wall,    !- Construction Name
    Block Build1_Alt0 Storey -1,    !- Zone Name
    ground,                   !- Outside Boundary Condition
    ,                         !- Outside Boundary Condition Object
    NoSun,                    !- Sun Exposure
    NoWind,                   !- Wind Exposure
    autocalculate,            !- View Factor to Ground
    autocalculate,            !- Number of Vertices
    -1.1319,                  !- Vertex 1 Xcoordinate
    6.5369,                   !- Vertex 1 Ycoordinate
    0,                        !- Vertex 1 Zcoordinate
    -1.1319,                  !- Vertex 2 Xcoordinate
    6.5369,                   !- Vertex 2 Ycoordinate
    -2.5,                     !- Vertex 2 Zcoordinate
    3.4772,                   !- Vertex 3 Xcoordinate
    1.1763,                   !- Vertex 3 Ycoordinate
    -2.5,                     !- Vertex 3 Zcoordinate
    3.4772,                   !- Vertex 4 Xcoordinate
    1.1763,                   !- Vertex 4 Ycoordinate
    0;                        !- Vertex 4 Zcoordinate

BUILDINGSURFACE:DETAILED,
    Block Build1_Alt0 Storey -1 Floor 0001,    !- Name
    floor,                    !- Surface Type
    Project Basement Floor,    !- Construction Name
    Block Build1_Alt0 Storey -1,    !- Zone Name
    ground,                   !- Outside Boundary Condition
    ,                         !- Outside Boundary Condition Object
    NoSun,                    !- Sun Exposure
    NoWind,                   !- Wind Exposure
    autocalculate,            !- View Factor to Ground
    autocalculate,            !- Number of Vertices
    3.1641,                   !- Vertex 1 Xcoordinate
    27.7439,                  !- Vertex 1 Ycoordinate
    -2.5,                     !- Vertex 1 Zcoordinate
    9.7641,                   !- Vertex 2 Xcoordinate
    20.0969,                  !- Vertex 2 Ycoordinate
    -2.5,                     !- Vertex 2 Zcoordinate
    3.6051,                   !- Vertex 3 Xcoordinate
    14.8019,                  !- Vertex 3 Ycoordinate
    -2.5,                     !- Vertex 3 Zcoordinate
    10.2552,                  !- Vertex 4 Xcoordinate
    7.0667,                   !- Vertex 4 Ycoordinate
    -2.5,                     !- Vertex 4 Zcoordinate
    3.4772,                   !- Vertex 5 Xcoordinate
    1.1763,                   !- Vertex 5 Ycoordinate
    -2.5,                     !- Vertex 5 Zcoordinate
    -1.1319,                  !- Vertex 6 Xcoordinate
    6.5369,                   !- Vertex 6 Ycoordinate
    -2.5,                     !- Vertex 6 Zcoordinate
    -5.7569,                  !- Vertex 7 Xcoordinate
    2.5609,                   !- Vertex 7 Ycoordinate
    -2.5,                     !- Vertex 7 Zcoordinate
    -8.3659,                  !- Vertex 8 Xcoordinate
    5.5939,                   !- Vertex 8 Ycoordinate
    -2.5,                     !- Vertex 8 Zcoordinate
    -11.3969,                 !- Vertex 9 Xcoordinate
    2.9879,                   !- Vertex 9 Ycoordinate
    -2.5,                     !- Vertex 9 Zcoordinate
    -16.8479,                 !- Vertex 10 Xcoordinate
    9.3249,                   !- Vertex 10 Ycoordinate
    -2.5,                     !- Vertex 10 Zcoordinate
    -13.8139,                 !- Vertex 11 Xcoordinate
    11.9339,                  !- Vertex 11 Ycoordinate
    -2.5,                     !- Vertex 11 Zcoordinate
    -16.4209,                 !- Vertex 12 Xcoordinate
    14.9659,                  !- Vertex 12 Ycoordinate
    -2.5,                     !- Vertex 12 Zcoordinate
    -11.7949,                 !- Vertex 13 Xcoordinate
    18.9429,                  !- Vertex 13 Ycoordinate
    -2.5,                     !- Vertex 13 Zcoordinate
    -15.6099,                 !- Vertex 14 Xcoordinate
    23.3799,                  !- Vertex 14 Ycoordinate
    -2.5,                     !- Vertex 14 Zcoordinate
    -7.9519,                  !- Vertex 15 Xcoordinate
    29.9649,                  !- Vertex 15 Ycoordinate
    -2.5,                     !- Vertex 15 Zcoordinate
    -2.1289,                  !- Vertex 16 Xcoordinate
    23.1729,                  !- Vertex 16 Ycoordinate
    -2.5;                     !- Vertex 16 Zcoordinate

BUILDINGSURFACE:DETAILED,
    Block Build1_Alt0 Storey 0 Wall 0002,    !- Name
    wall,                     !- Surface Type
    Project Wall,             !- Construction Name
    Block Build1_Alt0 Storey 0,    !- Zone Name
    outdoors,                 !- Outside Boundary Condition
    ,                         !- Outside Boundary Condition Object
    SunExposed,               !- Sun Exposure
    WindExposed,              !- Wind Exposure
    autocalculate,            !- View Factor to Ground
    autocalculate,            !- Number of Vertices
    10.2552,                  !- Vertex 1 Xcoordinate
    7.0667,                   !- Vertex 1 Ycoordinate
    27,                       !- Vertex 1 Zcoordinate
    10.2552,                  !- Vertex 2 Xcoordinate
    7.0667,                   !- Vertex 2 Ycoordinate
    0,                        !- Vertex 2 Zcoordinate
    3.6051,                   !- Vertex 3 Xcoordinate
    14.8019,                  !- Vertex 3 Ycoordinate
    0,                        !- Vertex 3 Zcoordinate
    3.6051,                   !- Vertex 4 Xcoordinate
    14.8019,                  !- Vertex 4 Ycoordinate
    27;                       !- Vertex 4 Zcoordinate

BUILDINGSURFACE:DETAILED,
    Block Build1_Alt0 Storey 0 Wall 0003,    !- Name
    wall,                     !- Surface Type
    Project Wall,             !- Construction Name
    Block Build1_Alt0 Storey 0,    !- Zone Name
    outdoors,                 !- Outside Boundary Condition
    ,                         !- Outside Boundary Condition Object
    SunExposed,               !- Sun Exposure
    WindExposed,              !- Wind Exposure
    autocalculate,            !- View Factor to Ground
    autocalculate,            !- Number of Vertices
    3.6051,                   !- Vertex 1 Xcoordinate
    14.8019,                  !- Vertex 1 Ycoordinate
    27,                       !- Vertex 1 Zcoordinate
    3.6051,                   !- Vertex 2 Xcoordinate
    14.8019,                  !- Vertex 2 Ycoordinate
    0,                        !- Vertex 2 Zcoordinate
    9.7641,                   !- Vertex 3 Xcoordinate
    20.0969,                  !- Vertex 3 Ycoordinate
    0,                        !- Vertex 3 Zcoordinate
    9.7641,                   !- Vertex 4 Xcoordinate
    20.0969,                  !- Vertex 4 Ycoordinate
    27;                       !- Vertex 4 Zcoordinate

BUILDINGSURFACE:DETAILED,
    Block Build1_Alt0 Storey 0 Wall 0004,    !- Name
    wall,                     !- Surface Type
    Project Wall,             !- Construction Name
    Block Build1_Alt0 Storey 0,    !- Zone Name
    outdoors,                 !- Outside Boundary Condition
    ,                         !- Outside Boundary Condition Object
    SunExposed,               !- Sun Exposure
    WindExposed,              !- Wind Exposure
    autocalculate,            !- View Factor to Ground
    autocalculate,            !- Number of Vertices
    9.7641,                   !- Vertex 1 Xcoordinate
    20.0969,                  !- Vertex 1 Ycoordinate
    27,                       !- Vertex 1 Zcoordinate
    9.7641,                   !- Vertex 2 Xcoordinate
    20.0969,                  !- Vertex 2 Ycoordinate
    0,                        !- Vertex 2 Zcoordinate
    3.1641,                   !- Vertex 3 Xcoordinate
    27.7439,                  !- Vertex 3 Ycoordinate
    0,                        !- Vertex 3 Zcoordinate
    3.1641,                   !- Vertex 4 Xcoordinate
    27.7439,                  !- Vertex 4 Ycoordinate
    27;                       !- Vertex 4 Zcoordinate

BUILDINGSURFACE:DETAILED,
    Block Build1_Alt0 Storey 0 Wall 0005,    !- Name
    wall,                     !- Surface Type
    Project Wall,             !- Construction Name
    Block Build1_Alt0 Storey 0,    !- Zone Name
    outdoors,                 !- Outside Boundary Condition
    ,                         !- Outside Boundary Condition Object
    SunExposed,               !- Sun Exposure
    WindExposed,              !- Wind Exposure
    autocalculate,            !- View Factor to Ground
    autocalculate,            !- Number of Vertices
    3.1641,                   !- Vertex 1 Xcoordinate
    27.7439,                  !- Vertex 1 Ycoordinate
    27,                       !- Vertex 1 Zcoordinate
    3.1641,                   !- Vertex 2 Xcoordinate
    27.7439,                  !- Vertex 2 Ycoordinate
    0,                        !- Vertex 2 Zcoordinate
    -2.1289,                  !- Vertex 3 Xcoordinate
    23.1729,                  !- Vertex 3 Ycoordinate
    0,                        !- Vertex 3 Zcoordinate
    -2.1289,                  !- Vertex 4 Xcoordinate
    23.1729,                  !- Vertex 4 Ycoordinate
    27;                       !- Vertex 4 Zcoordinate

BUILDINGSURFACE:DETAILED,
    Block Build1_Alt0 Storey 0 Wall 0006,    !- Name
    wall,                     !- Surface Type
    Project Wall,             !- Construction Name
    Block Build1_Alt0 Storey 0,    !- Zone Name
    outdoors,                 !- Outside Boundary Condition
    ,                         !- Outside Boundary Condition Object
    SunExposed,               !- Sun Exposure
    WindExposed,              !- Wind Exposure
    autocalculate,            !- View Factor to Ground
    autocalculate,            !- Number of Vertices
    -2.1289,                  !- Vertex 1 Xcoordinate
    23.1729,                  !- Vertex 1 Ycoordinate
    27,                       !- Vertex 1 Zcoordinate
    -2.1289,                  !- Vertex 2 Xcoordinate
    23.1729,                  !- Vertex 2 Ycoordinate
    0,                        !- Vertex 2 Zcoordinate
    -7.9519,                  !- Vertex 3 Xcoordinate
    29.9649,                  !- Vertex 3 Ycoordinate
    0,                        !- Vertex 3 Zcoordinate
    -7.9519,                  !- Vertex 4 Xcoordinate
    29.9649,                  !- Vertex 4 Ycoordinate
    27;                       !- Vertex 4 Zcoordinate

BUILDINGSURFACE:DETAILED,
    Block Build1_Alt0 Storey 0 Wall 0007,    !- Name
    wall,                     !- Surface Type
    Project Wall,             !- Construction Name
    Block Build1_Alt0 Storey 0,    !- Zone Name
    outdoors,                 !- Outside Boundary Condition
    ,                         !- Outside Boundary Condition Object
    SunExposed,               !- Sun Exposure
    WindExposed,              !- Wind Exposure
    autocalculate,            !- View Factor to Ground
    autocalculate,            !- Number of Vertices
    -7.9519,                  !- Vertex 1 Xcoordinate
    29.9649,                  !- Vertex 1 Ycoordinate
    27,                       !- Vertex 1 Zcoordinate
    -7.9519,                  !- Vertex 2 Xcoordinate
    29.9649,                  !- Vertex 2 Ycoordinate
    0,                        !- Vertex 2 Zcoordinate
    -15.6099,                 !- Vertex 3 Xcoordinate
    23.3799,                  !- Vertex 3 Ycoordinate
    0,                        !- Vertex 3 Zcoordinate
    -15.6099,                 !- Vertex 4 Xcoordinate
    23.3799,                  !- Vertex 4 Ycoordinate
    27;                       !- Vertex 4 Zcoordinate

BUILDINGSURFACE:DETAILED,
    Block Build1_Alt0 Storey 0 Wall 0008,    !- Name
    wall,                     !- Surface Type
    Project Wall,             !- Construction Name
    Block Build1_Alt0 Storey 0,    !- Zone Name
    outdoors,                 !- Outside Boundary Condition
    ,                         !- Outside Boundary Condition Object
    SunExposed,               !- Sun Exposure
    WindExposed,              !- Wind Exposure
    autocalculate,            !- View Factor to Ground
    autocalculate,            !- Number of Vertices
    -15.6099,                 !- Vertex 1 Xcoordinate
    23.3799,                  !- Vertex 1 Ycoordinate
    27,                       !- Vertex 1 Zcoordinate
    -15.6099,                 !- Vertex 2 Xcoordinate
    23.3799,                  !- Vertex 2 Ycoordinate
    0,                        !- Vertex 2 Zcoordinate
    -11.7949,                 !- Vertex 3 Xcoordinate
    18.9429,                  !- Vertex 3 Ycoordinate
    0,                        !- Vertex 3 Zcoordinate
    -11.7949,                 !- Vertex 4 Xcoordinate
    18.9429,                  !- Vertex 4 Ycoordinate
    27;                       !- Vertex 4 Zcoordinate

BUILDINGSURFACE:DETAILED,
    Block Build1_Alt0 Storey 0 Wall 0009,    !- Name
    wall,                     !- Surface Type
    Project Wall,             !- Construction Name
    Block Build1_Alt0 Storey 0,    !- Zone Name
    outdoors,                 !- Outside Boundary Condition
    ,                         !- Outside Boundary Condition Object
    SunExposed,               !- Sun Exposure
    WindExposed,              !- Wind Exposure
    autocalculate,            !- View Factor to Ground
    autocalculate,            !- Number of Vertices
    -11.7949,                 !- Vertex 1 Xcoordinate
    18.9429,                  !- Vertex 1 Ycoordinate
    27,                       !- Vertex 1 Zcoordinate
    -11.7949,                 !- Vertex 2 Xcoordinate
    18.9429,                  !- Vertex 2 Ycoordinate
    0,                        !- Vertex 2 Zcoordinate
    -16.4209,                 !- Vertex 3 Xcoordinate
    14.9659,                  !- Vertex 3 Ycoordinate
    0,                        !- Vertex 3 Zcoordinate
    -16.4209,                 !- Vertex 4 Xcoordinate
    14.9659,                  !- Vertex 4 Ycoordinate
    27;                       !- Vertex 4 Zcoordinate

BUILDINGSURFACE:DETAILED,
    Block Build1_Alt0 Storey 0 Wall 0010,    !- Name
    wall,                     !- Surface Type
    Project Wall,             !- Construction Name
    Block Build1_Alt0 Storey 0,    !- Zone Name
    outdoors,                 !- Outside Boundary Condition
    ,                         !- Outside Boundary Condition Object
    SunExposed,               !- Sun Exposure
    WindExposed,              !- Wind Exposure
    autocalculate,            !- View Factor to Ground
    autocalculate,            !- Number of Vertices
    -16.4209,                 !- Vertex 1 Xcoordinate
    14.9659,                  !- Vertex 1 Ycoordinate
    27,                       !- Vertex 1 Zcoordinate
    -16.4209,                 !- Vertex 2 Xcoordinate
    14.9659,                  !- Vertex 2 Ycoordinate
    0,                        !- Vertex 2 Zcoordinate
    -13.8139,                 !- Vertex 3 Xcoordinate
    11.9339,                  !- Vertex 3 Ycoordinate
    0,                        !- Vertex 3 Zcoordinate
    -13.8139,                 !- Vertex 4 Xcoordinate
    11.9339,                  !- Vertex 4 Ycoordinate
    27;                       !- Vertex 4 Zcoordinate

BUILDINGSURFACE:DETAILED,
    Block Build1_Alt0 Storey 0 Wall 0011,    !- Name
    wall,                     !- Surface Type
    Project Wall,             !- Construction Name
    Block Build1_Alt0 Storey 0,    !- Zone Name
    outdoors,                 !- Outside Boundary Condition
    ,                         !- Outside Boundary Condition Object
    SunExposed,               !- Sun Exposure
    WindExposed,              !- Wind Exposure
    autocalculate,            !- View Factor to Ground
    autocalculate,            !- Number of Vertices
    -13.8139,                 !- Vertex 1 Xcoordinate
    11.9339,                  !- Vertex 1 Ycoordinate
    27,                       !- Vertex 1 Zcoordinate
    -13.8139,                 !- Vertex 2 Xcoordinate
    11.9339,                  !- Vertex 2 Ycoordinate
    0,                        !- Vertex 2 Zcoordinate
    -16.8479,                 !- Vertex 3 Xcoordinate
    9.3249,                   !- Vertex 3 Ycoordinate
    0,                        !- Vertex 3 Zcoordinate
    -16.8479,                 !- Vertex 4 Xcoordinate
    9.3249,                   !- Vertex 4 Ycoordinate
    27;                       !- Vertex 4 Zcoordinate

BUILDINGSURFACE:DETAILED,
    Block Build1_Alt0 Storey 0 Wall 0012,    !- Name
    wall,                     !- Surface Type
    Project Wall,             !- Construction Name
    Block Build1_Alt0 Storey 0,    !- Zone Name
    outdoors,                 !- Outside Boundary Condition
    ,                         !- Outside Boundary Condition Object
    SunExposed,               !- Sun Exposure
    WindExposed,              !- Wind Exposure
    autocalculate,            !- View Factor to Ground
    autocalculate,            !- Number of Vertices
    -16.8479,                 !- Vertex 1 Xcoordinate
    9.3249,                   !- Vertex 1 Ycoordinate
    27,                       !- Vertex 1 Zcoordinate
    -16.8479,                 !- Vertex 2 Xcoordinate
    9.3249,                   !- Vertex 2 Ycoordinate
    0,                        !- Vertex 2 Zcoordinate
    -11.3969,                 !- Vertex 3 Xcoordinate
    2.9879,                   !- Vertex 3 Ycoordinate
    0,                        !- Vertex 3 Zcoordinate
    -11.3969,                 !- Vertex 4 Xcoordinate
    2.9879,                   !- Vertex 4 Ycoordinate
    27;                       !- Vertex 4 Zcoordinate

BUILDINGSURFACE:DETAILED,
    Block Build1_Alt0 Storey 0 Wall 0013,    !- Name
    wall,                     !- Surface Type
    Project Wall,             !- Construction Name
    Block Build1_Alt0 Storey 0,    !- Zone Name
    outdoors,                 !- Outside Boundary Condition
    ,                         !- Outside Boundary Condition Object
    SunExposed,               !- Sun Exposure
    WindExposed,              !- Wind Exposure
    autocalculate,            !- View Factor to Ground
    autocalculate,            !- Number of Vertices
    -11.3969,                 !- Vertex 1 Xcoordinate
    2.9879,                   !- Vertex 1 Ycoordinate
    27,                       !- Vertex 1 Zcoordinate
    -11.3969,                 !- Vertex 2 Xcoordinate
    2.9879,                   !- Vertex 2 Ycoordinate
    0,                        !- Vertex 2 Zcoordinate
    -8.3659,                  !- Vertex 3 Xcoordinate
    5.5939,                   !- Vertex 3 Ycoordinate
    0,                        !- Vertex 3 Zcoordinate
    -8.3659,                  !- Vertex 4 Xcoordinate
    5.5939,                   !- Vertex 4 Ycoordinate
    27;                       !- Vertex 4 Zcoordinate

BUILDINGSURFACE:DETAILED,
    Block Build1_Alt0 Storey 0 Wall 0014,    !- Name
    wall,                     !- Surface Type
    Project Wall,             !- Construction Name
    Block Build1_Alt0 Storey 0,    !- Zone Name
    outdoors,                 !- Outside Boundary Condition
    ,                         !- Outside Boundary Condition Object
    SunExposed,               !- Sun Exposure
    WindExposed,              !- Wind Exposure
    autocalculate,            !- View Factor to Ground
    autocalculate,            !- Number of Vertices
    -8.3659,                  !- Vertex 1 Xcoordinate
    5.5939,                   !- Vertex 1 Ycoordinate
    27,                       !- Vertex 1 Zcoordinate
    -8.3659,                  !- Vertex 2 Xcoordinate
    5.5939,                   !- Vertex 2 Ycoordinate
    0,                        !- Vertex 2 Zcoordinate
    -5.7569,                  !- Vertex 3 Xcoordinate
    2.5609,                   !- Vertex 3 Ycoordinate
    0,                        !- Vertex 3 Zcoordinate
    -5.7569,                  !- Vertex 4 Xcoordinate
    2.5609,                   !- Vertex 4 Ycoordinate
    27;                       !- Vertex 4 Zcoordinate

BUILDINGSURFACE:DETAILED,
    Block Build1_Alt0 Storey 0 Wall 0015,    !- Name
    wall,                     !- Surface Type
    Project Wall,             !- Construction Name
    Block Build1_Alt0 Storey 0,    !- Zone Name
    outdoors,                 !- Outside Boundary Condition
    ,                         !- Outside Boundary Condition Object
    SunExposed,               !- Sun Exposure
    WindExposed,              !- Wind Exposure
    autocalculate,            !- View Factor to Ground
    autocalculate,            !- Number of Vertices
    -5.7569,                  !- Vertex 1 Xcoordinate
    2.5609,                   !- Vertex 1 Ycoordinate
    27,                       !- Vertex 1 Zcoordinate
    -5.7569,                  !- Vertex 2 Xcoordinate
    2.5609,                   !- Vertex 2 Ycoordinate
    0,                        !- Vertex 2 Zcoordinate
    -1.1319,                  !- Vertex 3 Xcoordinate
    6.5369,                   !- Vertex 3 Ycoordinate
    0,                        !- Vertex 3 Zcoordinate
    -1.1319,                  !- Vertex 4 Xcoordinate
    6.5369,                   !- Vertex 4 Ycoordinate
    27;                       !- Vertex 4 Zcoordinate

BUILDINGSURFACE:DETAILED,
    Block Build1_Alt0 Storey 0 Wall 0016,    !- Name
    wall,                     !- Surface Type
    Project Wall,             !- Construction Name
    Block Build1_Alt0 Storey 0,    !- Zone Name
    outdoors,                 !- Outside Boundary Condition
    ,                         !- Outside Boundary Condition Object
    SunExposed,               !- Sun Exposure
    WindExposed,              !- Wind Exposure
    autocalculate,            !- View Factor to Ground
    autocalculate,            !- Number of Vertices
    -1.1319,                  !- Vertex 1 Xcoordinate
    6.5369,                   !- Vertex 1 Ycoordinate
    27,                       !- Vertex 1 Zcoordinate
    -1.1319,                  !- Vertex 2 Xcoordinate
    6.5369,                   !- Vertex 2 Ycoordinate
    0,                        !- Vertex 2 Zcoordinate
    3.4772,                   !- Vertex 3 Xcoordinate
    1.1763,                   !- Vertex 3 Ycoordinate
    0,                        !- Vertex 3 Zcoordinate
    3.4772,                   !- Vertex 4 Xcoordinate
    1.1763,                   !- Vertex 4 Ycoordinate
    27;                       !- Vertex 4 Zcoordinate

BUILDINGSURFACE:DETAILED,
    Block Build0_Alt0 Storey -1 Wall 0009_1,    !- Name
    wall,                     !- Surface Type
    Project Partition,        !- Construction Name
    Block Build0_Alt0 Storey -1,    !- Zone Name
    surface,                  !- Outside Boundary Condition
    Block Build1_Alt0 Storey -1 Wall 0001_1,    !- Outside Boundary Condition Object
    NoSun,                    !- Sun Exposure
    NoWind,                   !- Wind Exposure
    autocalculate,            !- View Factor to Ground
    autocalculate,            !- Number of Vertices
    10.255199999548495,       !- Vertex 1 Xcoordinate
    7.0666999996076205,       !- Vertex 1 Ycoordinate
    0,                        !- Vertex 1 Zcoordinate
    10.255199999548495,       !- Vertex 2 Xcoordinate
    7.0666999996076205,       !- Vertex 2 Ycoordinate
    -2.5,                     !- Vertex 2 Zcoordinate
    3.47719999961555,         !- Vertex 3 Xcoordinate
    1.176299999665897,        !- Vertex 3 Ycoordinate
    -2.5,                     !- Vertex 3 Zcoordinate
    3.47719999961555,         !- Vertex 4 Xcoordinate
    1.176299999665897,        !- Vertex 4 Ycoordinate
    0;                        !- Vertex 4 Zcoordinate

BUILDINGSURFACE:DETAILED,
    Block Build1_Alt0 Storey -1 Wall 0001_1,    !- Name
    wall,                     !- Surface Type
    Project Partition,        !- Construction Name
    Block Build1_Alt0 Storey -1,    !- Zone Name
    surface,                  !- Outside Boundary Condition
    Block Build0_Alt0 Storey -1 Wall 0009_1,    !- Outside Boundary Condition Object
    NoSun,                    !- Sun Exposure
    NoWind,                   !- Wind Exposure
    autocalculate,            !- View Factor to Ground
    autocalculate,            !- Number of Vertices
    3.47719999961555,         !- Vertex 1 Xcoordinate
    1.1762999996658958,       !- Vertex 1 Ycoordinate
    0,                        !- Vertex 1 Zcoordinate
    3.47719999961555,         !- Vertex 2 Xcoordinate
    1.1762999996658958,       !- Vertex 2 Ycoordinate
    -2.5,                     !- Vertex 2 Zcoordinate
    10.255199999548495,       !- Vertex 3 Xcoordinate
    7.06669999960762,         !- Vertex 3 Ycoordinate
    -2.5,                     !- Vertex 3 Zcoordinate
    10.255199999548495,       !- Vertex 4 Xcoordinate
    7.06669999960762,         !- Vertex 4 Ycoordinate
    0;                        !- Vertex 4 Zcoordinate

BUILDINGSURFACE:DETAILED,
    Block Build0_Alt0 Storey -1 Ceiling 0001_1,    !- Name
    ceiling,                  !- Surface Type
    Project Heated1rstFloor Rev,    !- Construction Name
    Block Build0_Alt0 Storey -1,    !- Zone Name
    surface,                  !- Outside Boundary Condition
    Block Build0_Alt0 Storey 0 Floor 0001_1,    !- Outside Boundary Condition Object
    NoSun,                    !- Sun Exposure
    NoWind,                   !- Wind Exposure
    autocalculate,            !- View Factor to Ground
    autocalculate,            !- Number of Vertices
    17.826099999714643,       !- Vertex 1 Xcoordinate
    -16.74209999991581,       !- Vertex 1 Ycoordinate
    0,                        !- Vertex 1 Zcoordinate
    18.594099999871105,       !- Vertex 2 Xcoordinate
    -6.86809999961406,        !- Vertex 2 Ycoordinate
    0,                        !- Vertex 2 Zcoordinate
    22.58309999993071,        !- Vertex 3 Xcoordinate
    -7.155099999625236,       !- Vertex 3 Ycoordinate
    0,                        !- Vertex 3 Zcoordinate
    23.16509999986738,        !- Vertex 4 Xcoordinate
    -5.510000e-02,            !- Vertex 4 Ycoordinate
    0,                        !- Vertex 4 Zcoordinate
    15.82509999955073,        !- Vertex 5 Xcoordinate
    0.5878999996930361,       !- Vertex 5 Ycoordinate
    0,                        !- Vertex 5 Zcoordinate
    10.255199999548495,       !- Vertex 6 Xcoordinate
    7.066699999850243,        !- Vertex 6 Ycoordinate
    0,                        !- Vertex 6 Zcoordinate
    3.47719999961555,         !- Vertex 7 Xcoordinate
    1.1762999999336898,       !- Vertex 7 Ycoordinate
    0,                        !- Vertex 7 Zcoordinate
    8.380099999718368,        !- Vertex 8 Xcoordinate
    -4.526099999900907,       !- Vertex 8 Ycoordinate
    0,                        !- Vertex 8 Zcoordinate
    7.56209999974817,         !- Vertex 9 Xcoordinate
    -1.599110e+01,            !- Vertex 9 Ycoordinate
    0;                        !- Vertex 9 Zcoordinate

BUILDINGSURFACE:DETAILED,
    Block Build0_Alt0 Storey 0 Floor 0001_1,    !- Name
    floor,                    !- Surface Type
    Project Heated1rstFloor,    !- Construction Name
    Block Build0_Alt0 Storey 0,    !- Zone Name
    surface,                  !- Outside Boundary Condition
    Block Build0_Alt0 Storey -1 Ceiling 0001_1,    !- Outside Boundary Condition Object
    NoSun,                    !- Sun Exposure
    NoWind,                   !- Wind Exposure
    autocalculate,            !- View Factor to Ground
    autocalculate,            !- Number of Vertices
    23.16509999986738,        !- Vertex 1 Xcoordinate
    -5.510000e-02,            !- Vertex 1 Ycoordinate
    0,                        !- Vertex 1 Zcoordinate
    22.58309999993071,        !- Vertex 2 Xcoordinate
    -7.155099999625236,       !- Vertex 2 Ycoordinate
    0,                        !- Vertex 2 Zcoordinate
    18.594099999871105,       !- Vertex 3 Xcoordinate
    -6.86809999961406,        !- Vertex 3 Ycoordinate
    0,                        !- Vertex 3 Zcoordinate
    17.826099999714643,       !- Vertex 4 Xcoordinate
    -16.74209999991581,       !- Vertex 4 Ycoordinate
    0,                        !- Vertex 4 Zcoordinate
    7.56209999974817,         !- Vertex 5 Xcoordinate
    -1.599110e+01,            !- Vertex 5 Ycoordinate
    0,                        !- Vertex 5 Zcoordinate
    8.380099999718368,        !- Vertex 6 Xcoordinate
    -4.526099999900907,       !- Vertex 6 Ycoordinate
    0,                        !- Vertex 6 Zcoordinate
    3.47719999961555,         !- Vertex 7 Xcoordinate
    1.1762999999336898,       !- Vertex 7 Ycoordinate
    0,                        !- Vertex 7 Zcoordinate
    10.255199999548495,       !- Vertex 8 Xcoordinate
    7.066699999850243,        !- Vertex 8 Ycoordinate
    0,                        !- Vertex 8 Zcoordinate
    15.82509999955073,        !- Vertex 9 Xcoordinate
    0.5878999996930361,       !- Vertex 9 Ycoordinate
    0;                        !- Vertex 9 Zcoordinate

BUILDINGSURFACE:DETAILED,
    Block Build0_Alt0 Storey 0 Wall 0009_1,    !- Name
    wall,                     !- Surface Type
    Project Partition,        !- Construction Name
    Block Build0_Alt0 Storey 0,    !- Zone Name
    surface,                  !- Outside Boundary Condition
    Block Build1_Alt0 Storey 0 Wall 0001_2,    !- Outside Boundary Condition Object
    NoSun,                    !- Sun Exposure
    NoWind,                   !- Wind Exposure
    autocalculate,            !- View Factor to Ground
    autocalculate,            !- Number of Vertices
    10.255199999548495,       !- Vertex 1 Xcoordinate
    7.0666999996076205,       !- Vertex 1 Ycoordinate
    15,                       !- Vertex 1 Zcoordinate
    10.255199999548495,       !- Vertex 2 Xcoordinate
    7.0666999996076205,       !- Vertex 2 Ycoordinate
    0,                        !- Vertex 2 Zcoordinate
    3.47719999961555,         !- Vertex 3 Xcoordinate
    1.176299999665895,        !- Vertex 3 Ycoordinate
    0,                        !- Vertex 3 Zcoordinate
    3.47719999961555,         !- Vertex 4 Xcoordinate
    1.176299999665895,        !- Vertex 4 Ycoordinate
    15;                       !- Vertex 4 Zcoordinate

BUILDINGSURFACE:DETAILED,
    Block Build1_Alt0 Storey 0 Wall 0001_1,    !- Name
    wall,                     !- Surface Type
    Project Wall,             !- Construction Name
    Block Build1_Alt0 Storey 0,    !- Zone Name
    outdoors,                 !- Outside Boundary Condition
    ,                         !- Outside Boundary Condition Object
    SunExposed,               !- Sun Exposure
    WindExposed,              !- Wind Exposure
    autocalculate,            !- View Factor to Ground
    autocalculate,            !- Number of Vertices
    3.47719999961555,         !- Vertex 1 Xcoordinate
    1.176299999665895,        !- Vertex 1 Ycoordinate
    27,                       !- Vertex 1 Zcoordinate
    3.47719999961555,         !- Vertex 2 Xcoordinate
    1.176299999665895,        !- Vertex 2 Ycoordinate
    15,                       !- Vertex 2 Zcoordinate
    10.255199999548495,       !- Vertex 3 Xcoordinate
    7.0666999996076205,       !- Vertex 3 Ycoordinate
    15,                       !- Vertex 3 Zcoordinate
    10.255199999548495,       !- Vertex 4 Xcoordinate
    7.0666999996076205,       !- Vertex 4 Ycoordinate
    27;                       !- Vertex 4 Zcoordinate

BUILDINGSURFACE:DETAILED,
    Block Build1_Alt0 Storey 0 Wall 0001_2,    !- Name
    wall,                     !- Surface Type
    Project Partition,        !- Construction Name
    Block Build1_Alt0 Storey 0,    !- Zone Name
    surface,                  !- Outside Boundary Condition
    Block Build0_Alt0 Storey 0 Wall 0009_1,    !- Outside Boundary Condition Object
    NoSun,                    !- Sun Exposure
    NoWind,                   !- Wind Exposure
    autocalculate,            !- View Factor to Ground
    autocalculate,            !- Number of Vertices
    3.47719999961555,         !- Vertex 1 Xcoordinate
    1.176299999665895,        !- Vertex 1 Ycoordinate
    15,                       !- Vertex 1 Zcoordinate
    3.47719999961555,         !- Vertex 2 Xcoordinate
    1.176299999665895,        !- Vertex 2 Ycoordinate
    0,                        !- Vertex 2 Zcoordinate
    10.255199999548495,       !- Vertex 3 Xcoordinate
    7.0666999996076205,       !- Vertex 3 Ycoordinate
    0,                        !- Vertex 3 Zcoordinate
    10.255199999548495,       !- Vertex 4 Xcoordinate
    7.0666999996076205,       !- Vertex 4 Ycoordinate
    15;                       !- Vertex 4 Zcoordinate

BUILDINGSURFACE:DETAILED,
    Block Build1_Alt0 Storey -1 Ceiling 0001_1,    !- Name
    ceiling,                  !- Surface Type
    Project Heated1rstFloor Rev,    !- Construction Name
    Block Build1_Alt0 Storey -1,    !- Zone Name
    surface,                  !- Outside Boundary Condition
    Block Build1_Alt0 Storey 0 Floor 0001_1,    !- Outside Boundary Condition Object
    NoSun,                    !- Sun Exposure
    NoWind,                   !- Wind Exposure
    autocalculate,            !- View Factor to Ground
    autocalculate,            !- Number of Vertices
    10.255199999548495,       !- Vertex 1 Xcoordinate
    7.066699999850243,        !- Vertex 1 Ycoordinate
    0,                        !- Vertex 1 Zcoordinate
    3.6050999998115003,       !- Vertex 2 Xcoordinate
    14.801899999845773,       !- Vertex 2 Ycoordinate
    0,                        !- Vertex 2 Zcoordinate
    9.7640999997966,          !- Vertex 3 Xcoordinate
    20.096899999771267,       !- Vertex 3 Ycoordinate
    0,                        !- Vertex 3 Zcoordinate
    3.164099999703467,        !- Vertex 4 Xcoordinate
    27.743899999652058,       !- Vertex 4 Ycoordinate
    0,                        !- Vertex 4 Zcoordinate
    -2.128900e+00,            !- Vertex 5 Xcoordinate
    23.172899999655783,       !- Vertex 5 Ycoordinate
    0,                        !- Vertex 5 Zcoordinate
    -7.951899999752641,       !- Vertex 6 Xcoordinate
    29.9648999995552,         !- Vertex 6 Ycoordinate
    0,                        !- Vertex 6 Zcoordinate
    -1.560990e+01,            !- Vertex 7 Xcoordinate
    23.379899999592453,       !- Vertex 7 Ycoordinate
    0,                        !- Vertex 7 Zcoordinate
    -1.179490e+01,            !- Vertex 8 Xcoordinate
    18.94289999967441,        !- Vertex 8 Ycoordinate
    0,                        !- Vertex 8 Zcoordinate
    -16.42089999979362,       !- Vertex 9 Xcoordinate
    14.965899999719113,       !- Vertex 9 Ycoordinate
    0,                        !- Vertex 9 Zcoordinate
    -1.381390e+01,            !- Vertex 10 Xcoordinate
    11.933899999596179,       !- Vertex 10 Ycoordinate
    0,                        !- Vertex 10 Zcoordinate
    -16.84789999993518,       !- Vertex 11 Xcoordinate
    9.324899999890476,        !- Vertex 11 Ycoordinate
    0,                        !- Vertex 11 Zcoordinate
    -1.139690e+01,            !- Vertex 12 Xcoordinate
    2.987899999599904,        !- Vertex 12 Ycoordinate
    0,                        !- Vertex 12 Zcoordinate
    -8.36589999962598,        !- Vertex 13 Xcoordinate
    5.59389999974519,         !- Vertex 13 Ycoordinate
    0,                        !- Vertex 13 Zcoordinate
    -5.756899999920279,       !- Vertex 14 Xcoordinate
    2.560899999924004,        !- Vertex 14 Ycoordinate
    0,                        !- Vertex 14 Zcoordinate
    -1.131900e+00,            !- Vertex 15 Xcoordinate
    6.536899999715388,        !- Vertex 15 Ycoordinate
    0,                        !- Vertex 15 Zcoordinate
    3.47719999961555,         !- Vertex 16 Xcoordinate
    1.1762999999336898,       !- Vertex 16 Ycoordinate
    0;                        !- Vertex 16 Zcoordinate

BUILDINGSURFACE:DETAILED,
    Block Build1_Alt0 Storey 0 Floor 0001_1,    !- Name
    floor,                    !- Surface Type
    Project Heated1rstFloor,    !- Construction Name
    Block Build1_Alt0 Storey 0,    !- Zone Name
    surface,                  !- Outside Boundary Condition
    Block Build1_Alt0 Storey -1 Ceiling 0001_1,    !- Outside Boundary Condition Object
    NoSun,                    !- Sun Exposure
    NoWind,                   !- Wind Exposure
    autocalculate,            !- View Factor to Ground
    autocalculate,            !- Number of Vertices
    3.164099999703467,        !- Vertex 1 Xcoordinate
    27.743899999652058,       !- Vertex 1 Ycoordinate
    0,                        !- Vertex 1 Zcoordinate
    9.7640999997966,          !- Vertex 2 Xcoordinate
    20.096899999771267,       !- Vertex 2 Ycoordinate
    0,                        !- Vertex 2 Zcoordinate
    3.6050999998115003,       !- Vertex 3 Xcoordinate
    14.801899999845773,       !- Vertex 3 Ycoordinate
    0,                        !- Vertex 3 Zcoordinate
    10.255199999548495,       !- Vertex 4 Xcoordinate
    7.066699999850243,        !- Vertex 4 Ycoordinate
    0,                        !- Vertex 4 Zcoordinate
    3.47719999961555,         !- Vertex 5 Xcoordinate
    1.1762999999336898,       !- Vertex 5 Ycoordinate
    0,                        !- Vertex 5 Zcoordinate
    -1.131900e+00,            !- Vertex 6 Xcoordinate
    6.536899999715388,        !- Vertex 6 Ycoordinate
    0,                        !- Vertex 6 Zcoordinate
    -5.756899999920279,       !- Vertex 7 Xcoordinate
    2.560899999924004,        !- Vertex 7 Ycoordinate
    0,                        !- Vertex 7 Zcoordinate
    -8.36589999962598,        !- Vertex 8 Xcoordinate
    5.59389999974519,         !- Vertex 8 Ycoordinate
    0,                        !- Vertex 8 Zcoordinate
    -1.139690e+01,            !- Vertex 9 Xcoordinate
    2.987899999599904,        !- Vertex 9 Ycoordinate
    0,                        !- Vertex 9 Zcoordinate
    -16.84789999993518,       !- Vertex 10 Xcoordinate
    9.324899999890476,        !- Vertex 10 Ycoordinate
    0,                        !- Vertex 10 Zcoordinate
    -1.381390e+01,            !- Vertex 11 Xcoordinate
    11.933899999596179,       !- Vertex 11 Ycoordinate
    0,                        !- Vertex 11 Zcoordinate
    -16.42089999979362,       !- Vertex 12 Xcoordinate
    14.965899999719113,       !- Vertex 12 Ycoordinate
    0,                        !- Vertex 12 Zcoordinate
    -1.179490e+01,            !- Vertex 13 Xcoordinate
    18.94289999967441,        !- Vertex 13 Ycoordinate
    0,                        !- Vertex 13 Zcoordinate
    -1.560990e+01,            !- Vertex 14 Xcoordinate
    23.379899999592453,       !- Vertex 14 Ycoordinate
    0,                        !- Vertex 14 Zcoordinate
    -7.951899999752641,       !- Vertex 15 Xcoordinate
    29.9648999995552,         !- Vertex 15 Ycoordinate
    0,                        !- Vertex 15 Zcoordinate
    -2.128900e+00,            !- Vertex 16 Xcoordinate
    23.172899999655783,       !- Vertex 16 Ycoordinate
    0;                        !- Vertex 16 Zcoordinate

BUILDINGSURFACE:DETAILED,
    Block Build0_Alt0 Storey 0 Roof 0001_0,    !- Name
    roof,                     !- Surface Type
    Project Flat Roof,        !- Construction Name
    Block Build0_Alt0 Storey 0,    !- Zone Name
    outdoors,                 !- Outside Boundary Condition
    ,                         !- Outside Boundary Condition Object
    SunExposed,               !- Sun Exposure
    WindExposed,              !- Wind Exposure
    autocalculate,            !- View Factor to Ground
    autocalculate,            !- Number of Vertices
    22.5831,                  !- Vertex 1 Xcoordinate
    -7.1551,                  !- Vertex 1 Ycoordinate
    15,                       !- Vertex 1 Zcoordinate
    23.1651,                  !- Vertex 2 Xcoordinate
    -0.0551,                  !- Vertex 2 Ycoordinate
    15,                       !- Vertex 2 Zcoordinate
    15.8251,                  !- Vertex 3 Xcoordinate
    0.5879,                   !- Vertex 3 Ycoordinate
    15,                       !- Vertex 3 Zcoordinate
    18.5941,                  !- Vertex 4 Xcoordinate
    -6.8681,                  !- Vertex 4 Ycoordinate
    15;                       !- Vertex 4 Zcoordinate

BUILDINGSURFACE:DETAILED,
    Block Build0_Alt0 Storey 0 Roof 0001_1,    !- Name
    roof,                     !- Surface Type
    Project Flat Roof,        !- Construction Name
    Block Build0_Alt0 Storey 0,    !- Zone Name
    outdoors,                 !- Outside Boundary Condition
    ,                         !- Outside Boundary Condition Object
    SunExposed,               !- Sun Exposure
    WindExposed,              !- Wind Exposure
    autocalculate,            !- View Factor to Ground
    autocalculate,            !- Number of Vertices
    18.5941,                  !- Vertex 1 Xcoordinate
    -6.8681,                  !- Vertex 1 Ycoordinate
    15,                       !- Vertex 1 Zcoordinate
    15.8251,                  !- Vertex 2 Xcoordinate
    0.5879,                   !- Vertex 2 Ycoordinate
    15,                       !- Vertex 2 Zcoordinate
    10.2552,                  !- Vertex 3 Xcoordinate
    7.0667,                   !- Vertex 3 Ycoordinate
    15,                       !- Vertex 3 Zcoordinate
    3.4772,                   !- Vertex 4 Xcoordinate
    1.1763,                   !- Vertex 4 Ycoordinate
    15,                       !- Vertex 4 Zcoordinate
    8.3801,                   !- Vertex 5 Xcoordinate
    -4.5261,                  !- Vertex 5 Ycoordinate
    15;                       !- Vertex 5 Zcoordinate

BUILDINGSURFACE:DETAILED,
    Block Build0_Alt0 Storey 0 Roof 0001_2,    !- Name
    roof,                     !- Surface Type
    Project Flat Roof,        !- Construction Name
    Block Build0_Alt0 Storey 0,    !- Zone Name
    outdoors,                 !- Outside Boundary Condition
    ,                         !- Outside Boundary Condition Object
    SunExposed,               !- Sun Exposure
    WindExposed,              !- Wind Exposure
    autocalculate,            !- View Factor to Ground
    autocalculate,            !- Number of Vertices
    17.8261,                  !- Vertex 1 Xcoordinate
    -16.7421,                 !- Vertex 1 Ycoordinate
    15,                       !- Vertex 1 Zcoordinate
    18.5941,                  !- Vertex 2 Xcoordinate
    -6.8681,                  !- Vertex 2 Ycoordinate
    15,                       !- Vertex 2 Zcoordinate
    8.3801,                   !- Vertex 3 Xcoordinate
    -4.5261,                  !- Vertex 3 Ycoordinate
    15,                       !- Vertex 3 Zcoordinate
    7.5621,                   !- Vertex 4 Xcoordinate
    -15.9911,                 !- Vertex 4 Ycoordinate
    15;                       !- Vertex 4 Zcoordinate

BUILDINGSURFACE:DETAILED,
    Block Build1_Alt0 Storey 0 Roof 0001_0,    !- Name
    roof,                     !- Surface Type
    Project Flat Roof,        !- Construction Name
    Block Build1_Alt0 Storey 0,    !- Zone Name
    outdoors,                 !- Outside Boundary Condition
    ,                         !- Outside Boundary Condition Object
    SunExposed,               !- Sun Exposure
    WindExposed,              !- Wind Exposure
    autocalculate,            !- View Factor to Ground
    autocalculate,            !- Number of Vertices
    10.2552,                  !- Vertex 1 Xcoordinate
    7.0667,                   !- Vertex 1 Ycoordinate
    27,                       !- Vertex 1 Zcoordinate
    3.6051,                   !- Vertex 2 Xcoordinate
    14.8019,                  !- Vertex 2 Ycoordinate
    27,                       !- Vertex 2 Zcoordinate
    3.4772,                   !- Vertex 3 Xcoordinate
    1.1763,                   !- Vertex 3 Ycoordinate
    27;                       !- Vertex 3 Zcoordinate

BUILDINGSURFACE:DETAILED,
    Block Build1_Alt0 Storey 0 Roof 0001_1,    !- Name
    roof,                     !- Surface Type
    Project Flat Roof,        !- Construction Name
    Block Build1_Alt0 Storey 0,    !- Zone Name
    outdoors,                 !- Outside Boundary Condition
    ,                         !- Outside Boundary Condition Object
    SunExposed,               !- Sun Exposure
    WindExposed,              !- Wind Exposure
    autocalculate,            !- View Factor to Ground
    autocalculate,            !- Number of Vertices
    -1.1319,                  !- Vertex 1 Xcoordinate
    6.5369,                   !- Vertex 1 Ycoordinate
    27,                       !- Vertex 1 Zcoordinate
    -13.8139,                 !- Vertex 2 Xcoordinate
    11.9339,                  !- Vertex 2 Ycoordinate
    27,                       !- Vertex 2 Zcoordinate
    -8.3659,                  !- Vertex 3 Xcoordinate
    5.5939,                   !- Vertex 3 Ycoordinate
    27,                       !- Vertex 3 Zcoordinate
    -5.7569,                  !- Vertex 4 Xcoordinate
    2.5609,                   !- Vertex 4 Ycoordinate
    27;                       !- Vertex 4 Zcoordinate

BUILDINGSURFACE:DETAILED,
    Block Build1_Alt0 Storey 0 Roof 0001_2,    !- Name
    roof,                     !- Surface Type
    Project Flat Roof,        !- Construction Name
    Block Build1_Alt0 Storey 0,    !- Zone Name
    outdoors,                 !- Outside Boundary Condition
    ,                         !- Outside Boundary Condition Object
    SunExposed,               !- Sun Exposure
    WindExposed,              !- Wind Exposure
    autocalculate,            !- View Factor to Ground
    autocalculate,            !- Number of Vertices
    -8.3659,                  !- Vertex 1 Xcoordinate
    5.5939,                   !- Vertex 1 Ycoordinate
    27,                       !- Vertex 1 Zcoordinate
    -13.8139,                 !- Vertex 2 Xcoordinate
    11.9339,                  !- Vertex 2 Ycoordinate
    27,                       !- Vertex 2 Zcoordinate
    -16.8479,                 !- Vertex 3 Xcoordinate
    9.3249,                   !- Vertex 3 Ycoordinate
    27,                       !- Vertex 3 Zcoordinate
    -11.3969,                 !- Vertex 4 Xcoordinate
    2.9879,                   !- Vertex 4 Ycoordinate
    27;                       !- Vertex 4 Zcoordinate

BUILDINGSURFACE:DETAILED,
    Block Build1_Alt0 Storey 0 Roof 0001_3,    !- Name
    roof,                     !- Surface Type
    Project Flat Roof,        !- Construction Name
    Block Build1_Alt0 Storey 0,    !- Zone Name
    outdoors,                 !- Outside Boundary Condition
    ,                         !- Outside Boundary Condition Object
    SunExposed,               !- Sun Exposure
    WindExposed,              !- Wind Exposure
    autocalculate,            !- View Factor to Ground
    autocalculate,            !- Number of Vertices
    -2.1289,                  !- Vertex 1 Xcoordinate
    23.1729,                  !- Vertex 1 Ycoordinate
    27,                       !- Vertex 1 Zcoordinate
    -7.9519,                  !- Vertex 2 Xcoordinate
    29.9649,                  !- Vertex 2 Ycoordinate
    27,                       !- Vertex 2 Zcoordinate
    -15.6099,                 !- Vertex 3 Xcoordinate
    23.3799,                  !- Vertex 3 Ycoordinate
    27,                       !- Vertex 3 Zcoordinate
    -11.7949,                 !- Vertex 4 Xcoordinate
    18.9429,                  !- Vertex 4 Ycoordinate
    27;                       !- Vertex 4 Zcoordinate

BUILDINGSURFACE:DETAILED,
    Block Build1_Alt0 Storey 0 Roof 0001_4,    !- Name
    roof,                     !- Surface Type
    Project Flat Roof,        !- Construction Name
    Block Build1_Alt0 Storey 0,    !- Zone Name
    outdoors,                 !- Outside Boundary Condition
    ,                         !- Outside Boundary Condition Object
    SunExposed,               !- Sun Exposure
    WindExposed,              !- Wind Exposure
    autocalculate,            !- View Factor to Ground
    autocalculate,            !- Number of Vertices
    3.4772,                   !- Vertex 1 Xcoordinate
    1.1763,                   !- Vertex 1 Ycoordinate
    27,                       !- Vertex 1 Zcoordinate
    3.6051,                   !- Vertex 2 Xcoordinate
    14.8019,                  !- Vertex 2 Ycoordinate
    27,                       !- Vertex 2 Zcoordinate
    -2.1289,                  !- Vertex 3 Xcoordinate
    23.1729,                  !- Vertex 3 Ycoordinate
    27,                       !- Vertex 3 Zcoordinate
    -1.1319,                  !- Vertex 4 Xcoordinate
    6.5369,                   !- Vertex 4 Ycoordinate
    27;                       !- Vertex 4 Zcoordinate

BUILDINGSURFACE:DETAILED,
    Block Build1_Alt0 Storey 0 Roof 0001_5,    !- Name
    roof,                     !- Surface Type
    Project Flat Roof,        !- Construction Name
    Block Build1_Alt0 Storey 0,    !- Zone Name
    outdoors,                 !- Outside Boundary Condition
    ,                         !- Outside Boundary Condition Object
    SunExposed,               !- Sun Exposure
    WindExposed,              !- Wind Exposure
    autocalculate,            !- View Factor to Ground
    autocalculate,            !- Number of Vertices
    9.7641,                   !- Vertex 1 Xcoordinate
    20.0969,                  !- Vertex 1 Ycoordinate
    27,                       !- Vertex 1 Zcoordinate
    3.1641,                   !- Vertex 2 Xcoordinate
    27.7439,                  !- Vertex 2 Ycoordinate
    27,                       !- Vertex 2 Zcoordinate
    -2.1289,                  !- Vertex 3 Xcoordinate
    23.1729,                  !- Vertex 3 Ycoordinate
    27,                       !- Vertex 3 Zcoordinate
    3.6051,                   !- Vertex 4 Xcoordinate
    14.8019,                  !- Vertex 4 Ycoordinate
    27;                       !- Vertex 4 Zcoordinate

BUILDINGSURFACE:DETAILED,
    Block Build1_Alt0 Storey 0 Roof 0001_6,    !- Name
    roof,                     !- Surface Type
    Project Flat Roof,        !- Construction Name
    Block Build1_Alt0 Storey 0,    !- Zone Name
    outdoors,                 !- Outside Boundary Condition
    ,                         !- Outside Boundary Condition Object
    SunExposed,               !- Sun Exposure
    WindExposed,              !- Wind Exposure
    autocalculate,            !- View Factor to Ground
    autocalculate,            !- Number of Vertices
    -1.1319,                  !- Vertex 1 Xcoordinate
    6.5369,                   !- Vertex 1 Ycoordinate
    27,                       !- Vertex 1 Zcoordinate
    -2.1289,                  !- Vertex 2 Xcoordinate
    23.1729,                  !- Vertex 2 Ycoordinate
    27,                       !- Vertex 2 Zcoordinate
    -11.7949,                 !- Vertex 3 Xcoordinate
    18.9429,                  !- Vertex 3 Ycoordinate
    27,                       !- Vertex 3 Zcoordinate
    -16.4209,                 !- Vertex 4 Xcoordinate
    14.9659,                  !- Vertex 4 Ycoordinate
    27,                       !- Vertex 4 Zcoordinate
    -13.8139,                 !- Vertex 5 Xcoordinate
    11.9339,                  !- Vertex 5 Ycoordinate
    27;                       !- Vertex 5 Zcoordinate

FENESTRATIONSURFACE:DETAILED,
    Block Build0_Alt0 Storey 0 Wall 0001 window,    !- Name
    Window,                   !- Surface Type
    Project External Window,    !- Construction Name
    Block Build0_Alt0 Storey 0 Wall 0001,    !- Building Surface Name
    ,                         !- Outside Boundary Condition Object
    autocalculate,            !- View Factor to Ground
    ,                         !- Frame and Divider Name
    1.0,                      !- Multiplier
    autocalculate,            !- Number of Vertices
    3.47965145,               !- Vertex 1 Xcoordinate
    1.1734487999999998,       !- Vertex 1 Ycoordinate
    9.75,                     !- Vertex 1 Zcoordinate
    3.47965145,               !- Vertex 2 Xcoordinate
    1.1734487999999998,       !- Vertex 2 Ycoordinate
    5.25,                     !- Vertex 2 Zcoordinate
    8.37764855,               !- Vertex 3 Xcoordinate
    -4.523248799999999,       !- Vertex 3 Ycoordinate
    5.25,                     !- Vertex 3 Zcoordinate
    8.37764855,               !- Vertex 4 Xcoordinate
    -4.523248799999999,       !- Vertex 4 Ycoordinate
    9.75;                     !- Vertex 4 Zcoordinate

FENESTRATIONSURFACE:DETAILED,
    Block Build0_Alt0 Storey 0 Wall 0002 window,    !- Name
    Window,                   !- Surface Type
    Project External Window,    !- Construction Name
    Block Build0_Alt0 Storey 0 Wall 0002,    !- Building Surface Name
    ,                         !- Outside Boundary Condition Object
    autocalculate,            !- View Factor to Ground
    ,                         !- Frame and Divider Name
    1.0,                      !- Multiplier
    autocalculate,            !- Number of Vertices
    8.379691000000001,        !- Vertex 1 Xcoordinate
    -4.531832499999999,       !- Vertex 1 Ycoordinate
    9.75,                     !- Vertex 1 Zcoordinate
    8.379691000000001,        !- Vertex 2 Xcoordinate
    -4.531832499999999,       !- Vertex 2 Ycoordinate
    5.25,                     !- Vertex 2 Zcoordinate
    7.562509,                 !- Vertex 3 Xcoordinate
    -1.598537e+01,            !- Vertex 3 Ycoordinate
    5.25,                     !- Vertex 3 Zcoordinate
    7.562509,                 !- Vertex 4 Xcoordinate
    -1.598537e+01,            !- Vertex 4 Ycoordinate
    9.75;                     !- Vertex 4 Zcoordinate

FENESTRATIONSURFACE:DETAILED,
    Block Build0_Alt0 Storey 0 Wall 0003 window,    !- Name
    Window,                   !- Surface Type
    Project External Window,    !- Construction Name
    Block Build0_Alt0 Storey 0 Wall 0003,    !- Building Surface Name
    ,                         !- Outside Boundary Condition Object
    autocalculate,            !- View Factor to Ground
    ,                         !- Frame and Divider Name
    1.0,                      !- Multiplier
    autocalculate,            !- Number of Vertices
    7.567232,                 !- Vertex 1 Xcoordinate
    -15.9914755,              !- Vertex 1 Ycoordinate
    9.75,                     !- Vertex 1 Zcoordinate
    7.567232,                 !- Vertex 2 Xcoordinate
    -15.9914755,              !- Vertex 2 Ycoordinate
    5.25,                     !- Vertex 2 Zcoordinate
    17.820968,                !- Vertex 3 Xcoordinate
    -16.7417245,              !- Vertex 3 Ycoordinate
    5.25,                     !- Vertex 3 Zcoordinate
    17.820968,                !- Vertex 4 Xcoordinate
    -16.7417245,              !- Vertex 4 Ycoordinate
    9.75;                     !- Vertex 4 Zcoordinate

FENESTRATIONSURFACE:DETAILED,
    Block Build0_Alt0 Storey 0 Wall 0004 window,    !- Name
    Window,                   !- Surface Type
    Project External Window,    !- Construction Name
    Block Build0_Alt0 Storey 0 Wall 0004,    !- Building Surface Name
    ,                         !- Outside Boundary Condition Object
    autocalculate,            !- View Factor to Ground
    ,                         !- Frame and Divider Name
    1.0,                      !- Multiplier
    autocalculate,            !- Number of Vertices
    17.826484,                !- Vertex 1 Xcoordinate
    -1.673716e+01,            !- Vertex 1 Ycoordinate
    9.75,                     !- Vertex 1 Zcoordinate
    17.826484,                !- Vertex 2 Xcoordinate
    -1.673716e+01,            !- Vertex 2 Ycoordinate
    5.25,                     !- Vertex 2 Zcoordinate
    18.593716,                !- Vertex 3 Xcoordinate
    -6.873037,                !- Vertex 3 Ycoordinate
    5.25,                     !- Vertex 3 Zcoordinate
    18.593716,                !- Vertex 4 Xcoordinate
    -6.873037,                !- Vertex 4 Ycoordinate
    9.75;                     !- Vertex 4 Zcoordinate

FENESTRATIONSURFACE:DETAILED,
    Block Build0_Alt0 Storey 0 Wall 0005 window,    !- Name
    Window,                   !- Surface Type
    Project External Window,    !- Construction Name
    Block Build0_Alt0 Storey 0 Wall 0005,    !- Building Surface Name
    ,                         !- Outside Boundary Condition Object
    autocalculate,            !- View Factor to Ground
    ,                         !- Frame and Divider Name
    1.0,                      !- Multiplier
    autocalculate,            !- Number of Vertices
    18.5960945,               !- Vertex 1 Xcoordinate
    -6.8682435,               !- Vertex 1 Ycoordinate
    9.75,                     !- Vertex 1 Zcoordinate
    18.5960945,               !- Vertex 2 Xcoordinate
    -6.8682435,               !- Vertex 2 Ycoordinate
    5.25,                     !- Vertex 2 Zcoordinate
    22.581105500000003,       !- Vertex 3 Xcoordinate
    -7.1549565,               !- Vertex 3 Ycoordinate
    5.25,                     !- Vertex 3 Zcoordinate
    22.581105500000003,       !- Vertex 4 Xcoordinate
    -7.1549565,               !- Vertex 4 Ycoordinate
    9.75;                     !- Vertex 4 Zcoordinate

FENESTRATIONSURFACE:DETAILED,
    Block Build0_Alt0 Storey 0 Wall 0006 window,    !- Name
    Window,                   !- Surface Type
    Project External Window,    !- Construction Name
    Block Build0_Alt0 Storey 0 Wall 0006,    !- Building Surface Name
    ,                         !- Outside Boundary Condition Object
    autocalculate,            !- View Factor to Ground
    ,                         !- Frame and Divider Name
    1.0,                      !- Multiplier
    autocalculate,            !- Number of Vertices
    22.583391000000002,       !- Vertex 1 Xcoordinate
    -7.15155,                 !- Vertex 1 Ycoordinate
    9.75,                     !- Vertex 1 Zcoordinate
    22.583391000000002,       !- Vertex 2 Xcoordinate
    -7.15155,                 !- Vertex 2 Ycoordinate
    5.25,                     !- Vertex 2 Zcoordinate
    23.164808999999998,       !- Vertex 3 Xcoordinate
    -5.865000e-02,            !- Vertex 3 Ycoordinate
    5.25,                     !- Vertex 3 Zcoordinate
    23.164808999999998,       !- Vertex 4 Xcoordinate
    -5.865000e-02,            !- Vertex 4 Ycoordinate
    9.75;                     !- Vertex 4 Zcoordinate

FENESTRATIONSURFACE:DETAILED,
    Block Build0_Alt0 Storey 0 Wall 0007 window,    !- Name
    Window,                   !- Surface Type
    Project External Window,    !- Construction Name
    Block Build0_Alt0 Storey 0 Wall 0007,    !- Building Surface Name
    ,                         !- Outside Boundary Condition Object
    autocalculate,            !- View Factor to Ground
    ,                         !- Frame and Divider Name
    1.0,                      !- Multiplier
    autocalculate,            !- Number of Vertices
    23.16143,                 !- Vertex 1 Xcoordinate
    -5.477850e-02,            !- Vertex 1 Ycoordinate
    9.75,                     !- Vertex 1 Zcoordinate
    23.16143,                 !- Vertex 2 Xcoordinate
    -5.477850e-02,            !- Vertex 2 Ycoordinate
    5.25,                     !- Vertex 2 Zcoordinate
    15.82877,                 !- Vertex 3 Xcoordinate
    0.5875785,                !- Vertex 3 Ycoordinate
    5.25,                     !- Vertex 3 Zcoordinate
    15.82877,                 !- Vertex 4 Xcoordinate
    0.5875785,                !- Vertex 4 Ycoordinate
    9.75;                     !- Vertex 4 Zcoordinate

FENESTRATIONSURFACE:DETAILED,
    Block Build0_Alt0 Storey 0 Wall 0008 window,    !- Name
    Window,                   !- Surface Type
    Project External Window,    !- Construction Name
    Block Build0_Alt0 Storey 0 Wall 0008,    !- Building Surface Name
    ,                         !- Outside Boundary Condition Object
    autocalculate,            !- View Factor to Ground
    ,                         !- Frame and Divider Name
    1.0,                      !- Multiplier
    autocalculate,            !- Number of Vertices
    15.82231505,              !- Vertex 1 Xcoordinate
    0.5911393999999999,       !- Vertex 1 Ycoordinate
    9.75,                     !- Vertex 1 Zcoordinate
    15.82231505,              !- Vertex 2 Xcoordinate
    0.5911393999999999,       !- Vertex 2 Ycoordinate
    5.25,                     !- Vertex 2 Zcoordinate
    10.25798495,              !- Vertex 3 Xcoordinate
    7.0634606,                !- Vertex 3 Ycoordinate
    5.25,                     !- Vertex 3 Zcoordinate
    10.25798495,              !- Vertex 4 Xcoordinate
    7.0634606,                !- Vertex 4 Ycoordinate
    9.75;                     !- Vertex 4 Zcoordinate

FENESTRATIONSURFACE:DETAILED,
    Block Build1_Alt0 Storey 0 Wall 0002 window,    !- Name
    Window,                   !- Surface Type
    Project External Window,    !- Construction Name
    Block Build1_Alt0 Storey 0 Wall 0002,    !- Building Surface Name
    ,                         !- Outside Boundary Condition Object
    autocalculate,            !- View Factor to Ground
    ,                         !- Frame and Divider Name
    1.0,                      !- Multiplier
    autocalculate,            !- Number of Vertices
    10.251874950000001,       !- Vertex 1 Xcoordinate
    7.0705676,                !- Vertex 1 Ycoordinate
    17.55,                    !- Vertex 1 Zcoordinate
    10.251874950000001,       !- Vertex 2 Xcoordinate
    7.0705676,                !- Vertex 2 Ycoordinate
    9.45,                     !- Vertex 2 Zcoordinate
    3.60842505,               !- Vertex 3 Xcoordinate
    14.7980324,               !- Vertex 3 Ycoordinate
    9.45,                     !- Vertex 3 Zcoordinate
    3.60842505,               !- Vertex 4 Xcoordinate
    14.7980324,               !- Vertex 4 Ycoordinate
    17.55;                    !- Vertex 4 Zcoordinate

FENESTRATIONSURFACE:DETAILED,
    Block Build1_Alt0 Storey 0 Wall 0003 window,    !- Name
    Window,                   !- Surface Type
    Project External Window,    !- Construction Name
    Block Build1_Alt0 Storey 0 Wall 0003,    !- Building Surface Name
    ,                         !- Outside Boundary Condition Object
    autocalculate,            !- View Factor to Ground
    ,                         !- Frame and Divider Name
    1.0,                      !- Multiplier
    autocalculate,            !- Number of Vertices
    3.6081795000000003,       !- Vertex 1 Xcoordinate
    14.8045475,               !- Vertex 1 Ycoordinate
    17.55,                    !- Vertex 1 Zcoordinate
    3.6081795000000003,       !- Vertex 2 Xcoordinate
    14.8045475,               !- Vertex 2 Ycoordinate
    9.45,                     !- Vertex 2 Zcoordinate
    9.761020499999999,        !- Vertex 3 Xcoordinate
    20.094252500000003,       !- Vertex 3 Ycoordinate
    9.45,                     !- Vertex 3 Zcoordinate
    9.761020499999999,        !- Vertex 4 Xcoordinate
    20.094252500000003,       !- Vertex 4 Ycoordinate
    17.55;                    !- Vertex 4 Zcoordinate

FENESTRATIONSURFACE:DETAILED,
    Block Build1_Alt0 Storey 0 Wall 0004 window,    !- Name
    Window,                   !- Surface Type
    Project External Window,    !- Construction Name
    Block Build1_Alt0 Storey 0 Wall 0004,    !- Building Surface Name
    ,                         !- Outside Boundary Condition Object
    autocalculate,            !- View Factor to Ground
    ,                         !- Frame and Divider Name
    1.0,                      !- Multiplier
    autocalculate,            !- Number of Vertices
    9.7608,                   !- Vertex 1 Xcoordinate
    20.1007235,               !- Vertex 1 Ycoordinate
    17.55,                    !- Vertex 1 Zcoordinate
    9.7608,                   !- Vertex 2 Xcoordinate
    20.1007235,               !- Vertex 2 Ycoordinate
    9.45,                     !- Vertex 2 Zcoordinate
    3.1673999999999998,       !- Vertex 3 Xcoordinate
    27.7400765,               !- Vertex 3 Ycoordinate
    9.45,                     !- Vertex 3 Zcoordinate
    3.1673999999999998,       !- Vertex 4 Xcoordinate
    27.7400765,               !- Vertex 4 Ycoordinate
    17.55;                    !- Vertex 4 Zcoordinate

FENESTRATIONSURFACE:DETAILED,
    Block Build1_Alt0 Storey 0 Wall 0005 window,    !- Name
    Window,                   !- Surface Type
    Project External Window,    !- Construction Name
    Block Build1_Alt0 Storey 0 Wall 0005,    !- Building Surface Name
    ,                         !- Outside Boundary Condition Object
    autocalculate,            !- View Factor to Ground
    ,                         !- Frame and Divider Name
    1.0,                      !- Multiplier
    autocalculate,            !- Number of Vertices
    3.1614534999999995,       !- Vertex 1 Xcoordinate
    27.7416145,               !- Vertex 1 Ycoordinate
    17.55,                    !- Vertex 1 Zcoordinate
    3.1614534999999995,       !- Vertex 2 Xcoordinate
    27.7416145,               !- Vertex 2 Ycoordinate
    9.45,                     !- Vertex 2 Zcoordinate
    -2.1262535,               !- Vertex 3 Xcoordinate
    23.175185499999998,       !- Vertex 3 Ycoordinate
    9.45,                     !- Vertex 3 Zcoordinate
    -2.1262535,               !- Vertex 4 Xcoordinate
    23.175185499999998,       !- Vertex 4 Ycoordinate
    17.55;                    !- Vertex 4 Zcoordinate

FENESTRATIONSURFACE:DETAILED,
    Block Build1_Alt0 Storey 0 Wall 0006 window,    !- Name
    Window,                   !- Surface Type
    Project External Window,    !- Construction Name
    Block Build1_Alt0 Storey 0 Wall 0006,    !- Building Surface Name
    ,                         !- Outside Boundary Condition Object
    autocalculate,            !- View Factor to Ground
    ,                         !- Frame and Divider Name
    1.0,                      !- Multiplier
    autocalculate,            !- Number of Vertices
    -2.1318115,               !- Vertex 1 Xcoordinate
    23.176295999999997,       !- Vertex 1 Ycoordinate
    17.55,                    !- Vertex 1 Zcoordinate
    -2.1318115,               !- Vertex 2 Xcoordinate
    23.176295999999997,       !- Vertex 2 Ycoordinate
    9.45,                     !- Vertex 2 Zcoordinate
    -7.948989e+00,            !- Vertex 3 Xcoordinate
    29.961504,                !- Vertex 3 Ycoordinate
    9.45,                     !- Vertex 3 Zcoordinate
    -7.948989e+00,            !- Vertex 4 Xcoordinate
    29.961504,                !- Vertex 4 Ycoordinate
    17.55;                    !- Vertex 4 Zcoordinate

FENESTRATIONSURFACE:DETAILED,
    Block Build1_Alt0 Storey 0 Wall 0007 window,    !- Name
    Window,                   !- Surface Type
    Project External Window,    !- Construction Name
    Block Build1_Alt0 Storey 0 Wall 0007,    !- Building Surface Name
    ,                         !- Outside Boundary Condition Object
    autocalculate,            !- View Factor to Ground
    ,                         !- Frame and Divider Name
    1.0,                      !- Multiplier
    autocalculate,            !- Number of Vertices
    -7.955729,                !- Vertex 1 Xcoordinate
    29.9616075,               !- Vertex 1 Ycoordinate
    17.55,                    !- Vertex 1 Zcoordinate
    -7.955729,                !- Vertex 2 Xcoordinate
    29.9616075,               !- Vertex 2 Ycoordinate
    9.45,                     !- Vertex 2 Zcoordinate
    -15.606071,               !- Vertex 3 Xcoordinate
    23.3831925,               !- Vertex 3 Ycoordinate
    9.45,                     !- Vertex 3 Zcoordinate
    -15.606071,               !- Vertex 4 Xcoordinate
    23.3831925,               !- Vertex 4 Ycoordinate
    17.55;                    !- Vertex 4 Zcoordinate

FENESTRATIONSURFACE:DETAILED,
    Block Build1_Alt0 Storey 0 Wall 0008 window,    !- Name
    Window,                   !- Surface Type
    Project External Window,    !- Construction Name
    Block Build1_Alt0 Storey 0 Wall 0008,    !- Building Surface Name
    ,                         !- Outside Boundary Condition Object
    autocalculate,            !- View Factor to Ground
    ,                         !- Frame and Divider Name
    1.0,                      !- Multiplier
    autocalculate,            !- Number of Vertices
    -15.6079925,              !- Vertex 1 Xcoordinate
    23.377681499999998,       !- Vertex 1 Ycoordinate
    17.55,                    !- Vertex 1 Zcoordinate
    -15.6079925,              !- Vertex 2 Xcoordinate
    23.377681499999998,       !- Vertex 2 Ycoordinate
    9.45,                     !- Vertex 2 Zcoordinate
    -11.7968075,              !- Vertex 3 Xcoordinate
    18.945118500000003,       !- Vertex 3 Ycoordinate
    9.45,                     !- Vertex 3 Zcoordinate
    -11.7968075,              !- Vertex 4 Xcoordinate
    18.945118500000003,       !- Vertex 4 Ycoordinate
    17.55;                    !- Vertex 4 Zcoordinate

FENESTRATIONSURFACE:DETAILED,
    Block Build1_Alt0 Storey 0 Wall 0009 window,    !- Name
    Window,                   !- Surface Type
    Project External Window,    !- Construction Name
    Block Build1_Alt0 Storey 0 Wall 0009,    !- Building Surface Name
    ,                         !- Outside Boundary Condition Object
    autocalculate,            !- View Factor to Ground
    ,                         !- Frame and Divider Name
    1.0,                      !- Multiplier
    autocalculate,            !- Number of Vertices
    -11.797213,               !- Vertex 1 Xcoordinate
    18.940911500000002,       !- Vertex 1 Ycoordinate
    17.55,                    !- Vertex 1 Zcoordinate
    -11.797213,               !- Vertex 2 Xcoordinate
    18.940911500000002,       !- Vertex 2 Ycoordinate
    9.45,                     !- Vertex 2 Zcoordinate
    -16.418587,               !- Vertex 3 Xcoordinate
    14.967888499999999,       !- Vertex 3 Ycoordinate
    9.45,                     !- Vertex 3 Zcoordinate
    -16.418587,               !- Vertex 4 Xcoordinate
    14.967888499999999,       !- Vertex 4 Ycoordinate
    17.55;                    !- Vertex 4 Zcoordinate

FENESTRATIONSURFACE:DETAILED,
    Block Build1_Alt0 Storey 0 Wall 0010 window,    !- Name
    Window,                   !- Surface Type
    Project External Window,    !- Construction Name
    Block Build1_Alt0 Storey 0 Wall 0010,    !- Building Surface Name
    ,                         !- Outside Boundary Condition Object
    autocalculate,            !- View Factor to Ground
    ,                         !- Frame and Divider Name
    1.0,                      !- Multiplier
    autocalculate,            !- Number of Vertices
    -16.4195965,              !- Vertex 1 Xcoordinate
    14.964383999999999,       !- Vertex 1 Ycoordinate
    17.55,                    !- Vertex 1 Zcoordinate
    -16.4195965,              !- Vertex 2 Xcoordinate
    14.964383999999999,       !- Vertex 2 Ycoordinate
    9.45,                     !- Vertex 2 Zcoordinate
    -13.8152035,              !- Vertex 3 Xcoordinate
    11.935416,                !- Vertex 3 Ycoordinate
    9.45,                     !- Vertex 3 Zcoordinate
    -13.8152035,              !- Vertex 4 Xcoordinate
    11.935416,                !- Vertex 4 Ycoordinate
    17.55;                    !- Vertex 4 Zcoordinate

FENESTRATIONSURFACE:DETAILED,
    Block Build1_Alt0 Storey 0 Wall 0011 window,    !- Name
    Window,                   !- Surface Type
    Project External Window,    !- Construction Name
    Block Build1_Alt0 Storey 0 Wall 0011,    !- Building Surface Name
    ,                         !- Outside Boundary Condition Object
    autocalculate,            !- View Factor to Ground
    ,                         !- Frame and Divider Name
    1.0,                      !- Multiplier
    autocalculate,            !- Number of Vertices
    -13.815417,               !- Vertex 1 Xcoordinate
    11.9325955,               !- Vertex 1 Ycoordinate
    17.55,                    !- Vertex 1 Zcoordinate
    -13.815417,               !- Vertex 2 Xcoordinate
    11.9325955,               !- Vertex 2 Ycoordinate
    9.45,                     !- Vertex 2 Zcoordinate
    -16.846383,               !- Vertex 3 Xcoordinate
    9.3262045,                !- Vertex 3 Ycoordinate
    9.45,                     !- Vertex 3 Zcoordinate
    -16.846383,               !- Vertex 4 Xcoordinate
    9.3262045,                !- Vertex 4 Ycoordinate
    17.55;                    !- Vertex 4 Zcoordinate

FENESTRATIONSURFACE:DETAILED,
    Block Build1_Alt0 Storey 0 Wall 0012 window,    !- Name
    Window,                   !- Surface Type
    Project External Window,    !- Construction Name
    Block Build1_Alt0 Storey 0 Wall 0012,    !- Building Surface Name
    ,                         !- Outside Boundary Condition Object
    autocalculate,            !- View Factor to Ground
    ,                         !- Frame and Divider Name
    1.0,                      !- Multiplier
    autocalculate,            !- Number of Vertices
    -16.8451745,              !- Vertex 1 Xcoordinate
    9.321731499999999,        !- Vertex 1 Ycoordinate
    17.55,                    !- Vertex 1 Zcoordinate
    -16.8451745,              !- Vertex 2 Xcoordinate
    9.321731499999999,        !- Vertex 2 Ycoordinate
    9.45,                     !- Vertex 2 Zcoordinate
    -11.3996255,              !- Vertex 3 Xcoordinate
    2.9910685,                !- Vertex 3 Ycoordinate
    9.45,                     !- Vertex 3 Zcoordinate
    -11.3996255,              !- Vertex 4 Xcoordinate
    2.9910685,                !- Vertex 4 Ycoordinate
    17.55;                    !- Vertex 4 Zcoordinate

FENESTRATIONSURFACE:DETAILED,
    Block Build1_Alt0 Storey 0 Wall 0013 window,    !- Name
    Window,                   !- Surface Type
    Project External Window,    !- Construction Name
    Block Build1_Alt0 Storey 0 Wall 0013,    !- Building Surface Name
    ,                         !- Outside Boundary Condition Object
    autocalculate,            !- View Factor to Ground
    ,                         !- Frame and Divider Name
    1.0,                      !- Multiplier
    autocalculate,            !- Number of Vertices
    -11.3953845,              !- Vertex 1 Xcoordinate
    2.989203,                 !- Vertex 1 Ycoordinate
    17.55,                    !- Vertex 1 Zcoordinate
    -11.3953845,              !- Vertex 2 Xcoordinate
    2.989203,                 !- Vertex 2 Ycoordinate
    9.45,                     !- Vertex 2 Zcoordinate
    -8.3674155,               !- Vertex 3 Xcoordinate
    5.592597,                 !- Vertex 3 Ycoordinate
    9.45,                     !- Vertex 3 Zcoordinate
    -8.3674155,               !- Vertex 4 Xcoordinate
    5.592597,                 !- Vertex 4 Ycoordinate
    17.55;                    !- Vertex 4 Zcoordinate

FENESTRATIONSURFACE:DETAILED,
    Block Build1_Alt0 Storey 0 Wall 0014 window,    !- Name
    Window,                   !- Surface Type
    Project External Window,    !- Construction Name
    Block Build1_Alt0 Storey 0 Wall 0014,    !- Building Surface Name
    ,                         !- Outside Boundary Condition Object
    autocalculate,            !- View Factor to Ground
    ,                         !- Frame and Divider Name
    1.0,                      !- Multiplier
    autocalculate,            !- Number of Vertices
    -8.3645955,               !- Vertex 1 Xcoordinate
    5.5923834999999995,       !- Vertex 1 Ycoordinate
    17.55,                    !- Vertex 1 Zcoordinate
    -8.3645955,               !- Vertex 2 Xcoordinate
    5.5923834999999995,       !- Vertex 2 Ycoordinate
    9.45,                     !- Vertex 2 Zcoordinate
    -5.7582045,               !- Vertex 3 Xcoordinate
    2.5624165000000003,       !- Vertex 3 Ycoordinate
    9.45,                     !- Vertex 3 Zcoordinate
    -5.7582045,               !- Vertex 4 Xcoordinate
    2.5624165000000003,       !- Vertex 4 Ycoordinate
    17.55;                    !- Vertex 4 Zcoordinate

FENESTRATIONSURFACE:DETAILED,
    Block Build1_Alt0 Storey 0 Wall 0015 window,    !- Name
    Window,                   !- Surface Type
    Project External Window,    !- Construction Name
    Block Build1_Alt0 Storey 0 Wall 0015,    !- Building Surface Name
    ,                         !- Outside Boundary Condition Object
    autocalculate,            !- View Factor to Ground
    ,                         !- Frame and Divider Name
    1.0,                      !- Multiplier
    autocalculate,            !- Number of Vertices
    -5.754587e+00,            !- Vertex 1 Xcoordinate
    2.562888,                 !- Vertex 1 Ycoordinate
    17.55,                    !- Vertex 1 Zcoordinate
    -5.754587e+00,            !- Vertex 2 Xcoordinate
    2.562888,                 !- Vertex 2 Ycoordinate
    9.45,                     !- Vertex 2 Zcoordinate
    -1.134212e+00,            !- Vertex 3 Xcoordinate
    6.534912,                 !- Vertex 3 Ycoordinate
    9.45,                     !- Vertex 3 Zcoordinate
    -1.134212e+00,            !- Vertex 4 Xcoordinate
    6.534912,                 !- Vertex 4 Ycoordinate
    17.55;                    !- Vertex 4 Zcoordinate

FENESTRATIONSURFACE:DETAILED,
    Block Build1_Alt0 Storey 0 Wall 0016 window,    !- Name
    Window,                   !- Surface Type
    Project External Window,    !- Construction Name
    Block Build1_Alt0 Storey 0 Wall 0016,    !- Building Surface Name
    ,                         !- Outside Boundary Condition Object
    autocalculate,            !- View Factor to Ground
    ,                         !- Frame and Divider Name
    1.0,                      !- Multiplier
    autocalculate,            !- Number of Vertices
    -1.12959545,              !- Vertex 1 Xcoordinate
    6.5342196999999995,       !- Vertex 1 Ycoordinate
    17.55,                    !- Vertex 1 Zcoordinate
    -1.12959545,              !- Vertex 2 Xcoordinate
    6.5342196999999995,       !- Vertex 2 Ycoordinate
    9.45,                     !- Vertex 2 Zcoordinate
    3.47489545,               !- Vertex 3 Xcoordinate
    1.1789803,                !- Vertex 3 Ycoordinate
    9.45,                     !- Vertex 3 Zcoordinate
    3.47489545,               !- Vertex 4 Xcoordinate
    1.1789803,                !- Vertex 4 Ycoordinate
    17.55;                    !- Vertex 4 Zcoordinate

FENESTRATIONSURFACE:DETAILED,
    Block Build1_Alt0 Storey 0 Wall 0001_1 window,    !- Name
    Window,                   !- Surface Type
    Project External Window,    !- Construction Name
    Block Build1_Alt0 Storey 0 Wall 0001_1,    !- Building Surface Name
    ,                         !- Outside Boundary Condition Object
    autocalculate,            !- View Factor to Ground
    ,                         !- Frame and Divider Name
    1.0,                      !- Multiplier
    autocalculate,            !- Number of Vertices
    3.4805889996155166,       !- Vertex 1 Xcoordinate
    1.179245199665866,        !- Vertex 1 Ycoordinate
    22.8,                     !- Vertex 1 Zcoordinate
    3.4805889996155166,       !- Vertex 2 Xcoordinate
    1.179245199665866,        !- Vertex 2 Ycoordinate
    19.2,                     !- Vertex 2 Zcoordinate
    10.251810999548528,       !- Vertex 3 Xcoordinate
    7.06375479960765,         !- Vertex 3 Ycoordinate
    19.2,                     !- Vertex 3 Zcoordinate
    10.251810999548528,       !- Vertex 4 Xcoordinate
    7.06375479960765,         !- Vertex 4 Ycoordinate
    22.8;                     !- Vertex 4 Zcoordinate

INTERNALMASS,
    Block Build0_Alt0 Storey -1IntMass,    !- Name
    NonHeatedZoneIntMassObj,    !- Construction Name
    Block Build0_Alt0 Storey -1,    !- Zone or ZoneList Name
    516;                      !- Surface Area

INTERNALMASS,
    Block Build1_Alt0 Storey -1IntMass,    !- Name
    NonHeatedZoneIntMassObj,    !- Construction Name
    Block Build1_Alt0 Storey -1,    !- Zone or ZoneList Name
    976;                      !- Surface Area

INTERNALMASS,
    Block Build0_Alt0 Storey 0IntMass,    !- Name
    HeatedZoneIntMassObj,     !- Construction Name
    Block Build0_Alt0 Storey 0,    !- Zone or ZoneList Name
    2581;                     !- Surface Area

INTERNALMASS,
    Block Build1_Alt0 Storey 0IntMass,    !- Name
    HeatedZoneIntMassObj,     !- Construction Name
    Block Build1_Alt0 Storey 0,    !- Zone or ZoneList Name
    8780;                     !- Surface Area

SHADING:SITE:DETAILED,
    Shading_V316_1,           !- Name
    ,                         !- Transmittance Schedule Name
    autocalculate,            !- Number of Vertices
    -4.3039,                  !- Vertex 1 Xcoordinate
    -31.4121,                 !- Vertex 1 Ycoordinate
    15.8,                     !- Vertex 1 Zcoordinate
    -4.3039,                  !- Vertex 2 Xcoordinate
    -31.4121,                 !- Vertex 2 Ycoordinate
    0,                        !- Vertex 2 Zcoordinate
    -6.9139,                  !- Vertex 3 Xcoordinate
    -28.3801,                 !- Vertex 3 Ycoordinate
    0,                        !- Vertex 3 Zcoordinate
    -6.9139,                  !- Vertex 4 Xcoordinate
    -28.3801,                 !- Vertex 4 Ycoordinate
    15.8;                     !- Vertex 4 Zcoordinate

SHADING:SITE:DETAILED,
    Shading_V317_1,           !- Name
    ,                         !- Transmittance Schedule Name
    autocalculate,            !- Number of Vertices
    -6.9139,                  !- Vertex 1 Xcoordinate
    -28.3801,                 !- Vertex 1 Ycoordinate
    15.8,                     !- Vertex 1 Zcoordinate
    -6.9139,                  !- Vertex 2 Xcoordinate
    -28.3801,                 !- Vertex 2 Ycoordinate
    0,                        !- Vertex 2 Zcoordinate
    -0.9909,                  !- Vertex 3 Xcoordinate
    -23.3061,                 !- Vertex 3 Ycoordinate
    0,                        !- Vertex 3 Zcoordinate
    -0.9909,                  !- Vertex 4 Xcoordinate
    -23.3061,                 !- Vertex 4 Ycoordinate
    15.8;                     !- Vertex 4 Zcoordinate

SHADING:SITE:DETAILED,
    Shading_V318_1,           !- Name
    ,                         !- Transmittance Schedule Name
    autocalculate,            !- Number of Vertices
    -0.9909,                  !- Vertex 1 Xcoordinate
    -23.3061,                 !- Vertex 1 Ycoordinate
    15.8,                     !- Vertex 1 Zcoordinate
    -0.9909,                  !- Vertex 2 Xcoordinate
    -23.3061,                 !- Vertex 2 Ycoordinate
    0,                        !- Vertex 2 Zcoordinate
    -7.5449,                  !- Vertex 3 Xcoordinate
    -15.6091,                 !- Vertex 3 Ycoordinate
    0,                        !- Vertex 3 Zcoordinate
    -7.5449,                  !- Vertex 4 Xcoordinate
    -15.6091,                 !- Vertex 4 Ycoordinate
    15.8;                     !- Vertex 4 Zcoordinate

SHADING:SITE:DETAILED,
    Shading_V390_1,           !- Name
    ,                         !- Transmittance Schedule Name
    autocalculate,            !- Number of Vertices
    -10.1149,                 !- Vertex 1 Xcoordinate
    -70.0931,                 !- Vertex 1 Ycoordinate
    4.4,                      !- Vertex 1 Zcoordinate
    -10.1149,                 !- Vertex 2 Xcoordinate
    -70.0931,                 !- Vertex 2 Ycoordinate
    0,                        !- Vertex 2 Zcoordinate
    -9.9139,                  !- Vertex 3 Xcoordinate
    -66.8311,                 !- Vertex 3 Ycoordinate
    0,                        !- Vertex 3 Zcoordinate
    -9.9139,                  !- Vertex 4 Xcoordinate
    -66.8311,                 !- Vertex 4 Ycoordinate
    4.4;                      !- Vertex 4 Zcoordinate

SHADING:SITE:DETAILED,
    Shading_V391_1,           !- Name
    ,                         !- Transmittance Schedule Name
    autocalculate,            !- Number of Vertices
    -9.9139,                  !- Vertex 1 Xcoordinate
    -66.8311,                 !- Vertex 1 Ycoordinate
    4.4,                      !- Vertex 1 Zcoordinate
    -9.9139,                  !- Vertex 2 Xcoordinate
    -66.8311,                 !- Vertex 2 Ycoordinate
    0,                        !- Vertex 2 Zcoordinate
    -15.2039,                 !- Vertex 3 Xcoordinate
    -60.6671,                 !- Vertex 3 Ycoordinate
    0,                        !- Vertex 3 Zcoordinate
    -15.2039,                 !- Vertex 4 Xcoordinate
    -60.6671,                 !- Vertex 4 Ycoordinate
    4.4;                      !- Vertex 4 Zcoordinate

SHADING:SITE:DETAILED,
    Shading_V392_1,           !- Name
    ,                         !- Transmittance Schedule Name
    autocalculate,            !- Number of Vertices
    -15.2039,                 !- Vertex 1 Xcoordinate
    -60.6671,                 !- Vertex 1 Ycoordinate
    4.4,                      !- Vertex 1 Zcoordinate
    -15.2039,                 !- Vertex 2 Xcoordinate
    -60.6671,                 !- Vertex 2 Ycoordinate
    0,                        !- Vertex 2 Zcoordinate
    -18.1859,                 !- Vertex 3 Xcoordinate
    -63.3071,                 !- Vertex 3 Ycoordinate
    0,                        !- Vertex 3 Zcoordinate
    -18.1859,                 !- Vertex 4 Xcoordinate
    -63.3071,                 !- Vertex 4 Ycoordinate
    4.4;                      !- Vertex 4 Zcoordinate

SHADING:SITE:DETAILED,
    Shading_V393_1,           !- Name
    ,                         !- Transmittance Schedule Name
    autocalculate,            !- Number of Vertices
    -18.1859,                 !- Vertex 1 Xcoordinate
    -63.3071,                 !- Vertex 1 Ycoordinate
    4.4,                      !- Vertex 1 Zcoordinate
    -18.1859,                 !- Vertex 2 Xcoordinate
    -63.3071,                 !- Vertex 2 Ycoordinate
    0,                        !- Vertex 2 Zcoordinate
    -25.0059,                 !- Vertex 3 Xcoordinate
    -55.4121,                 !- Vertex 3 Ycoordinate
    0,                        !- Vertex 3 Zcoordinate
    -25.0059,                 !- Vertex 4 Xcoordinate
    -55.4121,                 !- Vertex 4 Ycoordinate
    4.4;                      !- Vertex 4 Zcoordinate

SHADING:SITE:DETAILED,
    Shading_V394_1,           !- Name
    ,                         !- Transmittance Schedule Name
    autocalculate,            !- Number of Vertices
    -25.0059,                 !- Vertex 1 Xcoordinate
    -55.4121,                 !- Vertex 1 Ycoordinate
    4.4,                      !- Vertex 1 Zcoordinate
    -25.0059,                 !- Vertex 2 Xcoordinate
    -55.4121,                 !- Vertex 2 Ycoordinate
    0,                        !- Vertex 2 Zcoordinate
    -28.7199,                 !- Vertex 3 Xcoordinate
    -55.1821,                 !- Vertex 3 Ycoordinate
    0,                        !- Vertex 3 Zcoordinate
    -28.7199,                 !- Vertex 4 Xcoordinate
    -55.1821,                 !- Vertex 4 Ycoordinate
    4.4;                      !- Vertex 4 Zcoordinate

SHADING:SITE:DETAILED,
    Shading_V395_1,           !- Name
    ,                         !- Transmittance Schedule Name
    autocalculate,            !- Number of Vertices
    -28.7199,                 !- Vertex 1 Xcoordinate
    -55.1821,                 !- Vertex 1 Ycoordinate
    4.4,                      !- Vertex 1 Zcoordinate
    -28.7199,                 !- Vertex 2 Xcoordinate
    -55.1821,                 !- Vertex 2 Ycoordinate
    0,                        !- Vertex 2 Zcoordinate
    -33.7789,                 !- Vertex 3 Xcoordinate
    -59.4691,                 !- Vertex 3 Ycoordinate
    0,                        !- Vertex 3 Zcoordinate
    -33.7789,                 !- Vertex 4 Xcoordinate
    -59.4691,                 !- Vertex 4 Ycoordinate
    4.4;                      !- Vertex 4 Zcoordinate

SHADING:SITE:DETAILED,
    Shading_V319_1,           !- Name
    ,                         !- Transmittance Schedule Name
    autocalculate,            !- Number of Vertices
    -7.5449,                  !- Vertex 1 Xcoordinate
    -15.6091,                 !- Vertex 1 Ycoordinate
    15.8,                     !- Vertex 1 Zcoordinate
    -7.5449,                  !- Vertex 2 Xcoordinate
    -15.6091,                 !- Vertex 2 Ycoordinate
    0,                        !- Vertex 2 Zcoordinate
    -13.4549,                 !- Vertex 3 Xcoordinate
    -20.6961,                 !- Vertex 3 Ycoordinate
    0,                        !- Vertex 3 Zcoordinate
    -13.4549,                 !- Vertex 4 Xcoordinate
    -20.6961,                 !- Vertex 4 Ycoordinate
    15.8;                     !- Vertex 4 Zcoordinate

SHADING:SITE:DETAILED,
    Shading_V320_1,           !- Name
    ,                         !- Transmittance Schedule Name
    autocalculate,            !- Number of Vertices
    -13.4549,                 !- Vertex 1 Xcoordinate
    -20.6961,                 !- Vertex 1 Ycoordinate
    15.8,                     !- Vertex 1 Zcoordinate
    -13.4549,                 !- Vertex 2 Xcoordinate
    -20.6961,                 !- Vertex 2 Ycoordinate
    0,                        !- Vertex 2 Zcoordinate
    -28.0399,                 !- Vertex 3 Xcoordinate
    -3.8011,                  !- Vertex 3 Ycoordinate
    0,                        !- Vertex 3 Zcoordinate
    -28.0399,                 !- Vertex 4 Xcoordinate
    -3.8011,                  !- Vertex 4 Ycoordinate
    15.8;                     !- Vertex 4 Zcoordinate

SHADING:SITE:DETAILED,
    Shading_V235_1,           !- Name
    ,                         !- Transmittance Schedule Name
    autocalculate,            !- Number of Vertices
    -20.0313,                 !- Vertex 1 Xcoordinate
    46.8405,                  !- Vertex 1 Ycoordinate
    24.8,                     !- Vertex 1 Zcoordinate
    -20.0313,                 !- Vertex 2 Xcoordinate
    46.8405,                  !- Vertex 2 Ycoordinate
    0,                        !- Vertex 2 Zcoordinate
    -12.5499,                 !- Vertex 3 Xcoordinate
    53.2629,                  !- Vertex 3 Ycoordinate
    0,                        !- Vertex 3 Zcoordinate
    -12.5499,                 !- Vertex 4 Xcoordinate
    53.2629,                  !- Vertex 4 Ycoordinate
    24.8;                     !- Vertex 4 Zcoordinate

SHADING:SITE:DETAILED,
    Shading_V236_1,           !- Name
    ,                         !- Transmittance Schedule Name
    autocalculate,            !- Number of Vertices
    -12.5499,                 !- Vertex 1 Xcoordinate
    53.2629,                  !- Vertex 1 Ycoordinate
    24.8,                     !- Vertex 1 Zcoordinate
    -12.5499,                 !- Vertex 2 Xcoordinate
    53.2629,                  !- Vertex 2 Ycoordinate
    0,                        !- Vertex 2 Zcoordinate
    -7.0879,                  !- Vertex 3 Xcoordinate
    46.9199,                  !- Vertex 3 Ycoordinate
    0,                        !- Vertex 3 Zcoordinate
    -7.0879,                  !- Vertex 4 Xcoordinate
    46.9199,                  !- Vertex 4 Ycoordinate
    24.8;                     !- Vertex 4 Zcoordinate

SHADING:SITE:DETAILED,
    Shading_V237_1,           !- Name
    ,                         !- Transmittance Schedule Name
    autocalculate,            !- Number of Vertices
    -7.0879,                  !- Vertex 1 Xcoordinate
    46.9199,                  !- Vertex 1 Ycoordinate
    24.8,                     !- Vertex 1 Zcoordinate
    -7.0879,                  !- Vertex 2 Xcoordinate
    46.9199,                  !- Vertex 2 Ycoordinate
    0,                        !- Vertex 2 Zcoordinate
    0.5811,                   !- Vertex 3 Xcoordinate
    53.5209,                  !- Vertex 3 Ycoordinate
    0,                        !- Vertex 3 Zcoordinate
    0.5811,                   !- Vertex 4 Xcoordinate
    53.5209,                  !- Vertex 4 Ycoordinate
    24.8;                     !- Vertex 4 Zcoordinate

SHADING:SITE:DETAILED,
    Shading_V481_1,           !- Name
    ,                         !- Transmittance Schedule Name
    autocalculate,            !- Number of Vertices
    -26.8779,                 !- Vertex 1 Xcoordinate
    40.9629,                  !- Vertex 1 Ycoordinate
    12.8,                     !- Vertex 1 Zcoordinate
    -26.8779,                 !- Vertex 2 Xcoordinate
    40.9629,                  !- Vertex 2 Ycoordinate
    0,                        !- Vertex 2 Zcoordinate
    -20.0313,                 !- Vertex 3 Xcoordinate
    46.8405,                  !- Vertex 3 Ycoordinate
    0,                        !- Vertex 3 Zcoordinate
    -20.0313,                 !- Vertex 4 Xcoordinate
    46.8405,                  !- Vertex 4 Ycoordinate
    12.8;                     !- Vertex 4 Zcoordinate

SHADING:SITE:DETAILED,
    Shading_V145_1,           !- Name
    ,                         !- Transmittance Schedule Name
    autocalculate,            !- Number of Vertices
    -87.6519,                 !- Vertex 1 Xcoordinate
    -20.8301,                 !- Vertex 1 Ycoordinate
    15.5,                     !- Vertex 1 Zcoordinate
    -87.6519,                 !- Vertex 2 Xcoordinate
    -20.8301,                 !- Vertex 2 Ycoordinate
    0,                        !- Vertex 2 Zcoordinate
    -82.5539,                 !- Vertex 3 Xcoordinate
    -16.4681,                 !- Vertex 3 Ycoordinate
    0,                        !- Vertex 3 Zcoordinate
    -82.5539,                 !- Vertex 4 Xcoordinate
    -16.4681,                 !- Vertex 4 Ycoordinate
    15.5;                     !- Vertex 4 Zcoordinate

SHADING:SITE:DETAILED,
    Shading_V146_1,           !- Name
    ,                         !- Transmittance Schedule Name
    autocalculate,            !- Number of Vertices
    -82.5539,                 !- Vertex 1 Xcoordinate
    -16.4681,                 !- Vertex 1 Ycoordinate
    15.5,                     !- Vertex 1 Zcoordinate
    -82.5539,                 !- Vertex 2 Xcoordinate
    -16.4681,                 !- Vertex 2 Ycoordinate
    0,                        !- Vertex 2 Zcoordinate
    -85.1559,                 !- Vertex 3 Xcoordinate
    -13.4281,                 !- Vertex 3 Ycoordinate
    0,                        !- Vertex 3 Zcoordinate
    -85.1559,                 !- Vertex 4 Xcoordinate
    -13.4281,                 !- Vertex 4 Ycoordinate
    15.5;                     !- Vertex 4 Zcoordinate

SHADING:SITE:DETAILED,
    Shading_V149_1,           !- Name
    ,                         !- Transmittance Schedule Name
    autocalculate,            !- Number of Vertices
    -70.1099,                 !- Vertex 1 Xcoordinate
    -5.8181,                  !- Vertex 1 Ycoordinate
    15.5,                     !- Vertex 1 Zcoordinate
    -70.1099,                 !- Vertex 2 Xcoordinate
    -5.8181,                  !- Vertex 2 Ycoordinate
    0,                        !- Vertex 2 Zcoordinate
    -65.0389,                 !- Vertex 3 Xcoordinate
    -1.4771,                  !- Vertex 3 Ycoordinate
    0,                        !- Vertex 3 Zcoordinate
    -65.0389,                 !- Vertex 4 Xcoordinate
    -1.4771,                  !- Vertex 4 Ycoordinate
    15.5;                     !- Vertex 4 Zcoordinate

SHADING:SITE:DETAILED,
    Shading_V150_1,           !- Name
    ,                         !- Transmittance Schedule Name
    autocalculate,            !- Number of Vertices
    -65.0389,                 !- Vertex 1 Xcoordinate
    -1.4771,                  !- Vertex 1 Ycoordinate
    15.5,                     !- Vertex 1 Zcoordinate
    -65.0389,                 !- Vertex 2 Xcoordinate
    -1.4771,                  !- Vertex 2 Ycoordinate
    0,                        !- Vertex 2 Zcoordinate
    -67.6389,                 !- Vertex 3 Xcoordinate
    1.5609,                   !- Vertex 3 Ycoordinate
    0,                        !- Vertex 3 Zcoordinate
    -67.6389,                 !- Vertex 4 Xcoordinate
    1.5609,                   !- Vertex 4 Ycoordinate
    15.5;                     !- Vertex 4 Zcoordinate

SHADING:SITE:DETAILED,
    Shading_V151_1,           !- Name
    ,                         !- Transmittance Schedule Name
    autocalculate,            !- Number of Vertices
    -67.6389,                 !- Vertex 1 Xcoordinate
    1.5609,                   !- Vertex 1 Ycoordinate
    15.5,                     !- Vertex 1 Zcoordinate
    -67.6389,                 !- Vertex 2 Xcoordinate
    1.5609,                   !- Vertex 2 Ycoordinate
    0,                        !- Vertex 2 Zcoordinate
    -63.4879,                 !- Vertex 3 Xcoordinate
    5.1139,                   !- Vertex 3 Ycoordinate
    0,                        !- Vertex 3 Zcoordinate
    -63.4879,                 !- Vertex 4 Xcoordinate
    5.1139,                   !- Vertex 4 Ycoordinate
    15.5;                     !- Vertex 4 Zcoordinate

SHADING:SITE:DETAILED,
    Shading_V177_1,           !- Name
    ,                         !- Transmittance Schedule Name
    autocalculate,            !- Number of Vertices
    -120.5979,                !- Vertex 1 Xcoordinate
    -50.5921,                 !- Vertex 1 Ycoordinate
    19.2,                     !- Vertex 1 Zcoordinate
    -120.5979,                !- Vertex 2 Xcoordinate
    -50.5921,                 !- Vertex 2 Ycoordinate
    0,                        !- Vertex 2 Zcoordinate
    -112.9589,                !- Vertex 3 Xcoordinate
    -43.9991,                 !- Vertex 3 Ycoordinate
    0,                        !- Vertex 3 Zcoordinate
    -112.9589,                !- Vertex 4 Xcoordinate
    -43.9991,                 !- Vertex 4 Ycoordinate
    19.2;                     !- Vertex 4 Zcoordinate

SHADING:SITE:DETAILED,
    Shading_V178_1,           !- Name
    ,                         !- Transmittance Schedule Name
    autocalculate,            !- Number of Vertices
    -112.9589,                !- Vertex 1 Xcoordinate
    -43.9991,                 !- Vertex 1 Ycoordinate
    19.2,                     !- Vertex 1 Zcoordinate
    -112.9589,                !- Vertex 2 Xcoordinate
    -43.9991,                 !- Vertex 2 Ycoordinate
    0,                        !- Vertex 2 Zcoordinate
    -118.1569,                !- Vertex 3 Xcoordinate
    -37.9761,                 !- Vertex 3 Ycoordinate
    0,                        !- Vertex 3 Zcoordinate
    -118.1569,                !- Vertex 4 Xcoordinate
    -37.9761,                 !- Vertex 4 Ycoordinate
    19.2;                     !- Vertex 4 Zcoordinate

SHADING:SITE:DETAILED,
    Shading_V325_1,           !- Name
    ,                         !- Transmittance Schedule Name
    autocalculate,            !- Number of Vertices
    -36.2049,                 !- Vertex 1 Xcoordinate
    5.7829,                   !- Vertex 1 Ycoordinate
    15.8,                     !- Vertex 1 Zcoordinate
    -36.2049,                 !- Vertex 2 Xcoordinate
    5.7829,                   !- Vertex 2 Ycoordinate
    0,                        !- Vertex 2 Zcoordinate
    -43.9239,                 !- Vertex 3 Xcoordinate
    -0.7631,                  !- Vertex 3 Ycoordinate
    0,                        !- Vertex 3 Zcoordinate
    -43.9239,                 !- Vertex 4 Xcoordinate
    -0.7631,                  !- Vertex 4 Ycoordinate
    15.8;                     !- Vertex 4 Zcoordinate

SHADING:SITE:DETAILED,
    Shading_V361_1,           !- Name
    ,                         !- Transmittance Schedule Name
    autocalculate,            !- Number of Vertices
    -45.1219,                 !- Vertex 1 Xcoordinate
    16.0859,                  !- Vertex 1 Ycoordinate
    14.2,                     !- Vertex 1 Zcoordinate
    -45.1219,                 !- Vertex 2 Xcoordinate
    16.0859,                  !- Vertex 2 Ycoordinate
    0,                        !- Vertex 2 Zcoordinate
    -47.7359,                 !- Vertex 3 Xcoordinate
    19.1209,                  !- Vertex 3 Ycoordinate
    0,                        !- Vertex 3 Zcoordinate
    -47.7359,                 !- Vertex 4 Xcoordinate
    19.1209,                  !- Vertex 4 Ycoordinate
    14.2;                     !- Vertex 4 Zcoordinate

SHADING:SITE:DETAILED,
    Shading_V362_1,           !- Name
    ,                         !- Transmittance Schedule Name
    autocalculate,            !- Number of Vertices
    -47.7359,                 !- Vertex 1 Xcoordinate
    19.1209,                  !- Vertex 1 Ycoordinate
    14.2,                     !- Vertex 1 Zcoordinate
    -47.7359,                 !- Vertex 2 Xcoordinate
    19.1209,                  !- Vertex 2 Ycoordinate
    0,                        !- Vertex 2 Zcoordinate
    -42.7859,                 !- Vertex 3 Xcoordinate
    23.3559,                  !- Vertex 3 Ycoordinate
    0,                        !- Vertex 3 Zcoordinate
    -42.7859,                 !- Vertex 4 Xcoordinate
    23.3559,                  !- Vertex 4 Ycoordinate
    14.2;                     !- Vertex 4 Zcoordinate

SHADING:SITE:DETAILED,
    Shading_V378_1,           !- Name
    ,                         !- Transmittance Schedule Name
    autocalculate,            !- Number of Vertices
    -51.7689,                 !- Vertex 1 Xcoordinate
    9.8749,                   !- Vertex 1 Ycoordinate
    14.2,                     !- Vertex 1 Zcoordinate
    -51.7689,                 !- Vertex 2 Xcoordinate
    9.8749,                   !- Vertex 2 Ycoordinate
    0,                        !- Vertex 2 Zcoordinate
    -45.1219,                 !- Vertex 3 Xcoordinate
    16.0859,                  !- Vertex 3 Ycoordinate
    0,                        !- Vertex 3 Zcoordinate
    -45.1219,                 !- Vertex 4 Xcoordinate
    16.0859,                  !- Vertex 4 Ycoordinate
    14.2;                     !- Vertex 4 Zcoordinate

SHADING:SITE:DETAILED,
    Shading_V479_1,           !- Name
    ,                         !- Transmittance Schedule Name
    autocalculate,            !- Number of Vertices
    -27.4749,                 !- Vertex 1 Xcoordinate
    26.1979,                  !- Vertex 1 Ycoordinate
    12.8,                     !- Vertex 1 Zcoordinate
    -27.4749,                 !- Vertex 2 Xcoordinate
    26.1979,                  !- Vertex 2 Ycoordinate
    0,                        !- Vertex 2 Zcoordinate
    -19.8249,                 !- Vertex 3 Xcoordinate
    32.7459,                  !- Vertex 3 Ycoordinate
    0,                        !- Vertex 3 Zcoordinate
    -19.8249,                 !- Vertex 4 Xcoordinate
    32.7459,                  !- Vertex 4 Ycoordinate
    12.8;                     !- Vertex 4 Zcoordinate

SHADING:SITE:DETAILED,
    Shading_V480_1,           !- Name
    ,                         !- Transmittance Schedule Name
    autocalculate,            !- Number of Vertices
    -19.8249,                 !- Vertex 1 Xcoordinate
    32.7459,                  !- Vertex 1 Ycoordinate
    12.8,                     !- Vertex 1 Zcoordinate
    -19.8249,                 !- Vertex 2 Xcoordinate
    32.7459,                  !- Vertex 2 Ycoordinate
    0,                        !- Vertex 2 Zcoordinate
    -26.8779,                 !- Vertex 3 Xcoordinate
    40.9629,                  !- Vertex 3 Ycoordinate
    0,                        !- Vertex 3 Zcoordinate
    -26.8779,                 !- Vertex 4 Xcoordinate
    40.9629,                  !- Vertex 4 Ycoordinate
    12.8;                     !- Vertex 4 Zcoordinate

SHADING:SITE:DETAILED,
    Shading_V321_1,           !- Name
    ,                         !- Transmittance Schedule Name
    autocalculate,            !- Number of Vertices
    -28.0399,                 !- Vertex 1 Xcoordinate
    -3.8011,                  !- Vertex 1 Ycoordinate
    15.8,                     !- Vertex 1 Zcoordinate
    -28.0399,                 !- Vertex 2 Xcoordinate
    -3.8011,                  !- Vertex 2 Ycoordinate
    0,                        !- Vertex 2 Zcoordinate
    -22.1499,                 !- Vertex 3 Xcoordinate
    1.2969,                   !- Vertex 3 Ycoordinate
    0,                        !- Vertex 3 Zcoordinate
    -22.1499,                 !- Vertex 4 Xcoordinate
    1.2969,                   !- Vertex 4 Ycoordinate
    15.8;                     !- Vertex 4 Zcoordinate

SHADING:SITE:DETAILED,
    Shading_V322_1,           !- Name
    ,                         !- Transmittance Schedule Name
    autocalculate,            !- Number of Vertices
    -22.1499,                 !- Vertex 1 Xcoordinate
    1.2969,                   !- Vertex 1 Ycoordinate
    15.8,                     !- Vertex 1 Zcoordinate
    -22.1499,                 !- Vertex 2 Xcoordinate
    1.2969,                   !- Vertex 2 Ycoordinate
    0,                        !- Vertex 2 Zcoordinate
    -27.6769,                 !- Vertex 3 Xcoordinate
    7.7719,                   !- Vertex 3 Ycoordinate
    0,                        !- Vertex 3 Zcoordinate
    -27.6769,                 !- Vertex 4 Xcoordinate
    7.7719,                   !- Vertex 4 Ycoordinate
    15.8;                     !- Vertex 4 Zcoordinate

SHADING:SITE:DETAILED,
    Shading_V239_1,           !- Name
    ,                         !- Transmittance Schedule Name
    autocalculate,            !- Number of Vertices
    -5.2579,                  !- Vertex 1 Xcoordinate
    60.3029,                  !- Vertex 1 Ycoordinate
    24.8,                     !- Vertex 1 Zcoordinate
    -5.2579,                  !- Vertex 2 Xcoordinate
    60.3029,                  !- Vertex 2 Ycoordinate
    0,                        !- Vertex 2 Zcoordinate
    0.0481,                   !- Vertex 3 Xcoordinate
    64.8709,                  !- Vertex 3 Ycoordinate
    0,                        !- Vertex 3 Zcoordinate
    0.0481,                   !- Vertex 4 Xcoordinate
    64.8709,                  !- Vertex 4 Ycoordinate
    24.8;                     !- Vertex 4 Zcoordinate

SHADING:SITE:DETAILED,
    Shading_V363_1,           !- Name
    ,                         !- Transmittance Schedule Name
    autocalculate,            !- Number of Vertices
    -42.7859,                 !- Vertex 1 Xcoordinate
    23.3559,                  !- Vertex 1 Ycoordinate
    14.2,                     !- Vertex 1 Zcoordinate
    -42.7859,                 !- Vertex 2 Xcoordinate
    23.3559,                  !- Vertex 2 Ycoordinate
    0,                        !- Vertex 2 Zcoordinate
    -48.4679,                 !- Vertex 3 Xcoordinate
    29.9959,                  !- Vertex 3 Ycoordinate
    0,                        !- Vertex 3 Zcoordinate
    -48.4679,                 !- Vertex 4 Xcoordinate
    29.9959,                  !- Vertex 4 Ycoordinate
    14.2;                     !- Vertex 4 Zcoordinate

SHADING:SITE:DETAILED,
    Shading_V366_1,           !- Name
    ,                         !- Transmittance Schedule Name
    autocalculate,            !- Number of Vertices
    -66.6439,                 !- Vertex 1 Xcoordinate
    41.1029,                  !- Vertex 1 Ycoordinate
    14.2,                     !- Vertex 1 Zcoordinate
    -66.6439,                 !- Vertex 2 Xcoordinate
    41.1029,                  !- Vertex 2 Ycoordinate
    0,                        !- Vertex 2 Zcoordinate
    -65.3039,                 !- Vertex 3 Xcoordinate
    59.1129,                  !- Vertex 3 Ycoordinate
    0,                        !- Vertex 3 Zcoordinate
    -65.3039,                 !- Vertex 4 Xcoordinate
    59.1129,                  !- Vertex 4 Ycoordinate
    14.2;                     !- Vertex 4 Zcoordinate

SHADING:SITE:DETAILED,
    Shading_V477_1,           !- Name
    ,                         !- Transmittance Schedule Name
    autocalculate,            !- Number of Vertices
    -34.6829,                 !- Vertex 1 Xcoordinate
    28.4519,                  !- Vertex 1 Ycoordinate
    12.8,                     !- Vertex 1 Zcoordinate
    -34.6829,                 !- Vertex 2 Xcoordinate
    28.4519,                  !- Vertex 2 Ycoordinate
    0,                        !- Vertex 2 Zcoordinate
    -31.6469,                 !- Vertex 3 Xcoordinate
    31.0579,                  !- Vertex 3 Ycoordinate
    0,                        !- Vertex 3 Zcoordinate
    -31.6469,                 !- Vertex 4 Xcoordinate
    31.0579,                  !- Vertex 4 Ycoordinate
    12.8;                     !- Vertex 4 Zcoordinate

SHADING:SITE:DETAILED,
    Shading_V478_1,           !- Name
    ,                         !- Transmittance Schedule Name
    autocalculate,            !- Number of Vertices
    -31.6469,                 !- Vertex 1 Xcoordinate
    31.0579,                  !- Vertex 1 Ycoordinate
    12.8,                     !- Vertex 1 Zcoordinate
    -31.6469,                 !- Vertex 2 Xcoordinate
    31.0579,                  !- Vertex 2 Ycoordinate
    0,                        !- Vertex 2 Zcoordinate
    -27.4749,                 !- Vertex 3 Xcoordinate
    26.1979,                  !- Vertex 3 Ycoordinate
    0,                        !- Vertex 3 Zcoordinate
    -27.4749,                 !- Vertex 4 Xcoordinate
    26.1979,                  !- Vertex 4 Ycoordinate
    12.8;                     !- Vertex 4 Zcoordinate

SHADING:SITE:DETAILED,
    Shading_V323_1,           !- Name
    ,                         !- Transmittance Schedule Name
    autocalculate,            !- Number of Vertices
    -27.6769,                 !- Vertex 1 Xcoordinate
    7.7719,                   !- Vertex 1 Ycoordinate
    15.8,                     !- Vertex 1 Zcoordinate
    -27.6769,                 !- Vertex 2 Xcoordinate
    7.7719,                   !- Vertex 2 Ycoordinate
    0,                        !- Vertex 2 Zcoordinate
    -33.6259,                 !- Vertex 3 Xcoordinate
    2.7249,                   !- Vertex 3 Ycoordinate
    0,                        !- Vertex 3 Zcoordinate
    -33.6259,                 !- Vertex 4 Xcoordinate
    2.7249,                   !- Vertex 4 Ycoordinate
    15.8;                     !- Vertex 4 Zcoordinate

SHADING:SITE:DETAILED,
    Shading_V324_1,           !- Name
    ,                         !- Transmittance Schedule Name
    autocalculate,            !- Number of Vertices
    -33.6259,                 !- Vertex 1 Xcoordinate
    2.7249,                   !- Vertex 1 Ycoordinate
    15.8,                     !- Vertex 1 Zcoordinate
    -33.6259,                 !- Vertex 2 Xcoordinate
    2.7249,                   !- Vertex 2 Ycoordinate
    0,                        !- Vertex 2 Zcoordinate
    -36.2049,                 !- Vertex 3 Xcoordinate
    5.7829,                   !- Vertex 3 Ycoordinate
    0,                        !- Vertex 3 Zcoordinate
    -36.2049,                 !- Vertex 4 Xcoordinate
    5.7829,                   !- Vertex 4 Ycoordinate
    15.8;                     !- Vertex 4 Zcoordinate

SHADING:SITE:DETAILED,
    Shading_V365_1,           !- Name
    ,                         !- Transmittance Schedule Name
    autocalculate,            !- Number of Vertices
    -53.4019,                 !- Vertex 1 Xcoordinate
    25.6989,                  !- Vertex 1 Ycoordinate
    14.2,                     !- Vertex 1 Zcoordinate
    -53.4019,                 !- Vertex 2 Xcoordinate
    25.6989,                  !- Vertex 2 Ycoordinate
    0,                        !- Vertex 2 Zcoordinate
    -66.6439,                 !- Vertex 3 Xcoordinate
    41.1029,                  !- Vertex 3 Ycoordinate
    0,                        !- Vertex 3 Zcoordinate
    -66.6439,                 !- Vertex 4 Xcoordinate
    41.1029,                  !- Vertex 4 Ycoordinate
    14.2;                     !- Vertex 4 Zcoordinate

ELECTRICEQUIPMENT,
    Block Build0_Alt0 Storey 0Load,    !- Name
    Block Build0_Alt0 Storey 0,    !- Zone or ZoneList Name
    LoadSchedule,             !- Schedule Name
    Watts/Area,               !- Design Level Calculation Method
    ,                         !- Design Level
    0.05,                     !- Watts per Zone Floor Area
    ,                         !- Watts per Person
    0,                        !- Fraction Latent
    0,                        !- Fraction Radiant
    0,                        !- Fraction Lost
    General;                  !- EndUse Subcategory

ELECTRICEQUIPMENT,
    Block Build1_Alt0 Storey 0Load,    !- Name
    Block Build1_Alt0 Storey 0,    !- Zone or ZoneList Name
    LoadSchedule,             !- Schedule Name
    Watts/Area,               !- Design Level Calculation Method
    ,                         !- Design Level
    0.09,                     !- Watts per Zone Floor Area
    ,                         !- Watts per Person
    0,                        !- Fraction Latent
    0,                        !- Fraction Radiant
    0,                        !- Fraction Lost
    General;                  !- EndUse Subcategory

ZONEINFILTRATION:DESIGNFLOWRATE,
    Block Build0_Alt0 Storey -1Leak,    !- Name
    Block Build0_Alt0 Storey -1,    !- Zone or ZoneList Name
    AlwaysON,                 !- Schedule Name
    AirChanges/Hour,          !- Design Flow Rate Calculation Method
    ,                         !- Design Flow Rate
    ,                         !- Flow per Zone Floor Area
    ,                         !- Flow per Exterior Surface Area
    1,                        !- Air Changes per Hour
    1,                        !- Constant Term Coefficient
    0,                        !- Temperature Term Coefficient
    0,                        !- Velocity Term Coefficient
    0;                        !- Velocity Squared Term Coefficient

ZONEINFILTRATION:DESIGNFLOWRATE,
    Block Build1_Alt0 Storey -1Leak,    !- Name
    Block Build1_Alt0 Storey -1,    !- Zone or ZoneList Name
    AlwaysON,                 !- Schedule Name
    AirChanges/Hour,          !- Design Flow Rate Calculation Method
    ,                         !- Design Flow Rate
    ,                         !- Flow per Zone Floor Area
    ,                         !- Flow per Exterior Surface Area
    1,                        !- Air Changes per Hour
    1,                        !- Constant Term Coefficient
    0,                        !- Temperature Term Coefficient
    0,                        !- Velocity Term Coefficient
    0;                        !- Velocity Squared Term Coefficient

ZONEINFILTRATION:FLOWCOEFFICIENT,
    Block Build0_Alt0 Storey 0Leak,    !- Name
    Block Build0_Alt0 Storey 0,    !- Zone Name
    AlwaysON,                 !- Schedule Name
    9.211493e-02,             !- Flow Coefficient
    0.107,                    !- Stack Coefficient
    0.667,                    !- Pressure Exponent
    0.167,                    !- Wind Coefficient
    0.61;                     !- Shelter Factor

ZONEINFILTRATION:FLOWCOEFFICIENT,
    Block Build1_Alt0 Storey 0Leak,    !- Name
    Block Build1_Alt0 Storey 0,    !- Zone Name
    AlwaysON,                 !- Schedule Name
    0.2503325748922301,       !- Flow Coefficient
    0.107,                    !- Stack Coefficient
    0.667,                    !- Pressure Exponent
    0.167,                    !- Wind Coefficient
    0.61;                     !- Shelter Factor

ZONEVENTILATION:DESIGNFLOWRATE,
    Block Build0_Alt0 Storey 0FreeCool,    !- Name
    Block Build0_Alt0 Storey 0,    !- Zone or ZoneList Name
    AlwaysON,                 !- Schedule Name
    AirChanges/Hour,          !- Design Flow Rate Calculation Method
    ,                         !- Design Flow Rate
    ,                         !- Flow Rate per Zone Floor Area
    ,                         !- Flow Rate per Person
    4,                        !- Air Changes per Hour
    Natural,                  !- Ventilation Type
    0,                        !- Fan Pressure Rise
    1,                        !- Fan Total Efficiency
    1,                        !- Constant Term Coefficient
    0,                        !- Temperature Term Coefficient
    0,                        !- Velocity Term Coefficient
    0,                        !- Velocity Squared Term Coefficient
    26,                       !- Minimum Indoor Temperature
    ,                         !- Minimum Indoor Temperature Schedule Name
    100,                      !- Maximum Indoor Temperature
    ,                         !- Maximum Indoor Temperature Schedule Name
    1,                        !- Delta Temperature
    ,                         !- Delta Temperature Schedule Name
    -100,                     !- Minimum Outdoor Temperature
    ,                         !- Minimum Outdoor Temperature Schedule Name
    100,                      !- Maximum Outdoor Temperature
    ,                         !- Maximum Outdoor Temperature Schedule Name
    40;                       !- Maximum Wind Speed

ZONEVENTILATION:DESIGNFLOWRATE,
    Block Build1_Alt0 Storey 0FreeCool,    !- Name
    Block Build1_Alt0 Storey 0,    !- Zone or ZoneList Name
    AlwaysON,                 !- Schedule Name
    AirChanges/Hour,          !- Design Flow Rate Calculation Method
    ,                         !- Design Flow Rate
    ,                         !- Flow Rate per Zone Floor Area
    ,                         !- Flow Rate per Person
    4,                        !- Air Changes per Hour
    Natural,                  !- Ventilation Type
    0,                        !- Fan Pressure Rise
    1,                        !- Fan Total Efficiency
    1,                        !- Constant Term Coefficient
    0,                        !- Temperature Term Coefficient
    0,                        !- Velocity Term Coefficient
    0,                        !- Velocity Squared Term Coefficient
    26,                       !- Minimum Indoor Temperature
    ,                         !- Minimum Indoor Temperature Schedule Name
    100,                      !- Maximum Indoor Temperature
    ,                         !- Maximum Indoor Temperature Schedule Name
    1,                        !- Delta Temperature
    ,                         !- Delta Temperature Schedule Name
    -100,                     !- Minimum Outdoor Temperature
    ,                         !- Minimum Outdoor Temperature Schedule Name
    100,                      !- Maximum Outdoor Temperature
    ,                         !- Maximum Outdoor Temperature Schedule Name
    40;                       !- Maximum Wind Speed

HVACTEMPLATE:THERMOSTAT,
    ResidZone,                !- Name
    ,                         !- Heating Setpoint Schedule Name
    21,                       !- Constant Heating Setpoint
    ,                         !- Cooling Setpoint Schedule Name
    50;                       !- Constant Cooling Setpoint

HVACTEMPLATE:ZONE:IDEALLOADSAIRSYSTEM,
    Block Build0_Alt0 Storey 0,    !- Zone Name
    ResidZone,                !- Template Thermostat Name
    ,                         !- System Availability Schedule Name
    50,                       !- Maximum Heating Supply Air Temperature
    13,                       !- Minimum Cooling Supply Air Temperature
    0.0156,                   !- Maximum Heating Supply Air Humidity Ratio
    0.0077,                   !- Minimum Cooling Supply Air Humidity Ratio
    NoLimit,                  !- Heating Limit
    ,                         !- Maximum Heating Air Flow Rate
    32268.681684401086,       !- Maximum Sensible Heating Capacity
    NoLimit,                  !- Cooling Limit
    ,                         !- Maximum Cooling Air Flow Rate
    ,                         !- Maximum Total Cooling Capacity
    ,                         !- Heating Availability Schedule Name
    ,                         !- Cooling Availability Schedule Name
    ConstantSensibleHeatRatio,    !- Dehumidification Control Type
    0.7,                      !- Cooling Sensible Heat Ratio
    60,                       !- Dehumidification Setpoint
    None,                     !- Humidification Control Type
    30,                       !- Humidification Setpoint
    Flow/Area,                !- Outdoor Air Method
    0.007,                    !- Outdoor Air Flow Rate per Person
    1.750000e-03,             !- Outdoor Air Flow Rate per Zone Floor Area
    0,                        !- Outdoor Air Flow Rate per Zone
    ,                         !- Design Specification Outdoor Air Object Name
    None,                     !- Demand Controlled Ventilation Type
    NoEconomizer,             !- Outdoor Air Economizer Type
    Sensible,                 !- Heat Recovery Type
    0.65,                     !- Sensible Heat Recovery Effectiveness
    0;                        !- Latent Heat Recovery Effectiveness

HVACTEMPLATE:ZONE:IDEALLOADSAIRSYSTEM,
    Block Build1_Alt0 Storey 0,    !- Zone Name
    ResidZone,                !- Template Thermostat Name
    ,                         !- System Availability Schedule Name
    50,                       !- Maximum Heating Supply Air Temperature
    13,                       !- Minimum Cooling Supply Air Temperature
    0.0156,                   !- Maximum Heating Supply Air Humidity Ratio
    0.0077,                   !- Minimum Cooling Supply Air Humidity Ratio
    NoLimit,                  !- Heating Limit
    ,                         !- Maximum Heating Air Flow Rate
    109748.56885969569,       !- Maximum Sensible Heating Capacity
    NoLimit,                  !- Cooling Limit
    ,                         !- Maximum Cooling Air Flow Rate
    ,                         !- Maximum Total Cooling Capacity
    ,                         !- Heating Availability Schedule Name
    ,                         !- Cooling Availability Schedule Name
    ConstantSensibleHeatRatio,    !- Dehumidification Control Type
    0.7,                      !- Cooling Sensible Heat Ratio
    60,                       !- Dehumidification Setpoint
    None,                     !- Humidification Control Type
    30,                       !- Humidification Setpoint
    Flow/Area,                !- Outdoor Air Method
    0.007,                    !- Outdoor Air Flow Rate per Person
    3.150000e-03,             !- Outdoor Air Flow Rate per Zone Floor Area
    0,                        !- Outdoor Air Flow Rate per Zone
    ,                         !- Design Specification Outdoor Air Object Name
    None,                     !- Demand Controlled Ventilation Type
    NoEconomizer,             !- Outdoor Air Economizer Type
    Sensible,                 !- Heat Recovery Type
    0.65,                     !- Sensible Heat Recovery Effectiveness
    0;                        !- Latent Heat Recovery Effectiveness

OUTDOORAIR:NODE,
    Block Build0_Alt0 Storey 0 IDEAL LOADS OUTDOOR AIR INLET,    !- Name
    -1,                       !- Height Above Ground
    ,                         !- Drybulb Temperature Schedule Name
    ,                         !- Wetbulb Temperature Schedule Name
    ,                         !- Wind Speed Schedule Name
    ,                         !- Wind Direction Schedule Name
    ,                         !- Wind Pressure Coefficient Curve Name
    No,                       !- Symmetric Wind Pressure Coefficient Curve
    Absolute;                 !- Wind Angle Type

OUTDOORAIR:NODE,
    Block Build1_Alt0 Storey 0 IDEAL LOADS OUTDOOR AIR INLET,    !- Name
    -1,                       !- Height Above Ground
    ,                         !- Drybulb Temperature Schedule Name
    ,                         !- Wetbulb Temperature Schedule Name
    ,                         !- Wind Speed Schedule Name
    ,                         !- Wind Direction Schedule Name
    ,                         !- Wind Pressure Coefficient Curve Name
    No,                       !- Symmetric Wind Pressure Coefficient Curve
    Absolute;                 !- Wind Angle Type

ENERGYMANAGEMENTSYSTEM:SENSOR,
    T0,                       !- Name
    Block Build0_Alt0 Storey 0,    !- OutputVariable or OutputMeter Index Key Name
    Zone Mean Air Temperature;    !- OutputVariable or OutputMeter Name

ENERGYMANAGEMENTSYSTEM:SENSOR,
    T1,                       !- Name
    Block Build1_Alt0 Storey 0,    !- OutputVariable or OutputMeter Index Key Name
    Zone Mean Air Temperature;    !- OutputVariable or OutputMeter Name

ENERGYMANAGEMENTSYSTEM:SENSOR,
    Pow0,                     !- Name
    Block Build0_Alt0 Storey 0 IDEAL LOADS AIR SYSTEM,    !- OutputVariable or OutputMeter Index Key Name
    Zone Ideal Loads Supply Air Total Heating Rate;    !- OutputVariable or OutputMeter Name

ENERGYMANAGEMENTSYSTEM:SENSOR,
    Pow1,                     !- Name
    Block Build1_Alt0 Storey 0 IDEAL LOADS AIR SYSTEM,    !- OutputVariable or OutputMeter Index Key Name
    Zone Ideal Loads Supply Air Total Heating Rate;    !- OutputVariable or OutputMeter Name

ENERGYMANAGEMENTSYSTEM:SENSOR,
    DHWPow,                   !- Name
    DHW,                      !- OutputVariable or OutputMeter Index Key Name
    Water Use Equipment Heating Rate;    !- OutputVariable or OutputMeter Name

ENERGYMANAGEMENTSYSTEM:PROGRAMCALLINGMANAGER,
    Average Building Temperature,    !- Name
    EndOfZoneTimestepBeforeZoneReporting,    !- EnergyPlus Model Calling Point
    AverageZoneTemps;         !- Program Name 1

ENERGYMANAGEMENTSYSTEM:PROGRAMCALLINGMANAGER,
    Compute Total Building Heat Pow,    !- Name
    EndOfZoneTimestepBeforeZoneReporting,    !- EnergyPlus Model Calling Point
    TotZonePow;               !- Program Name 1

ENERGYMANAGEMENTSYSTEM:PROGRAMCALLINGMANAGER,
    Compute Total DHW Heat Pow,    !- Name
    EndOfZoneTimestepBeforeZoneReporting,    !- EnergyPlus Model Calling Point
    prgmDHWPow;               !- Program Name 1

ENERGYMANAGEMENTSYSTEM:PROGRAM,
    AverageZoneTemps,         !- Name
    SET SumNumerator = T0*Vol0+T1*Vol1,    !- Program Line 1
    SET SumDenominator  = Vol0+Vol1,    !- Program Line 2
    SET AverageBuildingTemp  = SumNumerator / SumDenominator;    !- Program Line 3

ENERGYMANAGEMENTSYSTEM:PROGRAM,
    TotZonePow,               !- Name
    SET TotBuildPow = Pow0+Pow1;    !- Program Line 1

ENERGYMANAGEMENTSYSTEM:PROGRAM,
    prgmDHWPow,               !- Name
    SET TotDHWPow = DHWPow;    !- Program Line 1

ENERGYMANAGEMENTSYSTEM:GLOBALVARIABLE,
    AverageBuildingTemp;      !- Erl Variable 1 Name

ENERGYMANAGEMENTSYSTEM:GLOBALVARIABLE,
    TotBuildPow;              !- Erl Variable 1 Name

ENERGYMANAGEMENTSYSTEM:GLOBALVARIABLE,
    TotDHWPow;                !- Erl Variable 1 Name

ENERGYMANAGEMENTSYSTEM:OUTPUTVARIABLE,
    Mean Heated Zones Air Temperature,    !- Name
    AverageBuildingTemp,      !- EMS Variable Name
    Averaged,                 !- Type of Data in Variable
    ZoneTimeStep;             !- Update Frequency

ENERGYMANAGEMENTSYSTEM:OUTPUTVARIABLE,
    Total Building Heating Power,    !- Name
    TotBuildPow,              !- EMS Variable Name
    Averaged,                 !- Type of Data in Variable
    ZoneTimeStep;             !- Update Frequency

ENERGYMANAGEMENTSYSTEM:OUTPUTVARIABLE,
    Total DHW Heating Power,    !- Name
    TotDHWPow,                !- EMS Variable Name
    Averaged,                 !- Type of Data in Variable
    ZoneTimeStep;             !- Update Frequency

ENERGYMANAGEMENTSYSTEM:INTERNALVARIABLE,
    Vol0,                     !- Name
    Block Build0_Alt0 Storey 0,    !- Internal Data Index Key Name
    Zone Air Volume;          !- Internal Data Type

ENERGYMANAGEMENTSYSTEM:INTERNALVARIABLE,
    Vol1,                     !- Name
    Block Build1_Alt0 Storey 0,    !- Internal Data Index Key Name
    Zone Air Volume;          !- Internal Data Type

WATERUSE:EQUIPMENT,
    DHW,                      !- Name
    General,                  !- EndUse Subcategory
    1.471429e-08,             !- Peak Flow Rate
    WaterTaps,                !- Flow Rate Fraction Schedule Name
    TargetWaterTemp,          !- Target Temperature Schedule Name
    HotWaterTemp,             !- Hot Water Supply Temperature Schedule Name
    ColdWaterTemp;            !- Cold Water Supply Temperature Schedule Name

Output:VariableDictionary,
    Regular;                  !- Key Field

OUTPUT:ENERGYMANAGEMENTSYSTEM,
    Verbose,                  !- Actuator Availability Dictionary Reporting
    Verbose,                  !- Internal Variable Availability Dictionary Reporting
    Verbose;                  !- EMS Runtime Language Debug Output Level

Output:Table:SummaryReports,
    AllSummary;               !- Report 1 Name

OutputControl:Table:Style,
    HTML;                     !- Column Separator

OUTPUT:VARIABLE,
    *,                        !- Key Value
    Site Outdoor Air Drybulb Temperature,    !- Variable Name
    Hourly;                   !- Reporting Frequency

OUTPUT:VARIABLE,
    *,                        !- Key Value
    Site Outdoor Air Relative Humidity,    !- Variable Name
    Hourly;                   !- Reporting Frequency

OUTPUT:VARIABLE,
    *,                        !- Key Value
    Site Outdoor Air Barometric Pressure,    !- Variable Name
    Hourly;                   !- Reporting Frequency

OUTPUT:VARIABLE,
    *,                        !- Key Value
    Site Wind Speed,          !- Variable Name
    Hourly;                   !- Reporting Frequency

OUTPUT:VARIABLE,
    *,                        !- Key Value
    Site Diffuse Solar Radiation Rate per Area,    !- Variable Name
    Hourly;                   !- Reporting Frequency

OUTPUT:VARIABLE,
    *,                        !- Key Value
    Site Direct Solar Radiation Rate per Area,    !- Variable Name
    Hourly;                   !- Reporting Frequency

OUTPUT:VARIABLE,
    *,                        !- Key Value
    Zone Electric Equipment Electric Power,    !- Variable Name
    Hourly;                   !- Reporting Frequency

OUTPUT:VARIABLE,
    *,                        !- Key Value
    Zone Electric Equipment Total Heating Rate,    !- Variable Name
    Hourly;                   !- Reporting Frequency

OUTPUT:VARIABLE,
    *,                        !- Key Value
    Surface Outside Face Incident Solar Radiation Rate per Area,    !- Variable Name
    Hourly;                   !- Reporting Frequency

OUTPUT:VARIABLE,
    *,                        !- Key Value
    Surface Outside Face Incident Beam Solar Radiation Rate per Area,    !- Variable Name
    Hourly;                   !- Reporting Frequency

OUTPUT:VARIABLE,
    *,                        !- Key Value
    Zone Ideal Loads Supply Air Total Heating Rate,    !- Variable Name
    Hourly;                   !- Reporting Frequency

OUTPUT:VARIABLE,
    *,                        !- Key Value
    Water Use Equipment Hot Water Mass Flow Rate,    !- Variable Name
    Hourly;                   !- Reporting Frequency

OUTPUT:VARIABLE,
    *,                        !- Key Value
    Water Use Equipment Cold Water Mass Flow Rate,    !- Variable Name
    Hourly;                   !- Reporting Frequency

OUTPUT:VARIABLE,
    *,                        !- Key Value
    Water Use Equipment Hot Water Temperature,    !- Variable Name
    Hourly;                   !- Reporting Frequency

OUTPUT:VARIABLE,
    *,                        !- Key Value
    Water Use Equipment Cold Water Temperature,    !- Variable Name
    Hourly;                   !- Reporting Frequency

OUTPUT:VARIABLE,
    *,                        !- Key Value
    Water Use Equipment Heating Rate,    !- Variable Name
    Hourly;                   !- Reporting Frequency

OUTPUT:VARIABLE,
    *,                        !- Key Value
    Mean Heated Zones Air Temperature,    !- Variable Name
    Hourly;                   !- Reporting Frequency

OUTPUT:VARIABLE,
    *,                        !- Key Value
    Total Building Heating Power,    !- Variable Name
    Hourly;                   !- Reporting Frequency

OUTPUT:VARIABLE,
    *,                        !- Key Value
    Total DHW Heating Power,    !- Variable Name
    Hourly;                   !- Reporting Frequency

OUTPUT:DIAGNOSTICS,
    DISPLAYEXTRAWARNINGS,     !- Key 1
    DisplayAdvancedReportVariables;    !- Key 2