!- Darwin Line endings 

Version,
    9.5;                      !- Version Identifier

SimulationControl,
    No,                       !- Do Zone Sizing Calculation
    No,                       !- Do System Sizing Calculation
    No,                       !- Do Plant Sizing Calculation
    No,                       !- Run Simulation for Sizing Periods
    Yes,                      !- Run Simulation for Weather File Run Periods
    No,                       !- Do HVAC Sizing Simulation for Sizing Periods
    1;                        !- Maximum Number of HVAC Sizing Simulation Passes

Building,
    None,                     !- Name
    0,                        !- North Axis
    Suburbs,                  !- Terrain
    0.04,                     !- Loads Convergence Tolerance Value
    0.4,                      !- Temperature Convergence Tolerance Value
    FullExterior,             !- Solar Distribution
    25,                       !- Maximum Number of Warmup Days
    6;                        !- Minimum Number of Warmup Days

SHADOWCALCULATION,
    PolygonClipping,          !- Shading Calculation Method
    Periodic,                 !- Shading Calculation Update Frequency Method
    20,                       !- Shading Calculation Update Frequency
    25000,                    !- Maximum Figures in Shadow Overlap Calculations
    SutherlandHodgman,        !- Polygon Clipping Algorithm
    512,                      !- Pixel Counting Resolution
    SimpleSkyDiffuseModeling,    !- Sky Diffuse Modeling Algorithm
    No,                       !- Output External Shading Calculation Results
    No,                       !- Disable SelfShading Within Shading Zone Groups
    No;                       !- Disable SelfShading From Shading Zone Groups to Other Zones

Timestep,
    4;                        !- Number of Timesteps per Hour

Site:Location,
    WeatherData/USA_CA_San.Francisco.Intl.AP.724940_TMY3.epw,    !- Name
    37.62,                    !- Latitude
    -122.4,                   !- Longitude
    -8,                       !- Time Zone
    2;                        !- Elevation

SizingPeriod:DesignDay,
    DENVER_STAPLETON Ann Htg 99.6% Condns DB,    !- Name
    12,                       !- Month
    21,                       !- Day of Month
    WinterDesignDay,          !- Day Type
    -20,                      !- Maximum DryBulb Temperature
    0,                        !- Daily DryBulb Temperature Range
    ,                         !- DryBulb Temperature Range Modifier Type
    ,                         !- DryBulb Temperature Range Modifier Day Schedule Name
    Wetbulb,                  !- Humidity Condition Type
    -20,                      !- Wetbulb or DewPoint at Maximum DryBulb
    ,                         !- Humidity Condition Day Schedule Name
    ,                         !- Humidity Ratio at Maximum DryBulb
    ,                         !- Enthalpy at Maximum DryBulb
    ,                         !- Daily WetBulb Temperature Range
    100594,                   !- Barometric Pressure
    2.3,                      !- Wind Speed
    180,                      !- Wind Direction
    No,                       !- Rain Indicator
    No,                       !- Snow Indicator
    No,                       !- Daylight Saving Time Indicator
    ASHRAEClearSky,           !- Solar Model Indicator
    ,                         !- Beam Solar Day Schedule Name
    ,                         !- Diffuse Solar Day Schedule Name
    ,                         !- ASHRAE Clear Sky Optical Depth for Beam Irradiance taub
    ,                         !- ASHRAE Clear Sky Optical Depth for Diffuse Irradiance taud
    0;                        !- Sky Clearness

SizingPeriod:DesignDay,
    DENVER_STAPLETON Ann Clg .4% Condns DB=>MWB,    !- Name
    7,                        !- Month
    21,                       !- Day of Month
    SummerDesignDay,          !- Day Type
    34.1,                     !- Maximum DryBulb Temperature
    15.2,                     !- Daily DryBulb Temperature Range
    ,                         !- DryBulb Temperature Range Modifier Type
    ,                         !- DryBulb Temperature Range Modifier Day Schedule Name
    Wetbulb,                  !- Humidity Condition Type
    15.8,                     !- Wetbulb or DewPoint at Maximum DryBulb
    ,                         !- Humidity Condition Day Schedule Name
    ,                         !- Humidity Ratio at Maximum DryBulb
    ,                         !- Enthalpy at Maximum DryBulb
    ,                         !- Daily WetBulb Temperature Range
    100594,                   !- Barometric Pressure
    4,                        !- Wind Speed
    120,                      !- Wind Direction
    No,                       !- Rain Indicator
    No,                       !- Snow Indicator
    No,                       !- Daylight Saving Time Indicator
    ASHRAEClearSky,           !- Solar Model Indicator
    ,                         !- Beam Solar Day Schedule Name
    ,                         !- Diffuse Solar Day Schedule Name
    ,                         !- ASHRAE Clear Sky Optical Depth for Beam Irradiance taub
    ,                         !- ASHRAE Clear Sky Optical Depth for Diffuse Irradiance taud
    1;                        !- Sky Clearness

RunPeriod,
    Run Period 1,             !- Name
    1,                        !- Begin Month
    1,                        !- Begin Day of Month
    ,                         !- Begin Year
    12,                       !- End Month
    31,                       !- End Day of Month
    ,                         !- End Year
    Tuesday,                  !- Day of Week for Start Day
    Yes,                      !- Use Weather File Holidays and Special Days
    Yes,                      !- Use Weather File Daylight Saving Period
    No,                       !- Apply Weekend Holiday Rule
    Yes,                      !- Use Weather File Rain Indicators
    Yes;                      !- Use Weather File Snow Indicators

SITE:GROUNDTEMPERATURE:BUILDINGSURFACE,
    15,                       !- January Ground Temperature
    15,                       !- February Ground Temperature
    15,                       !- March Ground Temperature
    15,                       !- April Ground Temperature
    15,                       !- May Ground Temperature
    15,                       !- June Ground Temperature
    15,                       !- July Ground Temperature
    15,                       !- August Ground Temperature
    15,                       !- September Ground Temperature
    15,                       !- October Ground Temperature
    15,                       !- November Ground Temperature
    15;                       !- December Ground Temperature

SCHEDULETYPELIMITS,
    Any Number,               !- Name
    ,                         !- Lower Limit Value
    ,                         !- Upper Limit Value
    ,                         !- Numeric Type
    Dimensionless;            !- Unit Type

SCHEDULE:COMPACT,
    AlwaysON,                 !- Name
    Any Number,               !- Schedule Type Limits Name
    Through: 12/31,           !- Field 1
    For: AllDays,             !- Field 2
    Until: 24:00,             !- Field 3
    1;                        !- Field 4

SCHEDULE:COMPACT,
    OccupActivity,            !- Name
    Any Number,               !- Schedule Type Limits Name
    Through: 12/31,           !- Field 1
    For: AllDays,             !- Field 2
    Until: 24:00,             !- Field 3
    70;                       !- Field 4

SCHEDULE:COMPACT,
    HotWaterTemp,             !- Name
    Any Number,               !- Schedule Type Limits Name
    Through: 12/31,           !- Field 1
    For: AllDays,             !- Field 2
    Until: 24:00,             !- Field 3
    55;                       !- Field 4

SCHEDULE:COMPACT,
    TargetWaterTemp,          !- Name
    Any Number,               !- Schedule Type Limits Name
    Through: 12/31,           !- Field 1
    For: AllDays,             !- Field 2
    Until: 24:00,             !- Field 3
    37;                       !- Field 4

SCHEDULE:FILE,
    LoadSchedule,             !- Name
    Any Number,               !- Schedule Type Limits Name
    /Users/alizad/PycharmProjects/mubes-ubem/examples/ForTest/InputFiles/Building20_winter.txt,    !- File Name
    1,                        !- Column Number
    0,                        !- Rows to Skip at Top
    8760,                     !- Number of Hours of Data
    Comma,                    !- Column Separator
    No;                       !- Interpolate to Timestep

SCHEDULE:FILE,
    Watertaps,                !- Name
    Any Number,               !- Schedule Type Limits Name
    /Users/alizad/PycharmProjects/mubes-ubem/examples/ForTest/InputFiles/domestic_hot_water_40_apartments.txt,    !- File Name
    1,                        !- Column Number
    0,                        !- Rows to Skip at Top
    8760,                     !- Number of Hours of Data
    Comma,                    !- Column Separator
    No;                       !- Interpolate to Timestep

SCHEDULE:FILE,
    ColdWaterTemp,            !- Name
    Any Number,               !- Schedule Type Limits Name
    /Users/alizad/PycharmProjects/mubes-ubem/examples/ForTest/InputFiles/cold_water_temperature_stockholm.txt,    !- File Name
    1,                        !- Column Number
    0,                        !- Rows to Skip at Top
    8760,                     !- Number of Hours of Data
    Comma,                    !- Column Separator
    No;                       !- Interpolate to Timestep

MATERIAL,
    DefaultMaterial,          !- Name
    Rough,                    !- Roughness
    0.1,                      !- Thickness
    0.1,                      !- Conductivity
    1000,                     !- Density
    1000,                     !- Specific Heat
    0.9,                      !- Thermal Absorptance
    0.7,                      !- Solar Absorptance
    0.7;                      !- Visible Absorptance

MATERIAL,
    Basement Floor,           !- Name
    Rough,                    !- Roughness
    0.1,                      !- Thickness
    0.9,                      !- Conductivity
    2300,                     !- Density
    1000,                     !- Specific Heat
    0.9,                      !- Thermal Absorptance
    0.7,                      !- Solar Absorptance
    0.7;                      !- Visible Absorptance

MATERIAL,
    Heated1rstFloor Inertia,    !- Name
    Rough,                    !- Roughness
    0.1,                      !- Thickness
    0.9,                      !- Conductivity
    2300,                     !- Density
    1000,                     !- Specific Heat
    0.9,                      !- Thermal Absorptance
    0.7,                      !- Solar Absorptance
    0.7;                      !- Visible Absorptance

MATERIAL,
    Heated1rstFloor Insulation,    !- Name
    Rough,                    !- Roughness
    0.15,                     !- Thickness
    0.035,                    !- Conductivity
    150,                      !- Density
    1000,                     !- Specific Heat
    0.9,                      !- Thermal Absorptance
    0.7,                      !- Solar Absorptance
    0.7;                      !- Visible Absorptance

MATERIAL,
    Roof Insulation,          !- Name
    Rough,                    !- Roughness
    0.3,                      !- Thickness
    0.03,                     !- Conductivity
    150,                      !- Density
    1000,                     !- Specific Heat
    0.9,                      !- Thermal Absorptance
    0.7,                      !- Solar Absorptance
    0.7;                      !- Visible Absorptance

MATERIAL,
    Wall Inertia,             !- Name
    Rough,                    !- Roughness
    0.2,                      !- Thickness
    0.9,                      !- Conductivity
    2300,                     !- Density
    1000,                     !- Specific Heat
    0.9,                      !- Thermal Absorptance
    0.7,                      !- Solar Absorptance
    0.7;                      !- Visible Absorptance

MATERIAL,
    Wall Insulation,          !- Name
    Rough,                    !- Roughness
    0.2,                      !- Thickness
    0.03,                     !- Conductivity
    150,                      !- Density
    1000,                     !- Specific Heat
    0.9,                      !- Thermal Absorptance
    0.7,                      !- Solar Absorptance
    0.7;                      !- Visible Absorptance

MATERIAL,
    HeatedZoneIntMass,        !- Name
    Rough,                    !- Roughness
    0.1,                      !- Thickness
    0.3,                      !- Conductivity
    600,                      !- Density
    1400,                     !- Specific Heat
    0.9,                      !- Thermal Absorptance
    0.7,                      !- Solar Absorptance
    0.7;                      !- Visible Absorptance

MATERIAL,
    AirWallMaterial,          !- Name
    MediumSmooth,             !- Roughness
    0.01,                     !- Thickness
    0.6,                      !- Conductivity
    800,                      !- Density
    1000,                     !- Specific Heat
    0.95,                     !- Thermal Absorptance
    0.7,                      !- Solar Absorptance
    0.7;                      !- Visible Absorptance

WINDOWMATERIAL:SIMPLEGLAZINGSYSTEM,
    DefaultGlazing,           !- Name
    2.7,                      !- UFactor
    0.763,                    !- Solar Heat Gain Coefficient
    0.8;                      !- Visible Transmittance

WINDOWMATERIAL:SIMPLEGLAZINGSYSTEM,
    Window,                   !- Name
    1.9,                      !- UFactor
    0.7,                      !- Solar Heat Gain Coefficient
    0.8;                      !- Visible Transmittance

CONSTRUCTION,
    Project Wall,             !- Name
    Wall Inertia,             !- Outside Layer
    Wall Insulation;          !- Layer 2

CONSTRUCTION,
    Project Flat Roof,        !- Name
    Roof Insulation;          !- Outside Layer

CONSTRUCTION,
    Project External Window,    !- Name
    Window;                   !- Outside Layer

CONSTRUCTION,
    Project Heated1rstFloor,    !- Name
    Heated1rstFloor Inertia,    !- Outside Layer
    Heated1rstFloor Insulation;    !- Layer 2

CONSTRUCTION,
    HeatedZoneIntMassObj,     !- Name
    HeatedZoneIntMass;        !- Outside Layer

GlobalGeometryRules,
    UpperLeftCorner,          !- Starting Vertex Position
    CounterClockWise,         !- Vertex Entry Direction
    World;                    !- Coordinate System

ZONE,
    Block Build0_Alt0 Storey 0,    !- Name
    0,                        !- Direction of Relative North
    0,                        !- X Origin
    0,                        !- Y Origin
    0,                        !- Z Origin
    1,                        !- Type
    1,                        !- Multiplier
    autocalculate,            !- Ceiling Height
    autocalculate,            !- Volume
    autocalculate,            !- Floor Area
    ,                         !- Zone Inside Convection Algorithm
    ,                         !- Zone Outside Convection Algorithm
    Yes;                      !- Part of Total Floor Area

BUILDINGSURFACE:DETAILED,
    Block Build0_Alt0 Storey 0 Wall 0001,    !- Name
    wall,                     !- Surface Type
    Project Wall,             !- Construction Name
    Block Build0_Alt0 Storey 0,    !- Zone Name
    outdoors,                 !- Outside Boundary Condition
    ,                         !- Outside Boundary Condition Object
    SunExposed,               !- Sun Exposure
    WindExposed,              !- Wind Exposure
    autocalculate,            !- View Factor to Ground
    autocalculate,            !- Number of Vertices
    4.4411,                   !- Vertex 1 Xcoordinate
    11.6896,                  !- Vertex 1 Ycoordinate
    9,                        !- Vertex 1 Zcoordinate
    4.4411,                   !- Vertex 2 Xcoordinate
    11.6896,                  !- Vertex 2 Ycoordinate
    0,                        !- Vertex 2 Zcoordinate
    -4.1049,                  !- Vertex 3 Xcoordinate
    9.6436,                   !- Vertex 3 Ycoordinate
    0,                        !- Vertex 3 Zcoordinate
    -4.1049,                  !- Vertex 4 Xcoordinate
    9.6436,                   !- Vertex 4 Ycoordinate
    9;                        !- Vertex 4 Zcoordinate

BUILDINGSURFACE:DETAILED,
    Block Build0_Alt0 Storey 0 Wall 0002,    !- Name
    wall,                     !- Surface Type
    Project Wall,             !- Construction Name
    Block Build0_Alt0 Storey 0,    !- Zone Name
    outdoors,                 !- Outside Boundary Condition
    ,                         !- Outside Boundary Condition Object
    SunExposed,               !- Sun Exposure
    WindExposed,              !- Wind Exposure
    autocalculate,            !- View Factor to Ground
    autocalculate,            !- Number of Vertices
    -4.1049,                  !- Vertex 1 Xcoordinate
    9.6436,                   !- Vertex 1 Ycoordinate
    9,                        !- Vertex 1 Zcoordinate
    -4.1049,                  !- Vertex 2 Xcoordinate
    9.6436,                   !- Vertex 2 Ycoordinate
    0,                        !- Vertex 2 Zcoordinate
    -0.0349,                  !- Vertex 3 Xcoordinate
    -7.3454,                  !- Vertex 3 Ycoordinate
    0,                        !- Vertex 3 Zcoordinate
    -0.0349,                  !- Vertex 4 Xcoordinate
    -7.3454,                  !- Vertex 4 Ycoordinate
    9;                        !- Vertex 4 Zcoordinate

BUILDINGSURFACE:DETAILED,
    Block Build0_Alt0 Storey 0 Wall 0003,    !- Name
    wall,                     !- Surface Type
    Project Wall,             !- Construction Name
    Block Build0_Alt0 Storey 0,    !- Zone Name
    outdoors,                 !- Outside Boundary Condition
    ,                         !- Outside Boundary Condition Object
    SunExposed,               !- Sun Exposure
    WindExposed,              !- Wind Exposure
    autocalculate,            !- View Factor to Ground
    autocalculate,            !- Number of Vertices
    -0.0349,                  !- Vertex 1 Xcoordinate
    -7.3454,                  !- Vertex 1 Ycoordinate
    9,                        !- Vertex 1 Zcoordinate
    -0.0349,                  !- Vertex 2 Xcoordinate
    -7.3454,                  !- Vertex 2 Ycoordinate
    0,                        !- Vertex 2 Zcoordinate
    8.4571,                   !- Vertex 3 Xcoordinate
    -5.2714,                  !- Vertex 3 Ycoordinate
    0,                        !- Vertex 3 Zcoordinate
    8.4571,                   !- Vertex 4 Xcoordinate
    -5.2714,                  !- Vertex 4 Ycoordinate
    9;                        !- Vertex 4 Zcoordinate

BUILDINGSURFACE:DETAILED,
    Block Build0_Alt0 Storey 0 Wall 0004,    !- Name
    wall,                     !- Surface Type
    Project Wall,             !- Construction Name
    Block Build0_Alt0 Storey 0,    !- Zone Name
    outdoors,                 !- Outside Boundary Condition
    ,                         !- Outside Boundary Condition Object
    SunExposed,               !- Sun Exposure
    WindExposed,              !- Wind Exposure
    autocalculate,            !- View Factor to Ground
    autocalculate,            !- Number of Vertices
    8.4571,                   !- Vertex 1 Xcoordinate
    -5.2714,                  !- Vertex 1 Ycoordinate
    9,                        !- Vertex 1 Zcoordinate
    8.4571,                   !- Vertex 2 Xcoordinate
    -5.2714,                  !- Vertex 2 Ycoordinate
    0,                        !- Vertex 2 Zcoordinate
    4.4411,                   !- Vertex 3 Xcoordinate
    11.6896,                  !- Vertex 3 Ycoordinate
    0,                        !- Vertex 3 Zcoordinate
    4.4411,                   !- Vertex 4 Xcoordinate
    11.6896,                  !- Vertex 4 Ycoordinate
    9;                        !- Vertex 4 Zcoordinate

BUILDINGSURFACE:DETAILED,
    Block Build0_Alt0 Storey 0 Floor 0001,    !- Name
    floor,                    !- Surface Type
    Project Heated1rstFloor,    !- Construction Name
    Block Build0_Alt0 Storey 0,    !- Zone Name
    ground,                   !- Outside Boundary Condition
    ,                         !- Outside Boundary Condition Object
    NoSun,                    !- Sun Exposure
    NoWind,                   !- Wind Exposure
    autocalculate,            !- View Factor to Ground
    autocalculate,            !- Number of Vertices
    4.4411,                   !- Vertex 1 Xcoordinate
    11.6896,                  !- Vertex 1 Ycoordinate
    0,                        !- Vertex 1 Zcoordinate
    8.4571,                   !- Vertex 2 Xcoordinate
    -5.2714,                  !- Vertex 2 Ycoordinate
    0,                        !- Vertex 2 Zcoordinate
    -0.0349,                  !- Vertex 3 Xcoordinate
    -7.3454,                  !- Vertex 3 Ycoordinate
    0,                        !- Vertex 3 Zcoordinate
    -4.1049,                  !- Vertex 4 Xcoordinate
    9.6436,                   !- Vertex 4 Ycoordinate
    0;                        !- Vertex 4 Zcoordinate

BUILDINGSURFACE:DETAILED,
    Block Build0_Alt0 Storey 0 Roof 0001,    !- Name
    roof,                     !- Surface Type
    Project Flat Roof,        !- Construction Name
    Block Build0_Alt0 Storey 0,    !- Zone Name
    outdoors,                 !- Outside Boundary Condition
    ,                         !- Outside Boundary Condition Object
    SunExposed,               !- Sun Exposure
    WindExposed,              !- Wind Exposure
    autocalculate,            !- View Factor to Ground
    autocalculate,            !- Number of Vertices
    8.4571,                   !- Vertex 1 Xcoordinate
    -5.2714,                  !- Vertex 1 Ycoordinate
    9,                        !- Vertex 1 Zcoordinate
    4.4411,                   !- Vertex 2 Xcoordinate
    11.6896,                  !- Vertex 2 Ycoordinate
    9,                        !- Vertex 2 Zcoordinate
    -4.1049,                  !- Vertex 3 Xcoordinate
    9.6436,                   !- Vertex 3 Ycoordinate
    9,                        !- Vertex 3 Zcoordinate
    -0.0349,                  !- Vertex 4 Xcoordinate
    -7.3454,                  !- Vertex 4 Ycoordinate
    9;                        !- Vertex 4 Zcoordinate

FENESTRATIONSURFACE:DETAILED,
    Block Build0_Alt0 Storey 0 Wall 0001 window,    !- Name
    Window,                   !- Surface Type
    Project External Window,    !- Construction Name
    Block Build0_Alt0 Storey 0 Wall 0001,    !- Building Surface Name
    ,                         !- Outside Boundary Condition Object
    autocalculate,            !- View Factor to Ground
    ,                         !- Frame and Divider Name
    1.0,                      !- Multiplier
    autocalculate,            !- Number of Vertices
    4.436826999999999,        !- Vertex 1 Xcoordinate
    11.688577,                !- Vertex 1 Ycoordinate
    5.85,                     !- Vertex 1 Zcoordinate
    4.436826999999999,        !- Vertex 2 Xcoordinate
    11.688577,                !- Vertex 2 Ycoordinate
    3.1500000000000004,       !- Vertex 2 Zcoordinate
    -4.100626999999999,       !- Vertex 3 Xcoordinate
    9.644623,                 !- Vertex 3 Ycoordinate
    3.1500000000000004,       !- Vertex 3 Zcoordinate
    -4.100626999999999,       !- Vertex 4 Xcoordinate
    9.644623,                 !- Vertex 4 Ycoordinate
    5.85;                     !- Vertex 4 Zcoordinate

FENESTRATIONSURFACE:DETAILED,
    Block Build0_Alt0 Storey 0 Wall 0002 window,    !- Name
    Window,                   !- Surface Type
    Project External Window,    !- Construction Name
    Block Build0_Alt0 Storey 0 Wall 0002,    !- Building Surface Name
    ,                         !- Outside Boundary Condition Object
    autocalculate,            !- View Factor to Ground
    ,                         !- Frame and Divider Name
    1.0,                      !- Multiplier
    autocalculate,            !- Number of Vertices
    -4.102865e+00,            !- Vertex 1 Xcoordinate
    9.635105499999998,        !- Vertex 1 Ycoordinate
    5.85,                     !- Vertex 1 Zcoordinate
    -4.102865e+00,            !- Vertex 2 Xcoordinate
    9.635105499999998,        !- Vertex 2 Ycoordinate
    3.1500000000000004,       !- Vertex 2 Zcoordinate
    -3.693500e-02,            !- Vertex 3 Xcoordinate
    -7.336905499999999,       !- Vertex 3 Ycoordinate
    3.1500000000000004,       !- Vertex 3 Zcoordinate
    -3.693500e-02,            !- Vertex 4 Xcoordinate
    -7.336905499999999,       !- Vertex 4 Ycoordinate
    5.85;                     !- Vertex 4 Zcoordinate

FENESTRATIONSURFACE:DETAILED,
    Block Build0_Alt0 Storey 0 Wall 0003 window,    !- Name
    Window,                   !- Surface Type
    Project External Window,    !- Construction Name
    Block Build0_Alt0 Storey 0 Wall 0003,    !- Building Surface Name
    ,                         !- Outside Boundary Condition Object
    autocalculate,            !- View Factor to Ground
    ,                         !- Frame and Divider Name
    1.0,                      !- Multiplier
    autocalculate,            !- Number of Vertices
    -3.065400e-02,            !- Vertex 1 Xcoordinate
    -7.344363e+00,            !- Vertex 1 Ycoordinate
    5.85,                     !- Vertex 1 Zcoordinate
    -3.065400e-02,            !- Vertex 2 Xcoordinate
    -7.344363e+00,            !- Vertex 2 Ycoordinate
    3.1500000000000004,       !- Vertex 2 Zcoordinate
    8.452854,                 !- Vertex 3 Xcoordinate
    -5.272437,                !- Vertex 3 Ycoordinate
    3.1500000000000004,       !- Vertex 3 Zcoordinate
    8.452854,                 !- Vertex 4 Xcoordinate
    -5.272437,                !- Vertex 4 Ycoordinate
    5.85;                     !- Vertex 4 Zcoordinate

FENESTRATIONSURFACE:DETAILED,
    Block Build0_Alt0 Storey 0 Wall 0004 window,    !- Name
    Window,                   !- Surface Type
    Project External Window,    !- Construction Name
    Block Build0_Alt0 Storey 0 Wall 0004,    !- Building Surface Name
    ,                         !- Outside Boundary Condition Object
    autocalculate,            !- View Factor to Ground
    ,                         !- Frame and Divider Name
    1.0,                      !- Multiplier
    autocalculate,            !- Number of Vertices
    8.455092,                 !- Vertex 1 Xcoordinate
    -5.2629195,               !- Vertex 1 Ycoordinate
    5.85,                     !- Vertex 1 Zcoordinate
    8.455092,                 !- Vertex 2 Xcoordinate
    -5.2629195,               !- Vertex 2 Ycoordinate
    3.1500000000000004,       !- Vertex 2 Zcoordinate
    4.443108,                 !- Vertex 3 Xcoordinate
    11.681119500000001,       !- Vertex 3 Ycoordinate
    3.1500000000000004,       !- Vertex 3 Zcoordinate
    4.443108,                 !- Vertex 4 Xcoordinate
    11.681119500000001,       !- Vertex 4 Ycoordinate
    5.85;                     !- Vertex 4 Zcoordinate

INTERNALMASS,
    Block Build0_Alt0 Storey 0IntMass,    !- Name
    HeatedZoneIntMassObj,     !- Construction Name
    Block Build0_Alt0 Storey 0,    !- Zone or ZoneList Name
    918;                      !- Surface Area

SHADING:SITE:DETAILED,
    Shading_V3_1,             !- Name
    ,                         !- Transmittance Schedule Name
    autocalculate,            !- Number of Vertices
    0.2891,                   !- Vertex 1 Xcoordinate
    139.1386,                 !- Vertex 1 Ycoordinate
    15.8,                     !- Vertex 1 Zcoordinate
    0.2891,                   !- Vertex 2 Xcoordinate
    139.1386,                 !- Vertex 2 Ycoordinate
    0,                        !- Vertex 2 Zcoordinate
    7.7871,                   !- Vertex 3 Xcoordinate
    145.5986,                 !- Vertex 3 Ycoordinate
    0,                        !- Vertex 3 Zcoordinate
    7.7871,                   !- Vertex 4 Xcoordinate
    145.5986,                 !- Vertex 4 Ycoordinate
    15.8;                     !- Vertex 4 Zcoordinate

SHADING:SITE:DETAILED,
    Shading_V4_1,             !- Name
    ,                         !- Transmittance Schedule Name
    autocalculate,            !- Number of Vertices
    7.7871,                   !- Vertex 1 Xcoordinate
    145.5986,                 !- Vertex 1 Ycoordinate
    15.8,                     !- Vertex 1 Zcoordinate
    7.7871,                   !- Vertex 2 Xcoordinate
    145.5986,                 !- Vertex 2 Ycoordinate
    0,                        !- Vertex 2 Zcoordinate
    11.4921,                  !- Vertex 3 Xcoordinate
    141.2706,                 !- Vertex 3 Ycoordinate
    0,                        !- Vertex 3 Zcoordinate
    11.4921,                  !- Vertex 4 Xcoordinate
    141.2706,                 !- Vertex 4 Ycoordinate
    15.8;                     !- Vertex 4 Zcoordinate

SHADING:SITE:DETAILED,
    Shading_V13_1,            !- Name
    ,                         !- Transmittance Schedule Name
    autocalculate,            !- Number of Vertices
    9.0441,                   !- Vertex 1 Xcoordinate
    128.8876,                 !- Vertex 1 Ycoordinate
    16.1,                     !- Vertex 1 Zcoordinate
    9.0441,                   !- Vertex 2 Xcoordinate
    128.8876,                 !- Vertex 2 Ycoordinate
    0,                        !- Vertex 2 Zcoordinate
    15.8021,                  !- Vertex 3 Xcoordinate
    121.3426,                 !- Vertex 3 Ycoordinate
    0,                        !- Vertex 3 Zcoordinate
    15.8021,                  !- Vertex 4 Xcoordinate
    121.3426,                 !- Vertex 4 Ycoordinate
    16.1;                     !- Vertex 4 Zcoordinate

SHADING:SITE:DETAILED,
    Shading_V14_1,            !- Name
    ,                         !- Transmittance Schedule Name
    autocalculate,            !- Number of Vertices
    15.8021,                  !- Vertex 1 Xcoordinate
    121.3426,                 !- Vertex 1 Ycoordinate
    16.1,                     !- Vertex 1 Zcoordinate
    15.8021,                  !- Vertex 2 Xcoordinate
    121.3426,                 !- Vertex 2 Ycoordinate
    0,                        !- Vertex 2 Zcoordinate
    24.4091,                  !- Vertex 3 Xcoordinate
    128.7096,                 !- Vertex 3 Ycoordinate
    0,                        !- Vertex 3 Zcoordinate
    24.4091,                  !- Vertex 4 Xcoordinate
    128.7096,                 !- Vertex 4 Ycoordinate
    16.1;                     !- Vertex 4 Zcoordinate

SHADING:SITE:DETAILED,
    Shading_V21_1,            !- Name
    ,                         !- Transmittance Schedule Name
    autocalculate,            !- Number of Vertices
    -70.5409,                 !- Vertex 1 Xcoordinate
    49.7636,                  !- Vertex 1 Ycoordinate
    6.9,                      !- Vertex 1 Zcoordinate
    -70.5409,                 !- Vertex 2 Xcoordinate
    49.7636,                  !- Vertex 2 Ycoordinate
    0,                        !- Vertex 2 Zcoordinate
    -65.7599,                 !- Vertex 3 Xcoordinate
    58.7746,                  !- Vertex 3 Ycoordinate
    0,                        !- Vertex 3 Zcoordinate
    -65.7599,                 !- Vertex 4 Xcoordinate
    58.7746,                  !- Vertex 4 Ycoordinate
    6.9;                      !- Vertex 4 Zcoordinate

SHADING:SITE:DETAILED,
    Shading_V24_1,            !- Name
    ,                         !- Transmittance Schedule Name
    autocalculate,            !- Number of Vertices
    -93.1709,                 !- Vertex 1 Xcoordinate
    61.7326,                  !- Vertex 1 Ycoordinate
    6.9,                      !- Vertex 1 Zcoordinate
    -93.1709,                 !- Vertex 2 Xcoordinate
    61.7326,                  !- Vertex 2 Ycoordinate
    0,                        !- Vertex 2 Zcoordinate
    -70.5409,                 !- Vertex 3 Xcoordinate
    49.7636,                  !- Vertex 3 Ycoordinate
    0,                        !- Vertex 3 Zcoordinate
    -70.5409,                 !- Vertex 4 Xcoordinate
    49.7636,                  !- Vertex 4 Ycoordinate
    6.9;                      !- Vertex 4 Zcoordinate

SHADING:SITE:DETAILED,
    Shading_V61_1,            !- Name
    ,                         !- Transmittance Schedule Name
    autocalculate,            !- Number of Vertices
    91.3425,                  !- Vertex 1 Xcoordinate
    70.4741,                  !- Vertex 1 Ycoordinate
    11.6,                     !- Vertex 1 Zcoordinate
    91.3425,                  !- Vertex 2 Xcoordinate
    70.4741,                  !- Vertex 2 Ycoordinate
    0,                        !- Vertex 2 Zcoordinate
    96.3261,                  !- Vertex 3 Xcoordinate
    64.7276,                  !- Vertex 3 Ycoordinate
    0,                        !- Vertex 3 Zcoordinate
    96.3261,                  !- Vertex 4 Xcoordinate
    64.7276,                  !- Vertex 4 Ycoordinate
    11.6;                     !- Vertex 4 Zcoordinate

SHADING:SITE:DETAILED,
    Shading_V62_1,            !- Name
    ,                         !- Transmittance Schedule Name
    autocalculate,            !- Number of Vertices
    96.3261,                  !- Vertex 1 Xcoordinate
    64.7276,                  !- Vertex 1 Ycoordinate
    11.6,                     !- Vertex 1 Zcoordinate
    96.3261,                  !- Vertex 2 Xcoordinate
    64.7276,                  !- Vertex 2 Ycoordinate
    0,                        !- Vertex 2 Zcoordinate
    95.5093,                  !- Vertex 3 Xcoordinate
    54.0155,                  !- Vertex 3 Ycoordinate
    0,                        !- Vertex 3 Zcoordinate
    95.5093,                  !- Vertex 4 Xcoordinate
    54.0155,                  !- Vertex 4 Ycoordinate
    11.6;                     !- Vertex 4 Zcoordinate

SHADING:SITE:DETAILED,
    Shading_V85_1,            !- Name
    ,                         !- Transmittance Schedule Name
    autocalculate,            !- Number of Vertices
    -29.0609,                 !- Vertex 1 Xcoordinate
    88.4286,                  !- Vertex 1 Ycoordinate
    8,                        !- Vertex 1 Zcoordinate
    -29.0609,                 !- Vertex 2 Xcoordinate
    88.4286,                  !- Vertex 2 Ycoordinate
    0,                        !- Vertex 2 Zcoordinate
    -22.3189,                 !- Vertex 3 Xcoordinate
    79.0806,                  !- Vertex 3 Ycoordinate
    0,                        !- Vertex 3 Zcoordinate
    -22.3189,                 !- Vertex 4 Xcoordinate
    79.0806,                  !- Vertex 4 Ycoordinate
    8;                        !- Vertex 4 Zcoordinate

SHADING:SITE:DETAILED,
    Shading_V86_1,            !- Name
    ,                         !- Transmittance Schedule Name
    autocalculate,            !- Number of Vertices
    -22.3189,                 !- Vertex 1 Xcoordinate
    79.0806,                  !- Vertex 1 Ycoordinate
    8,                        !- Vertex 1 Zcoordinate
    -22.3189,                 !- Vertex 2 Xcoordinate
    79.0806,                  !- Vertex 2 Ycoordinate
    0,                        !- Vertex 2 Zcoordinate
    -13.7379,                 !- Vertex 3 Xcoordinate
    85.2656,                  !- Vertex 3 Ycoordinate
    0,                        !- Vertex 3 Zcoordinate
    -13.7379,                 !- Vertex 4 Xcoordinate
    85.2656,                  !- Vertex 4 Ycoordinate
    8;                        !- Vertex 4 Zcoordinate

SHADING:SITE:DETAILED,
    Shading_V143_1,           !- Name
    ,                         !- Transmittance Schedule Name
    autocalculate,            !- Number of Vertices
    88.3881,                  !- Vertex 1 Xcoordinate
    126.3016,                 !- Vertex 1 Ycoordinate
    15.5,                     !- Vertex 1 Zcoordinate
    88.3881,                  !- Vertex 2 Xcoordinate
    126.3016,                 !- Vertex 2 Ycoordinate
    0,                        !- Vertex 2 Zcoordinate
    96.1921,                  !- Vertex 3 Xcoordinate
    132.9806,                 !- Vertex 3 Ycoordinate
    0,                        !- Vertex 3 Zcoordinate
    96.1921,                  !- Vertex 4 Xcoordinate
    132.9806,                 !- Vertex 4 Ycoordinate
    15.5;                     !- Vertex 4 Zcoordinate

SHADING:SITE:DETAILED,
    Shading_V144_1,           !- Name
    ,                         !- Transmittance Schedule Name
    autocalculate,            !- Number of Vertices
    96.1921,                  !- Vertex 1 Xcoordinate
    132.9806,                 !- Vertex 1 Ycoordinate
    15.5,                     !- Vertex 1 Zcoordinate
    96.1921,                  !- Vertex 2 Xcoordinate
    132.9806,                 !- Vertex 2 Ycoordinate
    0,                        !- Vertex 2 Zcoordinate
    98.7941,                  !- Vertex 3 Xcoordinate
    129.9416,                 !- Vertex 3 Ycoordinate
    0,                        !- Vertex 3 Zcoordinate
    98.7941,                  !- Vertex 4 Xcoordinate
    129.9416,                 !- Vertex 4 Ycoordinate
    15.5;                     !- Vertex 4 Zcoordinate

SHADING:SITE:DETAILED,
    Shading_V145_1,           !- Name
    ,                         !- Transmittance Schedule Name
    autocalculate,            !- Number of Vertices
    98.7941,                  !- Vertex 1 Xcoordinate
    129.9416,                 !- Vertex 1 Ycoordinate
    15.5,                     !- Vertex 1 Zcoordinate
    98.7941,                  !- Vertex 2 Xcoordinate
    129.9416,                 !- Vertex 2 Ycoordinate
    0,                        !- Vertex 2 Zcoordinate
    103.8921,                 !- Vertex 3 Xcoordinate
    134.3036,                 !- Vertex 3 Ycoordinate
    0,                        !- Vertex 3 Zcoordinate
    103.8921,                 !- Vertex 4 Xcoordinate
    134.3036,                 !- Vertex 4 Ycoordinate
    15.5;                     !- Vertex 4 Zcoordinate

SHADING:SITE:DETAILED,
    Shading_V148_1,           !- Name
    ,                         !- Transmittance Schedule Name
    autocalculate,            !- Number of Vertices
    113.7361,                 !- Vertex 1 Xcoordinate
    147.9926,                 !- Vertex 1 Ycoordinate
    15.5,                     !- Vertex 1 Zcoordinate
    113.7361,                 !- Vertex 2 Xcoordinate
    147.9926,                 !- Vertex 2 Ycoordinate
    0,                        !- Vertex 2 Zcoordinate
    116.3361,                 !- Vertex 3 Xcoordinate
    144.9536,                 !- Vertex 3 Ycoordinate
    0,                        !- Vertex 3 Zcoordinate
    116.3361,                 !- Vertex 4 Xcoordinate
    144.9536,                 !- Vertex 4 Ycoordinate
    15.5;                     !- Vertex 4 Zcoordinate

SHADING:SITE:DETAILED,
    Shading_V149_1,           !- Name
    ,                         !- Transmittance Schedule Name
    autocalculate,            !- Number of Vertices
    116.3361,                 !- Vertex 1 Xcoordinate
    144.9536,                 !- Vertex 1 Ycoordinate
    15.5,                     !- Vertex 1 Zcoordinate
    116.3361,                 !- Vertex 2 Xcoordinate
    144.9536,                 !- Vertex 2 Ycoordinate
    0,                        !- Vertex 2 Zcoordinate
    121.4071,                 !- Vertex 3 Xcoordinate
    149.2946,                 !- Vertex 3 Ycoordinate
    0,                        !- Vertex 3 Zcoordinate
    121.4071,                 !- Vertex 4 Xcoordinate
    149.2946,                 !- Vertex 4 Ycoordinate
    15.5;                     !- Vertex 4 Zcoordinate

SHADING:SITE:DETAILED,
    Shading_V169_1,           !- Name
    ,                         !- Transmittance Schedule Name
    autocalculate,            !- Number of Vertices
    -19.7219,                 !- Vertex 1 Xcoordinate
    125.9856,                 !- Vertex 1 Ycoordinate
    9,                        !- Vertex 1 Zcoordinate
    -19.7219,                 !- Vertex 2 Xcoordinate
    125.9856,                 !- Vertex 2 Ycoordinate
    0,                        !- Vertex 2 Zcoordinate
    -10.6269,                 !- Vertex 3 Xcoordinate
    111.5496,                 !- Vertex 3 Ycoordinate
    0,                        !- Vertex 3 Zcoordinate
    -10.6269,                 !- Vertex 4 Xcoordinate
    111.5496,                 !- Vertex 4 Ycoordinate
    9;                        !- Vertex 4 Zcoordinate

SHADING:SITE:DETAILED,
    Shading_V170_1,           !- Name
    ,                         !- Transmittance Schedule Name
    autocalculate,            !- Number of Vertices
    -10.6269,                 !- Vertex 1 Xcoordinate
    111.5496,                 !- Vertex 1 Ycoordinate
    9,                        !- Vertex 1 Zcoordinate
    -10.6269,                 !- Vertex 2 Xcoordinate
    111.5496,                 !- Vertex 2 Ycoordinate
    0,                        !- Vertex 2 Zcoordinate
    -2.1209,                  !- Vertex 3 Xcoordinate
    116.7906,                 !- Vertex 3 Ycoordinate
    0,                        !- Vertex 3 Zcoordinate
    -2.1209,                  !- Vertex 4 Xcoordinate
    116.7906,                 !- Vertex 4 Ycoordinate
    9;                        !- Vertex 4 Zcoordinate

SHADING:SITE:DETAILED,
    Shading_V174_1,           !- Name
    ,                         !- Transmittance Schedule Name
    autocalculate,            !- Number of Vertices
    46.0491,                  !- Vertex 1 Xcoordinate
    108.6776,                 !- Vertex 1 Ycoordinate
    19.2,                     !- Vertex 1 Zcoordinate
    46.0491,                  !- Vertex 2 Xcoordinate
    108.6776,                 !- Vertex 2 Ycoordinate
    0,                        !- Vertex 2 Zcoordinate
    54.3521,                  !- Vertex 3 Xcoordinate
    99.0506,                  !- Vertex 3 Ycoordinate
    0,                        !- Vertex 3 Zcoordinate
    54.3521,                  !- Vertex 4 Xcoordinate
    99.0506,                  !- Vertex 4 Ycoordinate
    19.2;                     !- Vertex 4 Zcoordinate

SHADING:SITE:DETAILED,
    Shading_V175_1,           !- Name
    ,                         !- Transmittance Schedule Name
    autocalculate,            !- Number of Vertices
    54.3521,                  !- Vertex 1 Xcoordinate
    99.0506,                  !- Vertex 1 Ycoordinate
    19.2,                     !- Vertex 1 Zcoordinate
    54.3521,                  !- Vertex 2 Xcoordinate
    99.0506,                  !- Vertex 2 Ycoordinate
    0,                        !- Vertex 2 Zcoordinate
    61.5081,                  !- Vertex 3 Xcoordinate
    105.2526,                 !- Vertex 3 Ycoordinate
    0,                        !- Vertex 3 Zcoordinate
    61.5081,                  !- Vertex 4 Xcoordinate
    105.2526,                 !- Vertex 4 Ycoordinate
    19.2;                     !- Vertex 4 Zcoordinate

SHADING:SITE:DETAILED,
    Shading_V176_1,           !- Name
    ,                         !- Transmittance Schedule Name
    autocalculate,            !- Number of Vertices
    61.5081,                  !- Vertex 1 Xcoordinate
    105.2526,                 !- Vertex 1 Ycoordinate
    19.2,                     !- Vertex 1 Zcoordinate
    61.5081,                  !- Vertex 2 Xcoordinate
    105.2526,                 !- Vertex 2 Ycoordinate
    0,                        !- Vertex 2 Zcoordinate
    65.8481,                  !- Vertex 3 Xcoordinate
    100.1796,                 !- Vertex 3 Ycoordinate
    0,                        !- Vertex 3 Zcoordinate
    65.8481,                  !- Vertex 4 Xcoordinate
    100.1796,                 !- Vertex 4 Ycoordinate
    19.2;                     !- Vertex 4 Zcoordinate

SHADING:SITE:DETAILED,
    Shading_V177_1,           !- Name
    ,                         !- Transmittance Schedule Name
    autocalculate,            !- Number of Vertices
    65.8481,                  !- Vertex 1 Xcoordinate
    100.1796,                 !- Vertex 1 Ycoordinate
    19.2,                     !- Vertex 1 Zcoordinate
    65.8481,                  !- Vertex 2 Xcoordinate
    100.1796,                 !- Vertex 2 Ycoordinate
    0,                        !- Vertex 2 Zcoordinate
    73.4871,                  !- Vertex 3 Xcoordinate
    106.7726,                 !- Vertex 3 Ycoordinate
    0,                        !- Vertex 3 Zcoordinate
    73.4871,                  !- Vertex 4 Xcoordinate
    106.7726,                 !- Vertex 4 Ycoordinate
    19.2;                     !- Vertex 4 Zcoordinate

SHADING:SITE:DETAILED,
    Shading_V308_1,           !- Name
    ,                         !- Transmittance Schedule Name
    autocalculate,            !- Number of Vertices
    72.3271,                  !- Vertex 1 Xcoordinate
    92.6386,                  !- Vertex 1 Ycoordinate
    18.8,                     !- Vertex 1 Zcoordinate
    72.3271,                  !- Vertex 2 Xcoordinate
    92.6386,                  !- Vertex 2 Ycoordinate
    0,                        !- Vertex 2 Zcoordinate
    77.3361,                  !- Vertex 3 Xcoordinate
    86.8706,                  !- Vertex 3 Ycoordinate
    0,                        !- Vertex 3 Zcoordinate
    77.3361,                  !- Vertex 4 Xcoordinate
    86.8706,                  !- Vertex 4 Ycoordinate
    18.8;                     !- Vertex 4 Zcoordinate

SHADING:SITE:DETAILED,
    Shading_V310_1,           !- Name
    ,                         !- Transmittance Schedule Name
    autocalculate,            !- Number of Vertices
    70.1111,                  !- Vertex 1 Xcoordinate
    80.6766,                  !- Vertex 1 Ycoordinate
    18.8,                     !- Vertex 1 Zcoordinate
    70.1111,                  !- Vertex 2 Xcoordinate
    80.6766,                  !- Vertex 2 Ycoordinate
    0,                        !- Vertex 2 Zcoordinate
    78.4261,                  !- Vertex 3 Xcoordinate
    71.0066,                  !- Vertex 3 Ycoordinate
    0,                        !- Vertex 3 Zcoordinate
    78.4261,                  !- Vertex 4 Xcoordinate
    71.0066,                  !- Vertex 4 Ycoordinate
    18.8;                     !- Vertex 4 Zcoordinate

SHADING:SITE:DETAILED,
    Shading_V312_1,           !- Name
    ,                         !- Transmittance Schedule Name
    autocalculate,            !- Number of Vertices
    85.5611,                  !- Vertex 1 Xcoordinate
    77.1406,                  !- Vertex 1 Ycoordinate
    18.8,                     !- Vertex 1 Zcoordinate
    85.5611,                  !- Vertex 2 Xcoordinate
    77.1406,                  !- Vertex 2 Ycoordinate
    0,                        !- Vertex 2 Zcoordinate
    91.3425,                  !- Vertex 3 Xcoordinate
    70.4741,                  !- Vertex 3 Ycoordinate
    0,                        !- Vertex 3 Zcoordinate
    91.3425,                  !- Vertex 4 Xcoordinate
    70.4741,                  !- Vertex 4 Ycoordinate
    18.8;                     !- Vertex 4 Zcoordinate

SHADING:SITE:DETAILED,
    Shading_V380_1,           !- Name
    ,                         !- Transmittance Schedule Name
    autocalculate,            !- Number of Vertices
    -75.8389,                 !- Vertex 1 Xcoordinate
    80.0296,                  !- Vertex 1 Ycoordinate
    8.6,                      !- Vertex 1 Zcoordinate
    -75.8389,                 !- Vertex 2 Xcoordinate
    80.0296,                  !- Vertex 2 Ycoordinate
    0,                        !- Vertex 2 Zcoordinate
    -67.6459,                 !- Vertex 3 Xcoordinate
    86.3146,                  !- Vertex 3 Ycoordinate
    0,                        !- Vertex 3 Zcoordinate
    -67.6459,                 !- Vertex 4 Xcoordinate
    86.3146,                  !- Vertex 4 Ycoordinate
    8.6;                      !- Vertex 4 Zcoordinate

SHADING:SITE:DETAILED,
    Shading_V381_1,           !- Name
    ,                         !- Transmittance Schedule Name
    autocalculate,            !- Number of Vertices
    -67.6459,                 !- Vertex 1 Xcoordinate
    86.3146,                  !- Vertex 1 Ycoordinate
    8.6,                      !- Vertex 1 Zcoordinate
    -67.6459,                 !- Vertex 2 Xcoordinate
    86.3146,                  !- Vertex 2 Ycoordinate
    0,                        !- Vertex 2 Zcoordinate
    -81.5369,                 !- Vertex 3 Xcoordinate
    104.5686,                 !- Vertex 3 Ycoordinate
    0,                        !- Vertex 3 Zcoordinate
    -81.5369,                 !- Vertex 4 Xcoordinate
    104.5686,                 !- Vertex 4 Ycoordinate
    8.6;                      !- Vertex 4 Zcoordinate

SHADING:SITE:DETAILED,
    Shading_V387_1,           !- Name
    ,                         !- Transmittance Schedule Name
    autocalculate,            !- Number of Vertices
    -115.5339,                !- Vertex 1 Xcoordinate
    92.3676,                  !- Vertex 1 Ycoordinate
    10.4,                     !- Vertex 1 Zcoordinate
    -115.5339,                !- Vertex 2 Xcoordinate
    92.3676,                  !- Vertex 2 Ycoordinate
    0,                        !- Vertex 2 Zcoordinate
    -105.3339,                !- Vertex 3 Xcoordinate
    94.0726,                  !- Vertex 3 Ycoordinate
    0,                        !- Vertex 3 Zcoordinate
    -105.3339,                !- Vertex 4 Xcoordinate
    94.0726,                  !- Vertex 4 Ycoordinate
    10.4;                     !- Vertex 4 Zcoordinate

SHADING:SITE:DETAILED,
    Shading_V388_1,           !- Name
    ,                         !- Transmittance Schedule Name
    autocalculate,            !- Number of Vertices
    -105.3339,                !- Vertex 1 Xcoordinate
    94.0726,                  !- Vertex 1 Ycoordinate
    10.4,                     !- Vertex 1 Zcoordinate
    -105.3339,                !- Vertex 2 Xcoordinate
    94.0726,                  !- Vertex 2 Ycoordinate
    0,                        !- Vertex 2 Zcoordinate
    -108.8369,                !- Vertex 3 Xcoordinate
    117.5446,                 !- Vertex 3 Ycoordinate
    0,                        !- Vertex 3 Zcoordinate
    -108.8369,                !- Vertex 4 Xcoordinate
    117.5446,                 !- Vertex 4 Ycoordinate
    10.4;                     !- Vertex 4 Zcoordinate

SHADING:SITE:DETAILED,
    Shading_V408_1,           !- Name
    ,                         !- Transmittance Schedule Name
    autocalculate,            !- Number of Vertices
    -94.2989,                 !- Vertex 1 Xcoordinate
    140.8346,                 !- Vertex 1 Ycoordinate
    10.2,                     !- Vertex 1 Zcoordinate
    -94.2989,                 !- Vertex 2 Xcoordinate
    140.8346,                 !- Vertex 2 Ycoordinate
    0,                        !- Vertex 2 Zcoordinate
    -86.8239,                 !- Vertex 3 Xcoordinate
    147.7326,                 !- Vertex 3 Ycoordinate
    0,                        !- Vertex 3 Zcoordinate
    -86.8239,                 !- Vertex 4 Xcoordinate
    147.7326,                 !- Vertex 4 Ycoordinate
    10.2;                     !- Vertex 4 Zcoordinate

SHADING:SITE:DETAILED,
    Shading_V411_1,           !- Name
    ,                         !- Transmittance Schedule Name
    autocalculate,            !- Number of Vertices
    -109.9899,                !- Vertex 1 Xcoordinate
    159.0706,                 !- Vertex 1 Ycoordinate
    10.2,                     !- Vertex 1 Zcoordinate
    -109.9899,                !- Vertex 2 Xcoordinate
    159.0706,                 !- Vertex 2 Ycoordinate
    0,                        !- Vertex 2 Zcoordinate
    -94.2989,                 !- Vertex 3 Xcoordinate
    140.8346,                 !- Vertex 3 Ycoordinate
    0,                        !- Vertex 3 Zcoordinate
    -94.2989,                 !- Vertex 4 Xcoordinate
    140.8346,                 !- Vertex 4 Ycoordinate
    10.2;                     !- Vertex 4 Zcoordinate

SHADING:SITE:DETAILED,
    Shading_V452_1,           !- Name
    ,                         !- Transmittance Schedule Name
    autocalculate,            !- Number of Vertices
    -28.5549,                 !- Vertex 1 Xcoordinate
    -11.0014,                 !- Vertex 1 Ycoordinate
    6.4,                      !- Vertex 1 Zcoordinate
    -28.5549,                 !- Vertex 2 Xcoordinate
    -11.0014,                 !- Vertex 2 Ycoordinate
    0,                        !- Vertex 2 Zcoordinate
    -35.3839,                 !- Vertex 3 Xcoordinate
    17.1396,                  !- Vertex 3 Ycoordinate
    0,                        !- Vertex 3 Zcoordinate
    -35.3839,                 !- Vertex 4 Xcoordinate
    17.1396,                  !- Vertex 4 Ycoordinate
    6.4;                      !- Vertex 4 Zcoordinate

SHADING:SITE:DETAILED,
    Shading_V455_1,           !- Name
    ,                         !- Transmittance Schedule Name
    autocalculate,            !- Number of Vertices
    85.4931,                  !- Vertex 1 Xcoordinate
    46.8716,                  !- Vertex 1 Ycoordinate
    18.8,                     !- Vertex 1 Zcoordinate
    85.4931,                  !- Vertex 2 Xcoordinate
    46.8716,                  !- Vertex 2 Ycoordinate
    0,                        !- Vertex 2 Zcoordinate
    84.5481,                  !- Vertex 3 Xcoordinate
    34.2466,                  !- Vertex 3 Ycoordinate
    0,                        !- Vertex 3 Zcoordinate
    84.5481,                  !- Vertex 4 Xcoordinate
    34.2466,                  !- Vertex 4 Ycoordinate
    18.8;                     !- Vertex 4 Zcoordinate

SHADING:SITE:DETAILED,
    Shading_V456_1,           !- Name
    ,                         !- Transmittance Schedule Name
    autocalculate,            !- Number of Vertices
    84.5481,                  !- Vertex 1 Xcoordinate
    34.2466,                  !- Vertex 1 Ycoordinate
    18.8,                     !- Vertex 1 Zcoordinate
    84.5481,                  !- Vertex 2 Xcoordinate
    34.2466,                  !- Vertex 2 Ycoordinate
    0,                        !- Vertex 2 Zcoordinate
    93.9401,                  !- Vertex 3 Xcoordinate
    33.5326,                  !- Vertex 3 Ycoordinate
    0,                        !- Vertex 3 Zcoordinate
    93.9401,                  !- Vertex 4 Xcoordinate
    33.5326,                  !- Vertex 4 Ycoordinate
    18.8;                     !- Vertex 4 Zcoordinate

SHADING:SITE:DETAILED,
    Shading_V502_1,           !- Name
    ,                         !- Transmittance Schedule Name
    autocalculate,            !- Number of Vertices
    20.7561,                  !- Vertex 1 Xcoordinate
    71.6376,                  !- Vertex 1 Ycoordinate
    8.3,                      !- Vertex 1 Zcoordinate
    20.7561,                  !- Vertex 2 Xcoordinate
    71.6376,                  !- Vertex 2 Ycoordinate
    0,                        !- Vertex 2 Zcoordinate
    28.1711,                  !- Vertex 3 Xcoordinate
    79.0846,                  !- Vertex 3 Ycoordinate
    0,                        !- Vertex 3 Zcoordinate
    28.1711,                  !- Vertex 4 Xcoordinate
    79.0846,                  !- Vertex 4 Ycoordinate
    8.3;                      !- Vertex 4 Zcoordinate

SHADING:SITE:DETAILED,
    Shading_V505_1,           !- Name
    ,                         !- Transmittance Schedule Name
    autocalculate,            !- Number of Vertices
    12.6351,                  !- Vertex 1 Xcoordinate
    79.8116,                  !- Vertex 1 Ycoordinate
    8.3,                      !- Vertex 1 Zcoordinate
    12.6351,                  !- Vertex 2 Xcoordinate
    79.8116,                  !- Vertex 2 Ycoordinate
    0,                        !- Vertex 2 Zcoordinate
    20.7561,                  !- Vertex 3 Xcoordinate
    71.6376,                  !- Vertex 3 Ycoordinate
    0,                        !- Vertex 3 Zcoordinate
    20.7561,                  !- Vertex 4 Xcoordinate
    71.6376,                  !- Vertex 4 Ycoordinate
    8.3;                      !- Vertex 4 Zcoordinate

SHADING:SITE:DETAILED,
    Shading_V19_1,            !- Name
    ,                         !- Transmittance Schedule Name
    autocalculate,            !- Number of Vertices
    58.0911,                  !- Vertex 1 Xcoordinate
    17.8976,                  !- Vertex 1 Ycoordinate
    6.6,                      !- Vertex 1 Zcoordinate
    58.0911,                  !- Vertex 2 Xcoordinate
    17.8976,                  !- Vertex 2 Ycoordinate
    0,                        !- Vertex 2 Zcoordinate
    67.2441,                  !- Vertex 3 Xcoordinate
    -6.0484,                  !- Vertex 3 Ycoordinate
    0,                        !- Vertex 3 Zcoordinate
    67.2441,                  !- Vertex 4 Xcoordinate
    -6.0484,                  !- Vertex 4 Ycoordinate
    6.6;                      !- Vertex 4 Zcoordinate

SHADING:SITE:DETAILED,
    Shading_V2_1,             !- Name
    ,                         !- Transmittance Schedule Name
    autocalculate,            !- Number of Vertices
    -6.2909,                  !- Vertex 1 Xcoordinate
    146.8666,                 !- Vertex 1 Ycoordinate
    15.8,                     !- Vertex 1 Zcoordinate
    -6.2909,                  !- Vertex 2 Xcoordinate
    146.8666,                 !- Vertex 2 Ycoordinate
    0,                        !- Vertex 2 Zcoordinate
    0.2891,                   !- Vertex 3 Xcoordinate
    139.1386,                 !- Vertex 3 Ycoordinate
    0,                        !- Vertex 3 Zcoordinate
    0.2891,                   !- Vertex 4 Xcoordinate
    139.1386,                 !- Vertex 4 Ycoordinate
    15.8;                     !- Vertex 4 Zcoordinate

SHADING:SITE:DETAILED,
    Shading_V18_1,            !- Name
    ,                         !- Transmittance Schedule Name
    autocalculate,            !- Number of Vertices
    67.7091,                  !- Vertex 1 Xcoordinate
    21.5786,                  !- Vertex 1 Ycoordinate
    6.6,                      !- Vertex 1 Zcoordinate
    67.7091,                  !- Vertex 2 Xcoordinate
    21.5786,                  !- Vertex 2 Ycoordinate
    0,                        !- Vertex 2 Zcoordinate
    58.0911,                  !- Vertex 3 Xcoordinate
    17.8976,                  !- Vertex 3 Ycoordinate
    0,                        !- Vertex 3 Zcoordinate
    58.0911,                  !- Vertex 4 Xcoordinate
    17.8976,                  !- Vertex 4 Ycoordinate
    6.6;                      !- Vertex 4 Zcoordinate

SHADING:SITE:DETAILED,
    Shading_V311_1,           !- Name
    ,                         !- Transmittance Schedule Name
    autocalculate,            !- Number of Vertices
    78.4261,                  !- Vertex 1 Xcoordinate
    71.0066,                  !- Vertex 1 Ycoordinate
    18.8,                     !- Vertex 1 Zcoordinate
    78.4261,                  !- Vertex 2 Xcoordinate
    71.0066,                  !- Vertex 2 Ycoordinate
    0,                        !- Vertex 2 Zcoordinate
    85.5611,                  !- Vertex 3 Xcoordinate
    77.1406,                  !- Vertex 3 Ycoordinate
    0,                        !- Vertex 3 Zcoordinate
    85.5611,                  !- Vertex 4 Xcoordinate
    77.1406,                  !- Vertex 4 Ycoordinate
    18.8;                     !- Vertex 4 Zcoordinate

SHADING:SITE:DETAILED,
    Shading_V348_1,           !- Name
    ,                         !- Transmittance Schedule Name
    autocalculate,            !- Number of Vertices
    42.4381,                  !- Vertex 1 Xcoordinate
    127.3526,                 !- Vertex 1 Ycoordinate
    12.2,                     !- Vertex 1 Zcoordinate
    42.4381,                  !- Vertex 2 Xcoordinate
    127.3526,                 !- Vertex 2 Ycoordinate
    0,                        !- Vertex 2 Zcoordinate
    48.0515,                  !- Vertex 3 Xcoordinate
    120.8192,                 !- Vertex 3 Ycoordinate
    0,                        !- Vertex 3 Zcoordinate
    48.0515,                  !- Vertex 4 Xcoordinate
    120.8192,                 !- Vertex 4 Ycoordinate
    12.2;                     !- Vertex 4 Zcoordinate

SHADING:SITE:DETAILED,
    Shading_V457_1,           !- Name
    ,                         !- Transmittance Schedule Name
    autocalculate,            !- Number of Vertices
    93.9401,                  !- Vertex 1 Xcoordinate
    33.5326,                  !- Vertex 1 Ycoordinate
    18.8,                     !- Vertex 1 Zcoordinate
    93.9401,                  !- Vertex 2 Xcoordinate
    33.5326,                  !- Vertex 2 Ycoordinate
    0,                        !- Vertex 2 Zcoordinate
    93.4241,                  !- Vertex 3 Xcoordinate
    25.9006,                  !- Vertex 3 Ycoordinate
    0,                        !- Vertex 3 Zcoordinate
    93.4241,                  !- Vertex 4 Xcoordinate
    25.9006,                  !- Vertex 4 Ycoordinate
    18.8;                     !- Vertex 4 Zcoordinate

ELECTRICEQUIPMENT,
    Block Build0_Alt0 Storey 0Load,    !- Name
    Block Build0_Alt0 Storey 0,    !- Zone or ZoneList Name
    LoadSchedule,             !- Schedule Name
    Watts/Area,               !- Design Level Calculation Method
    ,                         !- Design Level
    0.03,                     !- Watts per Zone Floor Area
    ,                         !- Watts per Person
    0,                        !- Fraction Latent
    0,                        !- Fraction Radiant
    0,                        !- Fraction Lost
    General;                  !- EndUse Subcategory

ZONEINFILTRATION:FLOWCOEFFICIENT,
    Block Build0_Alt0 Storey 0Leak,    !- Name
    Block Build0_Alt0 Storey 0,    !- Zone Name
    AlwaysON,                 !- Schedule Name
    4.597550e-02,             !- Flow Coefficient
    0.098,                    !- Stack Coefficient
    0.667,                    !- Pressure Exponent
    0.17,                     !- Wind Coefficient
    0.5;                      !- Shelter Factor

ZONEVENTILATION:DESIGNFLOWRATE,
    Block Build0_Alt0 Storey 0FreeCool,    !- Name
    Block Build0_Alt0 Storey 0,    !- Zone or ZoneList Name
    AlwaysON,                 !- Schedule Name
    AirChanges/Hour,          !- Design Flow Rate Calculation Method
    ,                         !- Design Flow Rate
    ,                         !- Flow Rate per Zone Floor Area
    ,                         !- Flow Rate per Person
    4,                        !- Air Changes per Hour
    Natural,                  !- Ventilation Type
    0,                        !- Fan Pressure Rise
    1,                        !- Fan Total Efficiency
    1,                        !- Constant Term Coefficient
    0,                        !- Temperature Term Coefficient
    0,                        !- Velocity Term Coefficient
    0,                        !- Velocity Squared Term Coefficient
    26,                       !- Minimum Indoor Temperature
    ,                         !- Minimum Indoor Temperature Schedule Name
    100,                      !- Maximum Indoor Temperature
    ,                         !- Maximum Indoor Temperature Schedule Name
    1,                        !- Delta Temperature
    ,                         !- Delta Temperature Schedule Name
    -100,                     !- Minimum Outdoor Temperature
    ,                         !- Minimum Outdoor Temperature Schedule Name
    100,                      !- Maximum Outdoor Temperature
    ,                         !- Maximum Outdoor Temperature Schedule Name
    40;                       !- Maximum Wind Speed

HVACTEMPLATE:THERMOSTAT,
    ResidZone,                !- Name
    ,                         !- Heating Setpoint Schedule Name
    21,                       !- Constant Heating Setpoint
    ,                         !- Cooling Setpoint Schedule Name
    50;                       !- Constant Cooling Setpoint

HVACTEMPLATE:ZONE:IDEALLOADSAIRSYSTEM,
    Block Build0_Alt0 Storey 0,    !- Zone Name
    ResidZone,                !- Template Thermostat Name
    ,                         !- System Availability Schedule Name
    50,                       !- Maximum Heating Supply Air Temperature
    13,                       !- Minimum Cooling Supply Air Temperature
    0.0156,                   !- Maximum Heating Supply Air Humidity Ratio
    0.0077,                   !- Minimum Cooling Supply Air Humidity Ratio
    NoLimit,                  !- Heating Limit
    ,                         !- Maximum Heating Air Flow Rate
    11470.395375,             !- Maximum Sensible Heating Capacity
    NoLimit,                  !- Cooling Limit
    ,                         !- Maximum Cooling Air Flow Rate
    ,                         !- Maximum Total Cooling Capacity
    ,                         !- Heating Availability Schedule Name
    ,                         !- Cooling Availability Schedule Name
    ConstantSensibleHeatRatio,    !- Dehumidification Control Type
    0.7,                      !- Cooling Sensible Heat Ratio
    60,                       !- Dehumidification Setpoint
    None,                     !- Humidification Control Type
    30,                       !- Humidification Setpoint
    Flow/Area,                !- Outdoor Air Method
    0.007,                    !- Outdoor Air Flow Rate per Person
    1.050000e-03,             !- Outdoor Air Flow Rate per Zone Floor Area
    0,                        !- Outdoor Air Flow Rate per Zone
    ,                         !- Design Specification Outdoor Air Object Name
    None,                     !- Demand Controlled Ventilation Type
    NoEconomizer,             !- Outdoor Air Economizer Type
    None,                     !- Heat Recovery Type
    0,                        !- Sensible Heat Recovery Effectiveness
    0;                        !- Latent Heat Recovery Effectiveness

OUTDOORAIR:NODE,
    Block Build0_Alt0 Storey 0 IDEAL LOADS OUTDOOR AIR INLET,    !- Name
    -1,                       !- Height Above Ground
    ,                         !- Drybulb Temperature Schedule Name
    ,                         !- Wetbulb Temperature Schedule Name
    ,                         !- Wind Speed Schedule Name
    ,                         !- Wind Direction Schedule Name
    ,                         !- Wind Pressure Coefficient Curve Name
    No,                       !- Symmetric Wind Pressure Coefficient Curve
    Absolute;                 !- Wind Angle Type

ENERGYMANAGEMENTSYSTEM:SENSOR,
    T0,                       !- Name
    Block Build0_Alt0 Storey 0,    !- OutputVariable or OutputMeter Index Key Name
    Zone Mean Air Temperature;    !- OutputVariable or OutputMeter Name

ENERGYMANAGEMENTSYSTEM:SENSOR,
    Pow0,                     !- Name
    Block Build0_Alt0 Storey 0 IDEAL LOADS AIR SYSTEM,    !- OutputVariable or OutputMeter Index Key Name
    Zone Ideal Loads Supply Air Total Heating Rate;    !- OutputVariable or OutputMeter Name

ENERGYMANAGEMENTSYSTEM:SENSOR,
    DHWPow,                   !- Name
    DHW,                      !- OutputVariable or OutputMeter Index Key Name
    Water Use Equipment Heating Rate;    !- OutputVariable or OutputMeter Name

ENERGYMANAGEMENTSYSTEM:PROGRAMCALLINGMANAGER,
    Average Building Temperature,    !- Name
    EndOfZoneTimestepBeforeZoneReporting,    !- EnergyPlus Model Calling Point
    AverageZoneTemps;         !- Program Name 1

ENERGYMANAGEMENTSYSTEM:PROGRAMCALLINGMANAGER,
    Compute Total Building Heat Pow,    !- Name
    EndOfZoneTimestepBeforeZoneReporting,    !- EnergyPlus Model Calling Point
    TotZonePow;               !- Program Name 1

ENERGYMANAGEMENTSYSTEM:PROGRAMCALLINGMANAGER,
    Compute Total DHW Heat Pow,    !- Name
    EndOfZoneTimestepBeforeZoneReporting,    !- EnergyPlus Model Calling Point
    prgmDHWPow;               !- Program Name 1

ENERGYMANAGEMENTSYSTEM:PROGRAM,
    AverageZoneTemps,         !- Name
    SET SumNumerator = T0*Vol0,    !- Program Line 1
    SET SumDenominator  = Vol0,    !- Program Line 2
    SET AverageBuildingTemp  = SumNumerator / SumDenominator;    !- Program Line 3

ENERGYMANAGEMENTSYSTEM:PROGRAM,
    TotZonePow,               !- Name
    SET TotBuildPow = Pow0;    !- Program Line 1

ENERGYMANAGEMENTSYSTEM:PROGRAM,
    prgmDHWPow,               !- Name
    SET TotDHWPow = DHWPow;    !- Program Line 1

ENERGYMANAGEMENTSYSTEM:GLOBALVARIABLE,
    AverageBuildingTemp;      !- Erl Variable 1 Name

ENERGYMANAGEMENTSYSTEM:GLOBALVARIABLE,
    TotBuildPow;              !- Erl Variable 1 Name

ENERGYMANAGEMENTSYSTEM:GLOBALVARIABLE,
    TotDHWPow;                !- Erl Variable 1 Name

ENERGYMANAGEMENTSYSTEM:OUTPUTVARIABLE,
    Mean Heated Zones Air Temperature,    !- Name
    AverageBuildingTemp,      !- EMS Variable Name
    Averaged,                 !- Type of Data in Variable
    ZoneTimeStep;             !- Update Frequency

ENERGYMANAGEMENTSYSTEM:OUTPUTVARIABLE,
    Total Building Heating Power,    !- Name
    TotBuildPow,              !- EMS Variable Name
    Averaged,                 !- Type of Data in Variable
    ZoneTimeStep;             !- Update Frequency

ENERGYMANAGEMENTSYSTEM:OUTPUTVARIABLE,
    Total DHW Heating Power,    !- Name
    TotDHWPow,                !- EMS Variable Name
    Averaged,                 !- Type of Data in Variable
    ZoneTimeStep;             !- Update Frequency

ENERGYMANAGEMENTSYSTEM:INTERNALVARIABLE,
    Vol0,                     !- Name
    Block Build0_Alt0 Storey 0,    !- Internal Data Index Key Name
    Zone Air Volume;          !- Internal Data Type

WATERUSE:EQUIPMENT,
    DHW,                      !- Name
    General,                  !- EndUse Subcategory
    1.120423e-09,             !- Peak Flow Rate
    WaterTaps,                !- Flow Rate Fraction Schedule Name
    TargetWaterTemp,          !- Target Temperature Schedule Name
    HotWaterTemp,             !- Hot Water Supply Temperature Schedule Name
    ColdWaterTemp;            !- Cold Water Supply Temperature Schedule Name

Output:VariableDictionary,
    Regular;                  !- Key Field

OUTPUT:ENERGYMANAGEMENTSYSTEM,
    Verbose,                  !- Actuator Availability Dictionary Reporting
    Verbose,                  !- Internal Variable Availability Dictionary Reporting
    Verbose;                  !- EMS Runtime Language Debug Output Level

Output:Table:SummaryReports,
    AllSummary;               !- Report 1 Name

OutputControl:Table:Style,
    HTML;                     !- Column Separator

OUTPUT:VARIABLE,
    *,                        !- Key Value
    Site Outdoor Air Drybulb Temperature,    !- Variable Name
    Hourly;                   !- Reporting Frequency

OUTPUT:VARIABLE,
    *,                        !- Key Value
    Site Outdoor Air Relative Humidity,    !- Variable Name
    Hourly;                   !- Reporting Frequency

OUTPUT:VARIABLE,
    *,                        !- Key Value
    Site Outdoor Air Barometric Pressure,    !- Variable Name
    Hourly;                   !- Reporting Frequency

OUTPUT:VARIABLE,
    *,                        !- Key Value
    Site Wind Speed,          !- Variable Name
    Hourly;                   !- Reporting Frequency

OUTPUT:VARIABLE,
    *,                        !- Key Value
    Site Diffuse Solar Radiation Rate per Area,    !- Variable Name
    Hourly;                   !- Reporting Frequency

OUTPUT:VARIABLE,
    *,                        !- Key Value
    Site Direct Solar Radiation Rate per Area,    !- Variable Name
    Hourly;                   !- Reporting Frequency

OUTPUT:VARIABLE,
    *,                        !- Key Value
    Zone Electric Equipment Electric Power,    !- Variable Name
    Hourly;                   !- Reporting Frequency

OUTPUT:VARIABLE,
    *,                        !- Key Value
    Zone Electric Equipment Total Heating Rate,    !- Variable Name
    Hourly;                   !- Reporting Frequency

OUTPUT:VARIABLE,
    *,                        !- Key Value
    Surface Outside Face Incident Solar Radiation Rate per Area,    !- Variable Name
    Hourly;                   !- Reporting Frequency

OUTPUT:VARIABLE,
    *,                        !- Key Value
    Surface Outside Face Incident Beam Solar Radiation Rate per Area,    !- Variable Name
    Hourly;                   !- Reporting Frequency

OUTPUT:VARIABLE,
    *,                        !- Key Value
    Zone Ideal Loads Supply Air Total Heating Rate,    !- Variable Name
    Hourly;                   !- Reporting Frequency

OUTPUT:VARIABLE,
    *,                        !- Key Value
    Water Use Equipment Hot Water Mass Flow Rate,    !- Variable Name
    Hourly;                   !- Reporting Frequency

OUTPUT:VARIABLE,
    *,                        !- Key Value
    Water Use Equipment Cold Water Mass Flow Rate,    !- Variable Name
    Hourly;                   !- Reporting Frequency

OUTPUT:VARIABLE,
    *,                        !- Key Value
    Water Use Equipment Hot Water Temperature,    !- Variable Name
    Hourly;                   !- Reporting Frequency

OUTPUT:VARIABLE,
    *,                        !- Key Value
    Water Use Equipment Cold Water Temperature,    !- Variable Name
    Hourly;                   !- Reporting Frequency

OUTPUT:VARIABLE,
    *,                        !- Key Value
    Water Use Equipment Heating Rate,    !- Variable Name
    Hourly;                   !- Reporting Frequency

OUTPUT:VARIABLE,
    *,                        !- Key Value
    Mean Heated Zones Air Temperature,    !- Variable Name
    Hourly;                   !- Reporting Frequency

OUTPUT:VARIABLE,
    *,                        !- Key Value
    Total Building Heating Power,    !- Variable Name
    Hourly;                   !- Reporting Frequency

OUTPUT:VARIABLE,
    *,                        !- Key Value
    Total DHW Heating Power,    !- Variable Name
    Hourly;                   !- Reporting Frequency

OUTPUT:DIAGNOSTICS,
    DISPLAYEXTRAWARNINGS,     !- Key 1
    DisplayAdvancedReportVariables;    !- Key 2