!- Darwin Line endings 

Version,
    9.5;                      !- Version Identifier

SimulationControl,
    No,                       !- Do Zone Sizing Calculation
    No,                       !- Do System Sizing Calculation
    No,                       !- Do Plant Sizing Calculation
    No,                       !- Run Simulation for Sizing Periods
    Yes,                      !- Run Simulation for Weather File Run Periods
    No,                       !- Do HVAC Sizing Simulation for Sizing Periods
    1;                        !- Maximum Number of HVAC Sizing Simulation Passes

Building,
    None,                     !- Name
    0,                        !- North Axis
    Suburbs,                  !- Terrain
    0.04,                     !- Loads Convergence Tolerance Value
    0.4,                      !- Temperature Convergence Tolerance Value
    FullExterior,             !- Solar Distribution
    25,                       !- Maximum Number of Warmup Days
    6;                        !- Minimum Number of Warmup Days

SHADOWCALCULATION,
    PolygonClipping,          !- Shading Calculation Method
    Periodic,                 !- Shading Calculation Update Frequency Method
    20,                       !- Shading Calculation Update Frequency
    25000,                    !- Maximum Figures in Shadow Overlap Calculations
    SutherlandHodgman,        !- Polygon Clipping Algorithm
    512,                      !- Pixel Counting Resolution
    SimpleSkyDiffuseModeling,    !- Sky Diffuse Modeling Algorithm
    No,                       !- Output External Shading Calculation Results
    No,                       !- Disable SelfShading Within Shading Zone Groups
    No;                       !- Disable SelfShading From Shading Zone Groups to Other Zones

Timestep,
    4;                        !- Number of Timesteps per Hour

Site:Location,
    WeatherData/USA_CA_San.Francisco.Intl.AP.724940_TMY3.epw,    !- Name
    37.62,                    !- Latitude
    -122.4,                   !- Longitude
    -8,                       !- Time Zone
    2;                        !- Elevation

SizingPeriod:DesignDay,
    DENVER_STAPLETON Ann Htg 99.6% Condns DB,    !- Name
    12,                       !- Month
    21,                       !- Day of Month
    WinterDesignDay,          !- Day Type
    -20,                      !- Maximum DryBulb Temperature
    0,                        !- Daily DryBulb Temperature Range
    ,                         !- DryBulb Temperature Range Modifier Type
    ,                         !- DryBulb Temperature Range Modifier Day Schedule Name
    Wetbulb,                  !- Humidity Condition Type
    -20,                      !- Wetbulb or DewPoint at Maximum DryBulb
    ,                         !- Humidity Condition Day Schedule Name
    ,                         !- Humidity Ratio at Maximum DryBulb
    ,                         !- Enthalpy at Maximum DryBulb
    ,                         !- Daily WetBulb Temperature Range
    100594,                   !- Barometric Pressure
    2.3,                      !- Wind Speed
    180,                      !- Wind Direction
    No,                       !- Rain Indicator
    No,                       !- Snow Indicator
    No,                       !- Daylight Saving Time Indicator
    ASHRAEClearSky,           !- Solar Model Indicator
    ,                         !- Beam Solar Day Schedule Name
    ,                         !- Diffuse Solar Day Schedule Name
    ,                         !- ASHRAE Clear Sky Optical Depth for Beam Irradiance taub
    ,                         !- ASHRAE Clear Sky Optical Depth for Diffuse Irradiance taud
    0;                        !- Sky Clearness

SizingPeriod:DesignDay,
    DENVER_STAPLETON Ann Clg .4% Condns DB=>MWB,    !- Name
    7,                        !- Month
    21,                       !- Day of Month
    SummerDesignDay,          !- Day Type
    34.1,                     !- Maximum DryBulb Temperature
    15.2,                     !- Daily DryBulb Temperature Range
    ,                         !- DryBulb Temperature Range Modifier Type
    ,                         !- DryBulb Temperature Range Modifier Day Schedule Name
    Wetbulb,                  !- Humidity Condition Type
    15.8,                     !- Wetbulb or DewPoint at Maximum DryBulb
    ,                         !- Humidity Condition Day Schedule Name
    ,                         !- Humidity Ratio at Maximum DryBulb
    ,                         !- Enthalpy at Maximum DryBulb
    ,                         !- Daily WetBulb Temperature Range
    100594,                   !- Barometric Pressure
    4,                        !- Wind Speed
    120,                      !- Wind Direction
    No,                       !- Rain Indicator
    No,                       !- Snow Indicator
    No,                       !- Daylight Saving Time Indicator
    ASHRAEClearSky,           !- Solar Model Indicator
    ,                         !- Beam Solar Day Schedule Name
    ,                         !- Diffuse Solar Day Schedule Name
    ,                         !- ASHRAE Clear Sky Optical Depth for Beam Irradiance taub
    ,                         !- ASHRAE Clear Sky Optical Depth for Diffuse Irradiance taud
    1;                        !- Sky Clearness

RunPeriod,
    Run Period 1,             !- Name
    1,                        !- Begin Month
    1,                        !- Begin Day of Month
    ,                         !- Begin Year
    12,                       !- End Month
    31,                       !- End Day of Month
    ,                         !- End Year
    Tuesday,                  !- Day of Week for Start Day
    Yes,                      !- Use Weather File Holidays and Special Days
    Yes,                      !- Use Weather File Daylight Saving Period
    No,                       !- Apply Weekend Holiday Rule
    Yes,                      !- Use Weather File Rain Indicators
    Yes;                      !- Use Weather File Snow Indicators

SITE:GROUNDTEMPERATURE:BUILDINGSURFACE,
    15,                       !- January Ground Temperature
    15,                       !- February Ground Temperature
    15,                       !- March Ground Temperature
    15,                       !- April Ground Temperature
    15,                       !- May Ground Temperature
    15,                       !- June Ground Temperature
    15,                       !- July Ground Temperature
    15,                       !- August Ground Temperature
    15,                       !- September Ground Temperature
    15,                       !- October Ground Temperature
    15,                       !- November Ground Temperature
    15;                       !- December Ground Temperature

SCHEDULETYPELIMITS,
    Any Number,               !- Name
    ,                         !- Lower Limit Value
    ,                         !- Upper Limit Value
    ,                         !- Numeric Type
    Dimensionless;            !- Unit Type

SCHEDULE:COMPACT,
    AlwaysON,                 !- Name
    Any Number,               !- Schedule Type Limits Name
    Through: 12/31,           !- Field 1
    For: AllDays,             !- Field 2
    Until: 24:00,             !- Field 3
    1;                        !- Field 4

SCHEDULE:COMPACT,
    OccupActivity,            !- Name
    Any Number,               !- Schedule Type Limits Name
    Through: 12/31,           !- Field 1
    For: AllDays,             !- Field 2
    Until: 24:00,             !- Field 3
    70;                       !- Field 4

SCHEDULE:COMPACT,
    HotWaterTemp,             !- Name
    Any Number,               !- Schedule Type Limits Name
    Through: 12/31,           !- Field 1
    For: AllDays,             !- Field 2
    Until: 24:00,             !- Field 3
    55;                       !- Field 4

SCHEDULE:COMPACT,
    TargetWaterTemp,          !- Name
    Any Number,               !- Schedule Type Limits Name
    Through: 12/31,           !- Field 1
    For: AllDays,             !- Field 2
    Until: 24:00,             !- Field 3
    37;                       !- Field 4

SCHEDULE:FILE,
    LoadSchedule,             !- Name
    Any Number,               !- Schedule Type Limits Name
    /Users/alizad/PycharmProjects/mubes-ubem/examples/ForTest/InputFiles/Building9_winter.txt,    !- File Name
    1,                        !- Column Number
    0,                        !- Rows to Skip at Top
    8760,                     !- Number of Hours of Data
    Comma,                    !- Column Separator
    No;                       !- Interpolate to Timestep

SCHEDULE:FILE,
    Watertaps,                !- Name
    Any Number,               !- Schedule Type Limits Name
    /Users/alizad/PycharmProjects/mubes-ubem/examples/ForTest/InputFiles/domestic_hot_water_40_apartments.txt,    !- File Name
    1,                        !- Column Number
    0,                        !- Rows to Skip at Top
    8760,                     !- Number of Hours of Data
    Comma,                    !- Column Separator
    No;                       !- Interpolate to Timestep

SCHEDULE:FILE,
    ColdWaterTemp,            !- Name
    Any Number,               !- Schedule Type Limits Name
    /Users/alizad/PycharmProjects/mubes-ubem/examples/ForTest/InputFiles/cold_water_temperature_stockholm.txt,    !- File Name
    1,                        !- Column Number
    0,                        !- Rows to Skip at Top
    8760,                     !- Number of Hours of Data
    Comma,                    !- Column Separator
    No;                       !- Interpolate to Timestep

MATERIAL,
    DefaultMaterial,          !- Name
    Rough,                    !- Roughness
    0.1,                      !- Thickness
    0.1,                      !- Conductivity
    1000,                     !- Density
    1000,                     !- Specific Heat
    0.9,                      !- Thermal Absorptance
    0.7,                      !- Solar Absorptance
    0.7;                      !- Visible Absorptance

MATERIAL,
    Basement Floor,           !- Name
    Rough,                    !- Roughness
    0.1,                      !- Thickness
    0.9,                      !- Conductivity
    2300,                     !- Density
    1000,                     !- Specific Heat
    0.9,                      !- Thermal Absorptance
    0.7,                      !- Solar Absorptance
    0.7;                      !- Visible Absorptance

MATERIAL,
    Heated1rstFloor Inertia,    !- Name
    Rough,                    !- Roughness
    0.1,                      !- Thickness
    0.9,                      !- Conductivity
    2300,                     !- Density
    1000,                     !- Specific Heat
    0.9,                      !- Thermal Absorptance
    0.7,                      !- Solar Absorptance
    0.7;                      !- Visible Absorptance

MATERIAL,
    Heated1rstFloor Insulation,    !- Name
    Rough,                    !- Roughness
    0.15,                     !- Thickness
    0.035,                    !- Conductivity
    150,                      !- Density
    1000,                     !- Specific Heat
    0.9,                      !- Thermal Absorptance
    0.7,                      !- Solar Absorptance
    0.7;                      !- Visible Absorptance

MATERIAL,
    Roof Insulation,          !- Name
    Rough,                    !- Roughness
    0.3,                      !- Thickness
    0.03,                     !- Conductivity
    150,                      !- Density
    1000,                     !- Specific Heat
    0.9,                      !- Thermal Absorptance
    0.7,                      !- Solar Absorptance
    0.7;                      !- Visible Absorptance

MATERIAL,
    Wall Inertia,             !- Name
    Rough,                    !- Roughness
    0.2,                      !- Thickness
    0.9,                      !- Conductivity
    2300,                     !- Density
    1000,                     !- Specific Heat
    0.9,                      !- Thermal Absorptance
    0.7,                      !- Solar Absorptance
    0.7;                      !- Visible Absorptance

MATERIAL,
    Wall Insulation,          !- Name
    Rough,                    !- Roughness
    0.2,                      !- Thickness
    0.03,                     !- Conductivity
    150,                      !- Density
    1000,                     !- Specific Heat
    0.9,                      !- Thermal Absorptance
    0.7,                      !- Solar Absorptance
    0.7;                      !- Visible Absorptance

MATERIAL,
    HeatedZoneIntMass,        !- Name
    Rough,                    !- Roughness
    0.1,                      !- Thickness
    0.3,                      !- Conductivity
    600,                      !- Density
    1400,                     !- Specific Heat
    0.9,                      !- Thermal Absorptance
    0.7,                      !- Solar Absorptance
    0.7;                      !- Visible Absorptance

MATERIAL,
    NonHeatedZoneIntMass,     !- Name
    Rough,                    !- Roughness
    0.1,                      !- Thickness
    0.3,                      !- Conductivity
    600,                      !- Density
    1400,                     !- Specific Heat
    0.9,                      !- Thermal Absorptance
    0.7,                      !- Solar Absorptance
    0.7;                      !- Visible Absorptance

MATERIAL,
    AirWallMaterial,          !- Name
    MediumSmooth,             !- Roughness
    0.01,                     !- Thickness
    0.6,                      !- Conductivity
    800,                      !- Density
    1000,                     !- Specific Heat
    0.95,                     !- Thermal Absorptance
    0.7,                      !- Solar Absorptance
    0.7;                      !- Visible Absorptance

WINDOWMATERIAL:SIMPLEGLAZINGSYSTEM,
    DefaultGlazing,           !- Name
    2.7,                      !- UFactor
    0.763,                    !- Solar Heat Gain Coefficient
    0.8;                      !- Visible Transmittance

WINDOWMATERIAL:SIMPLEGLAZINGSYSTEM,
    Window,                   !- Name
    1.9,                      !- UFactor
    0.7,                      !- Solar Heat Gain Coefficient
    0.8;                      !- Visible Transmittance

CONSTRUCTION,
    Project Wall,             !- Name
    Wall Inertia,             !- Outside Layer
    Wall Insulation;          !- Layer 2

CONSTRUCTION,
    Project Basement Wall,    !- Name
    Wall Inertia;             !- Outside Layer

CONSTRUCTION,
    Project Basement Floor,    !- Name
    Basement Floor;           !- Outside Layer

CONSTRUCTION,
    Project Flat Roof,        !- Name
    Roof Insulation;          !- Outside Layer

CONSTRUCTION,
    Project External Window,    !- Name
    Window;                   !- Outside Layer

CONSTRUCTION,
    Project Heated1rstFloor,    !- Name
    Heated1rstFloor Inertia,    !- Outside Layer
    Heated1rstFloor Insulation;    !- Layer 2

CONSTRUCTION,
    Project Heated1rstFloor Rev,    !- Name
    Heated1rstFloor Insulation,    !- Outside Layer
    Heated1rstFloor Inertia;    !- Layer 2

CONSTRUCTION,
    HeatedZoneIntMassObj,     !- Name
    HeatedZoneIntMass;        !- Outside Layer

CONSTRUCTION,
    NonHeatedZoneIntMassObj,    !- Name
    NonHeatedZoneIntMass;     !- Outside Layer

GlobalGeometryRules,
    UpperLeftCorner,          !- Starting Vertex Position
    CounterClockWise,         !- Vertex Entry Direction
    World;                    !- Coordinate System

ZONE,
    Block Build0_Alt0 Storey -1,    !- Name
    0,                        !- Direction of Relative North
    0,                        !- X Origin
    0,                        !- Y Origin
    0,                        !- Z Origin
    1,                        !- Type
    1,                        !- Multiplier
    autocalculate,            !- Ceiling Height
    autocalculate,            !- Volume
    autocalculate,            !- Floor Area
    ,                         !- Zone Inside Convection Algorithm
    ,                         !- Zone Outside Convection Algorithm
    Yes;                      !- Part of Total Floor Area

ZONE,
    Block Build0_Alt0 Storey 0,    !- Name
    0,                        !- Direction of Relative North
    0,                        !- X Origin
    0,                        !- Y Origin
    0,                        !- Z Origin
    1,                        !- Type
    1,                        !- Multiplier
    autocalculate,            !- Ceiling Height
    autocalculate,            !- Volume
    autocalculate,            !- Floor Area
    ,                         !- Zone Inside Convection Algorithm
    ,                         !- Zone Outside Convection Algorithm
    Yes;                      !- Part of Total Floor Area

BUILDINGSURFACE:DETAILED,
    Block Build0_Alt0 Storey -1 Wall 0001,    !- Name
    wall,                     !- Surface Type
    Project Basement Wall,    !- Construction Name
    Block Build0_Alt0 Storey -1,    !- Zone Name
    ground,                   !- Outside Boundary Condition
    ,                         !- Outside Boundary Condition Object
    NoSun,                    !- Sun Exposure
    NoWind,                   !- Wind Exposure
    autocalculate,            !- View Factor to Ground
    autocalculate,            !- Number of Vertices
    -0.538,                   !- Vertex 1 Xcoordinate
    -9.8332,                  !- Vertex 1 Ycoordinate
    0,                        !- Vertex 1 Zcoordinate
    -0.538,                   !- Vertex 2 Xcoordinate
    -9.8332,                  !- Vertex 2 Ycoordinate
    -2.5,                     !- Vertex 2 Zcoordinate
    9.662,                    !- Vertex 3 Xcoordinate
    -8.1282,                  !- Vertex 3 Ycoordinate
    -2.5,                     !- Vertex 3 Zcoordinate
    9.662,                    !- Vertex 4 Xcoordinate
    -8.1282,                  !- Vertex 4 Ycoordinate
    0;                        !- Vertex 4 Zcoordinate

BUILDINGSURFACE:DETAILED,
    Block Build0_Alt0 Storey -1 Wall 0002,    !- Name
    wall,                     !- Surface Type
    Project Basement Wall,    !- Construction Name
    Block Build0_Alt0 Storey -1,    !- Zone Name
    ground,                   !- Outside Boundary Condition
    ,                         !- Outside Boundary Condition Object
    NoSun,                    !- Sun Exposure
    NoWind,                   !- Wind Exposure
    autocalculate,            !- View Factor to Ground
    autocalculate,            !- Number of Vertices
    9.662,                    !- Vertex 1 Xcoordinate
    -8.1282,                  !- Vertex 1 Ycoordinate
    0,                        !- Vertex 1 Zcoordinate
    9.662,                    !- Vertex 2 Xcoordinate
    -8.1282,                  !- Vertex 2 Ycoordinate
    -2.5,                     !- Vertex 2 Zcoordinate
    6.159,                    !- Vertex 3 Xcoordinate
    15.3438,                  !- Vertex 3 Ycoordinate
    -2.5,                     !- Vertex 3 Zcoordinate
    6.159,                    !- Vertex 4 Xcoordinate
    15.3438,                  !- Vertex 4 Ycoordinate
    0;                        !- Vertex 4 Zcoordinate

BUILDINGSURFACE:DETAILED,
    Block Build0_Alt0 Storey -1 Wall 0003,    !- Name
    wall,                     !- Surface Type
    Project Basement Wall,    !- Construction Name
    Block Build0_Alt0 Storey -1,    !- Zone Name
    ground,                   !- Outside Boundary Condition
    ,                         !- Outside Boundary Condition Object
    NoSun,                    !- Sun Exposure
    NoWind,                   !- Wind Exposure
    autocalculate,            !- View Factor to Ground
    autocalculate,            !- Number of Vertices
    6.159,                    !- Vertex 1 Xcoordinate
    15.3438,                  !- Vertex 1 Ycoordinate
    0,                        !- Vertex 1 Zcoordinate
    6.159,                    !- Vertex 2 Xcoordinate
    15.3438,                  !- Vertex 2 Ycoordinate
    -2.5,                     !- Vertex 2 Zcoordinate
    -4.157,                   !- Vertex 3 Xcoordinate
    13.6418,                  !- Vertex 3 Ycoordinate
    -2.5,                     !- Vertex 3 Zcoordinate
    -4.157,                   !- Vertex 4 Xcoordinate
    13.6418,                  !- Vertex 4 Ycoordinate
    0;                        !- Vertex 4 Zcoordinate

BUILDINGSURFACE:DETAILED,
    Block Build0_Alt0 Storey -1 Wall 0004,    !- Name
    wall,                     !- Surface Type
    Project Basement Wall,    !- Construction Name
    Block Build0_Alt0 Storey -1,    !- Zone Name
    ground,                   !- Outside Boundary Condition
    ,                         !- Outside Boundary Condition Object
    NoSun,                    !- Sun Exposure
    NoWind,                   !- Wind Exposure
    autocalculate,            !- View Factor to Ground
    autocalculate,            !- Number of Vertices
    -4.157,                   !- Vertex 1 Xcoordinate
    13.6418,                  !- Vertex 1 Ycoordinate
    0,                        !- Vertex 1 Zcoordinate
    -4.157,                   !- Vertex 2 Xcoordinate
    13.6418,                  !- Vertex 2 Ycoordinate
    -2.5,                     !- Vertex 2 Zcoordinate
    -0.538,                   !- Vertex 3 Xcoordinate
    -9.8332,                  !- Vertex 3 Ycoordinate
    -2.5,                     !- Vertex 3 Zcoordinate
    -0.538,                   !- Vertex 4 Xcoordinate
    -9.8332,                  !- Vertex 4 Ycoordinate
    0;                        !- Vertex 4 Zcoordinate

BUILDINGSURFACE:DETAILED,
    Block Build0_Alt0 Storey -1 Floor 0001,    !- Name
    floor,                    !- Surface Type
    Project Basement Floor,    !- Construction Name
    Block Build0_Alt0 Storey -1,    !- Zone Name
    ground,                   !- Outside Boundary Condition
    ,                         !- Outside Boundary Condition Object
    NoSun,                    !- Sun Exposure
    NoWind,                   !- Wind Exposure
    autocalculate,            !- View Factor to Ground
    autocalculate,            !- Number of Vertices
    6.159,                    !- Vertex 1 Xcoordinate
    15.3438,                  !- Vertex 1 Ycoordinate
    -2.5,                     !- Vertex 1 Zcoordinate
    9.662,                    !- Vertex 2 Xcoordinate
    -8.1282,                  !- Vertex 2 Ycoordinate
    -2.5,                     !- Vertex 2 Zcoordinate
    -0.538,                   !- Vertex 3 Xcoordinate
    -9.8332,                  !- Vertex 3 Ycoordinate
    -2.5,                     !- Vertex 3 Zcoordinate
    -4.157,                   !- Vertex 4 Xcoordinate
    13.6418,                  !- Vertex 4 Ycoordinate
    -2.5;                     !- Vertex 4 Zcoordinate

BUILDINGSURFACE:DETAILED,
    Block Build0_Alt0 Storey 0 Wall 0001,    !- Name
    wall,                     !- Surface Type
    Project Wall,             !- Construction Name
    Block Build0_Alt0 Storey 0,    !- Zone Name
    outdoors,                 !- Outside Boundary Condition
    ,                         !- Outside Boundary Condition Object
    SunExposed,               !- Sun Exposure
    WindExposed,              !- Wind Exposure
    autocalculate,            !- View Factor to Ground
    autocalculate,            !- Number of Vertices
    -0.538,                   !- Vertex 1 Xcoordinate
    -9.8332,                  !- Vertex 1 Ycoordinate
    9,                        !- Vertex 1 Zcoordinate
    -0.538,                   !- Vertex 2 Xcoordinate
    -9.8332,                  !- Vertex 2 Ycoordinate
    0,                        !- Vertex 2 Zcoordinate
    9.662,                    !- Vertex 3 Xcoordinate
    -8.1282,                  !- Vertex 3 Ycoordinate
    0,                        !- Vertex 3 Zcoordinate
    9.662,                    !- Vertex 4 Xcoordinate
    -8.1282,                  !- Vertex 4 Ycoordinate
    9;                        !- Vertex 4 Zcoordinate

BUILDINGSURFACE:DETAILED,
    Block Build0_Alt0 Storey 0 Wall 0002,    !- Name
    wall,                     !- Surface Type
    Project Wall,             !- Construction Name
    Block Build0_Alt0 Storey 0,    !- Zone Name
    outdoors,                 !- Outside Boundary Condition
    ,                         !- Outside Boundary Condition Object
    SunExposed,               !- Sun Exposure
    WindExposed,              !- Wind Exposure
    autocalculate,            !- View Factor to Ground
    autocalculate,            !- Number of Vertices
    9.662,                    !- Vertex 1 Xcoordinate
    -8.1282,                  !- Vertex 1 Ycoordinate
    9,                        !- Vertex 1 Zcoordinate
    9.662,                    !- Vertex 2 Xcoordinate
    -8.1282,                  !- Vertex 2 Ycoordinate
    0,                        !- Vertex 2 Zcoordinate
    6.159,                    !- Vertex 3 Xcoordinate
    15.3438,                  !- Vertex 3 Ycoordinate
    0,                        !- Vertex 3 Zcoordinate
    6.159,                    !- Vertex 4 Xcoordinate
    15.3438,                  !- Vertex 4 Ycoordinate
    9;                        !- Vertex 4 Zcoordinate

BUILDINGSURFACE:DETAILED,
    Block Build0_Alt0 Storey 0 Wall 0003,    !- Name
    wall,                     !- Surface Type
    Project Wall,             !- Construction Name
    Block Build0_Alt0 Storey 0,    !- Zone Name
    outdoors,                 !- Outside Boundary Condition
    ,                         !- Outside Boundary Condition Object
    SunExposed,               !- Sun Exposure
    WindExposed,              !- Wind Exposure
    autocalculate,            !- View Factor to Ground
    autocalculate,            !- Number of Vertices
    6.159,                    !- Vertex 1 Xcoordinate
    15.3438,                  !- Vertex 1 Ycoordinate
    9,                        !- Vertex 1 Zcoordinate
    6.159,                    !- Vertex 2 Xcoordinate
    15.3438,                  !- Vertex 2 Ycoordinate
    0,                        !- Vertex 2 Zcoordinate
    -4.157,                   !- Vertex 3 Xcoordinate
    13.6418,                  !- Vertex 3 Ycoordinate
    0,                        !- Vertex 3 Zcoordinate
    -4.157,                   !- Vertex 4 Xcoordinate
    13.6418,                  !- Vertex 4 Ycoordinate
    9;                        !- Vertex 4 Zcoordinate

BUILDINGSURFACE:DETAILED,
    Block Build0_Alt0 Storey 0 Wall 0004,    !- Name
    wall,                     !- Surface Type
    Project Wall,             !- Construction Name
    Block Build0_Alt0 Storey 0,    !- Zone Name
    outdoors,                 !- Outside Boundary Condition
    ,                         !- Outside Boundary Condition Object
    SunExposed,               !- Sun Exposure
    WindExposed,              !- Wind Exposure
    autocalculate,            !- View Factor to Ground
    autocalculate,            !- Number of Vertices
    -4.157,                   !- Vertex 1 Xcoordinate
    13.6418,                  !- Vertex 1 Ycoordinate
    9,                        !- Vertex 1 Zcoordinate
    -4.157,                   !- Vertex 2 Xcoordinate
    13.6418,                  !- Vertex 2 Ycoordinate
    0,                        !- Vertex 2 Zcoordinate
    -0.538,                   !- Vertex 3 Xcoordinate
    -9.8332,                  !- Vertex 3 Ycoordinate
    0,                        !- Vertex 3 Zcoordinate
    -0.538,                   !- Vertex 4 Xcoordinate
    -9.8332,                  !- Vertex 4 Ycoordinate
    9;                        !- Vertex 4 Zcoordinate

BUILDINGSURFACE:DETAILED,
    Block Build0_Alt0 Storey 0 Roof 0001,    !- Name
    roof,                     !- Surface Type
    Project Flat Roof,        !- Construction Name
    Block Build0_Alt0 Storey 0,    !- Zone Name
    outdoors,                 !- Outside Boundary Condition
    ,                         !- Outside Boundary Condition Object
    SunExposed,               !- Sun Exposure
    WindExposed,              !- Wind Exposure
    autocalculate,            !- View Factor to Ground
    autocalculate,            !- Number of Vertices
    9.662,                    !- Vertex 1 Xcoordinate
    -8.1282,                  !- Vertex 1 Ycoordinate
    9,                        !- Vertex 1 Zcoordinate
    6.159,                    !- Vertex 2 Xcoordinate
    15.3438,                  !- Vertex 2 Ycoordinate
    9,                        !- Vertex 2 Zcoordinate
    -4.157,                   !- Vertex 3 Xcoordinate
    13.6418,                  !- Vertex 3 Ycoordinate
    9,                        !- Vertex 3 Zcoordinate
    -0.538,                   !- Vertex 4 Xcoordinate
    -9.8332,                  !- Vertex 4 Ycoordinate
    9;                        !- Vertex 4 Zcoordinate

BUILDINGSURFACE:DETAILED,
    Block Build0_Alt0 Storey -1 Ceiling 0001_1,    !- Name
    ceiling,                  !- Surface Type
    Project Heated1rstFloor Rev,    !- Construction Name
    Block Build0_Alt0 Storey -1,    !- Zone Name
    surface,                  !- Outside Boundary Condition
    Block Build0_Alt0 Storey 0 Floor 0001_1,    !- Outside Boundary Condition Object
    NoSun,                    !- Sun Exposure
    NoWind,                   !- Wind Exposure
    autocalculate,            !- View Factor to Ground
    autocalculate,            !- Number of Vertices
    9.661999999545515,        !- Vertex 1 Xcoordinate
    -8.12819999968633,        !- Vertex 1 Ycoordinate
    0,                        !- Vertex 1 Zcoordinate
    6.158999999985099,        !- Vertex 2 Xcoordinate
    15.343799999915063,       !- Vertex 2 Ycoordinate
    0,                        !- Vertex 2 Zcoordinate
    -4.156999999657273,       !- Vertex 3 Xcoordinate
    13.641799999866635,       !- Vertex 3 Ycoordinate
    0,                        !- Vertex 3 Zcoordinate
    -5.380000e-01,            !- Vertex 4 Xcoordinate
    -9.833199999760836,       !- Vertex 4 Ycoordinate
    0;                        !- Vertex 4 Zcoordinate

BUILDINGSURFACE:DETAILED,
    Block Build0_Alt0 Storey 0 Floor 0001_1,    !- Name
    floor,                    !- Surface Type
    Project Heated1rstFloor,    !- Construction Name
    Block Build0_Alt0 Storey 0,    !- Zone Name
    surface,                  !- Outside Boundary Condition
    Block Build0_Alt0 Storey -1 Ceiling 0001_1,    !- Outside Boundary Condition Object
    NoSun,                    !- Sun Exposure
    NoWind,                   !- Wind Exposure
    autocalculate,            !- View Factor to Ground
    autocalculate,            !- Number of Vertices
    6.158999999985099,        !- Vertex 1 Xcoordinate
    15.343799999915063,       !- Vertex 1 Ycoordinate
    0,                        !- Vertex 1 Zcoordinate
    9.661999999545515,        !- Vertex 2 Xcoordinate
    -8.12819999968633,        !- Vertex 2 Ycoordinate
    0,                        !- Vertex 2 Zcoordinate
    -5.380000e-01,            !- Vertex 3 Xcoordinate
    -9.833199999760836,       !- Vertex 3 Ycoordinate
    0,                        !- Vertex 3 Zcoordinate
    -4.156999999657273,       !- Vertex 4 Xcoordinate
    13.641799999866635,       !- Vertex 4 Ycoordinate
    0;                        !- Vertex 4 Zcoordinate

FENESTRATIONSURFACE:DETAILED,
    Block Build0_Alt0 Storey 0 Wall 0001 window,    !- Name
    Window,                   !- Surface Type
    Project External Window,    !- Construction Name
    Block Build0_Alt0 Storey 0 Wall 0001,    !- Building Surface Name
    ,                         !- Outside Boundary Condition Object
    autocalculate,            !- View Factor to Ground
    ,                         !- Frame and Divider Name
    1.0,                      !- Multiplier
    autocalculate,            !- Number of Vertices
    -5.329000e-01,            !- Vertex 1 Xcoordinate
    -9.8323475,               !- Vertex 1 Ycoordinate
    5.85,                     !- Vertex 1 Zcoordinate
    -5.329000e-01,            !- Vertex 2 Xcoordinate
    -9.8323475,               !- Vertex 2 Ycoordinate
    3.1500000000000004,       !- Vertex 2 Zcoordinate
    9.6569,                   !- Vertex 3 Xcoordinate
    -8.1290525,               !- Vertex 3 Ycoordinate
    3.1500000000000004,       !- Vertex 3 Zcoordinate
    9.6569,                   !- Vertex 4 Xcoordinate
    -8.1290525,               !- Vertex 4 Ycoordinate
    5.85;                     !- Vertex 4 Zcoordinate

FENESTRATIONSURFACE:DETAILED,
    Block Build0_Alt0 Storey 0 Wall 0002 window,    !- Name
    Window,                   !- Surface Type
    Project External Window,    !- Construction Name
    Block Build0_Alt0 Storey 0 Wall 0002,    !- Building Surface Name
    ,                         !- Outside Boundary Condition Object
    autocalculate,            !- View Factor to Ground
    ,                         !- Frame and Divider Name
    1.0,                      !- Multiplier
    autocalculate,            !- Number of Vertices
    9.660248500000002,        !- Vertex 1 Xcoordinate
    -8.116464,                !- Vertex 1 Ycoordinate
    5.85,                     !- Vertex 1 Zcoordinate
    9.660248500000002,        !- Vertex 2 Xcoordinate
    -8.116464,                !- Vertex 2 Ycoordinate
    3.1500000000000004,       !- Vertex 2 Zcoordinate
    6.1607515,                !- Vertex 3 Xcoordinate
    15.332063999999999,       !- Vertex 3 Ycoordinate
    3.1500000000000004,       !- Vertex 3 Zcoordinate
    6.1607515,                !- Vertex 4 Xcoordinate
    15.332063999999999,       !- Vertex 4 Ycoordinate
    5.85;                     !- Vertex 4 Zcoordinate

FENESTRATIONSURFACE:DETAILED,
    Block Build0_Alt0 Storey 0 Wall 0003 window,    !- Name
    Window,                   !- Surface Type
    Project External Window,    !- Construction Name
    Block Build0_Alt0 Storey 0 Wall 0003,    !- Building Surface Name
    ,                         !- Outside Boundary Condition Object
    autocalculate,            !- View Factor to Ground
    ,                         !- Frame and Divider Name
    1.0,                      !- Multiplier
    autocalculate,            !- Number of Vertices
    6.153841999999999,        !- Vertex 1 Xcoordinate
    15.342948999999999,       !- Vertex 1 Ycoordinate
    5.85,                     !- Vertex 1 Zcoordinate
    6.153841999999999,        !- Vertex 2 Xcoordinate
    15.342948999999999,       !- Vertex 2 Ycoordinate
    3.1500000000000004,       !- Vertex 2 Zcoordinate
    -4.151842,                !- Vertex 3 Xcoordinate
    13.642651,                !- Vertex 3 Ycoordinate
    3.1500000000000004,       !- Vertex 3 Zcoordinate
    -4.151842,                !- Vertex 4 Xcoordinate
    13.642651,                !- Vertex 4 Ycoordinate
    5.85;                     !- Vertex 4 Zcoordinate

FENESTRATIONSURFACE:DETAILED,
    Block Build0_Alt0 Storey 0 Wall 0004 window,    !- Name
    Window,                   !- Surface Type
    Project External Window,    !- Construction Name
    Block Build0_Alt0 Storey 0 Wall 0004,    !- Building Surface Name
    ,                         !- Outside Boundary Condition Object
    autocalculate,            !- View Factor to Ground
    ,                         !- Frame and Divider Name
    1.0,                      !- Multiplier
    autocalculate,            !- Number of Vertices
    -4.1551905,               !- Vertex 1 Xcoordinate
    13.6300625,               !- Vertex 1 Ycoordinate
    5.85,                     !- Vertex 1 Zcoordinate
    -4.1551905,               !- Vertex 2 Xcoordinate
    13.6300625,               !- Vertex 2 Ycoordinate
    3.1500000000000004,       !- Vertex 2 Zcoordinate
    -0.5398095,               !- Vertex 3 Xcoordinate
    -9.821462499999999,       !- Vertex 3 Ycoordinate
    3.1500000000000004,       !- Vertex 3 Zcoordinate
    -0.5398095,               !- Vertex 4 Xcoordinate
    -9.821462499999999,       !- Vertex 4 Ycoordinate
    5.85;                     !- Vertex 4 Zcoordinate

INTERNALMASS,
    Block Build0_Alt0 Storey -1IntMass,    !- Name
    NonHeatedZoneIntMassObj,    !- Construction Name
    Block Build0_Alt0 Storey -1,    !- Zone or ZoneList Name
    494;                      !- Surface Area

INTERNALMASS,
    Block Build0_Alt0 Storey 0IntMass,    !- Name
    HeatedZoneIntMassObj,     !- Construction Name
    Block Build0_Alt0 Storey 0,    !- Zone or ZoneList Name
    1481;                     !- Surface Area

SHADING:SITE:DETAILED,
    Shading_V18_1,            !- Name
    ,                         !- Transmittance Schedule Name
    autocalculate,            !- Number of Vertices
    182.705,                  !- Vertex 1 Xcoordinate
    -80.6222,                 !- Vertex 1 Ycoordinate
    6.6,                      !- Vertex 1 Zcoordinate
    182.705,                  !- Vertex 2 Xcoordinate
    -80.6222,                 !- Vertex 2 Ycoordinate
    0,                        !- Vertex 2 Zcoordinate
    173.087,                  !- Vertex 3 Xcoordinate
    -84.3032,                 !- Vertex 3 Ycoordinate
    0,                        !- Vertex 3 Zcoordinate
    173.087,                  !- Vertex 4 Xcoordinate
    -84.3032,                 !- Vertex 4 Ycoordinate
    6.6;                      !- Vertex 4 Zcoordinate

SHADING:SITE:DETAILED,
    Shading_V22_1,            !- Name
    ,                         !- Transmittance Schedule Name
    autocalculate,            !- Number of Vertices
    49.236,                   !- Vertex 1 Xcoordinate
    -43.4262,                 !- Vertex 1 Ycoordinate
    6.9,                      !- Vertex 1 Zcoordinate
    49.236,                   !- Vertex 2 Xcoordinate
    -43.4262,                 !- Vertex 2 Ycoordinate
    0,                        !- Vertex 2 Zcoordinate
    26.617,                   !- Vertex 3 Xcoordinate
    -31.3302,                 !- Vertex 3 Ycoordinate
    0,                        !- Vertex 3 Zcoordinate
    26.617,                   !- Vertex 4 Xcoordinate
    -31.3302,                 !- Vertex 4 Ycoordinate
    6.9;                      !- Vertex 4 Zcoordinate

SHADING:SITE:DETAILED,
    Shading_V23_1,            !- Name
    ,                         !- Transmittance Schedule Name
    autocalculate,            !- Number of Vertices
    26.617,                   !- Vertex 1 Xcoordinate
    -31.3302,                 !- Vertex 1 Ycoordinate
    6.9,                      !- Vertex 1 Zcoordinate
    26.617,                   !- Vertex 2 Xcoordinate
    -31.3302,                 !- Vertex 2 Ycoordinate
    0,                        !- Vertex 2 Zcoordinate
    21.825,                   !- Vertex 3 Xcoordinate
    -40.4682,                 !- Vertex 3 Ycoordinate
    0,                        !- Vertex 3 Zcoordinate
    21.825,                   !- Vertex 4 Xcoordinate
    -40.4682,                 !- Vertex 4 Ycoordinate
    6.9;                      !- Vertex 4 Zcoordinate

SHADING:SITE:DETAILED,
    Shading_V289_1,           !- Name
    ,                         !- Transmittance Schedule Name
    autocalculate,            !- Number of Vertices
    119.437,                  !- Vertex 1 Xcoordinate
    -90.5112,                 !- Vertex 1 Ycoordinate
    7.8,                      !- Vertex 1 Zcoordinate
    119.437,                  !- Vertex 2 Xcoordinate
    -90.5112,                 !- Vertex 2 Ycoordinate
    0,                        !- Vertex 2 Zcoordinate
    110.891,                  !- Vertex 3 Xcoordinate
    -92.5572,                 !- Vertex 3 Ycoordinate
    0,                        !- Vertex 3 Zcoordinate
    110.891,                  !- Vertex 4 Xcoordinate
    -92.5572,                 !- Vertex 4 Ycoordinate
    7.8;                      !- Vertex 4 Zcoordinate

SHADING:SITE:DETAILED,
    Shading_V379_1,           !- Name
    ,                         !- Transmittance Schedule Name
    autocalculate,            !- Number of Vertices
    25.243,                   !- Vertex 1 Xcoordinate
    -3.9022,                  !- Vertex 1 Ycoordinate
    8.6,                      !- Vertex 1 Zcoordinate
    25.243,                   !- Vertex 2 Xcoordinate
    -3.9022,                  !- Vertex 2 Ycoordinate
    0,                        !- Vertex 2 Zcoordinate
    39.157,                   !- Vertex 3 Xcoordinate
    -22.1712,                 !- Vertex 3 Ycoordinate
    0,                        !- Vertex 3 Zcoordinate
    39.157,                   !- Vertex 4 Xcoordinate
    -22.1712,                 !- Vertex 4 Ycoordinate
    8.6;                      !- Vertex 4 Zcoordinate

SHADING:SITE:DETAILED,
    Shading_V10_1,            !- Name
    ,                         !- Transmittance Schedule Name
    autocalculate,            !- Number of Vertices
    135.809,                  !- Vertex 1 Xcoordinate
    41.9298,                  !- Vertex 1 Ycoordinate
    16.1,                     !- Vertex 1 Zcoordinate
    135.809,                  !- Vertex 2 Xcoordinate
    41.9298,                  !- Vertex 2 Ycoordinate
    0,                        !- Vertex 2 Zcoordinate
    129.056,                  !- Vertex 3 Xcoordinate
    36.0678,                  !- Vertex 3 Ycoordinate
    0,                        !- Vertex 3 Zcoordinate
    129.056,                  !- Vertex 4 Xcoordinate
    36.0678,                  !- Vertex 4 Ycoordinate
    16.1;                     !- Vertex 4 Zcoordinate

SHADING:SITE:DETAILED,
    Shading_V27_1,            !- Name
    ,                         !- Transmittance Schedule Name
    autocalculate,            !- Number of Vertices
    79.026,                   !- Vertex 1 Xcoordinate
    44.2378,                  !- Vertex 1 Ycoordinate
    9,                        !- Vertex 1 Zcoordinate
    79.026,                   !- Vertex 2 Xcoordinate
    44.2378,                  !- Vertex 2 Ycoordinate
    0,                        !- Vertex 2 Zcoordinate
    70.312,                   !- Vertex 3 Xcoordinate
    38.7748,                  !- Vertex 3 Ycoordinate
    0,                        !- Vertex 3 Zcoordinate
    70.312,                   !- Vertex 4 Xcoordinate
    38.7748,                  !- Vertex 4 Ycoordinate
    9;                        !- Vertex 4 Zcoordinate

SHADING:SITE:DETAILED,
    Shading_V28_1,            !- Name
    ,                         !- Transmittance Schedule Name
    autocalculate,            !- Number of Vertices
    70.312,                   !- Vertex 1 Xcoordinate
    38.7748,                  !- Vertex 1 Ycoordinate
    9,                        !- Vertex 1 Zcoordinate
    70.312,                   !- Vertex 2 Xcoordinate
    38.7748,                  !- Vertex 2 Ycoordinate
    0,                        !- Vertex 2 Zcoordinate
    79.478,                   !- Vertex 3 Xcoordinate
    23.9588,                  !- Vertex 3 Ycoordinate
    0,                        !- Vertex 3 Zcoordinate
    79.478,                   !- Vertex 4 Xcoordinate
    23.9588,                  !- Vertex 4 Ycoordinate
    9;                        !- Vertex 4 Zcoordinate

SHADING:SITE:DETAILED,
    Shading_V69_1,            !- Name
    ,                         !- Transmittance Schedule Name
    autocalculate,            !- Number of Vertices
    118.877,                  !- Vertex 1 Xcoordinate
    138.0688,                 !- Vertex 1 Ycoordinate
    15,                       !- Vertex 1 Zcoordinate
    118.877,                  !- Vertex 2 Xcoordinate
    138.0688,                 !- Vertex 2 Ycoordinate
    0,                        !- Vertex 2 Zcoordinate
    122.1,                    !- Vertex 3 Xcoordinate
    134.5108,                 !- Vertex 3 Ycoordinate
    0,                        !- Vertex 3 Zcoordinate
    122.1,                    !- Vertex 4 Xcoordinate
    134.5108,                 !- Vertex 4 Ycoordinate
    15;                       !- Vertex 4 Zcoordinate

SHADING:SITE:DETAILED,
    Shading_V70_1,            !- Name
    ,                         !- Transmittance Schedule Name
    autocalculate,            !- Number of Vertices
    122.1,                    !- Vertex 1 Xcoordinate
    134.5108,                 !- Vertex 1 Ycoordinate
    15,                       !- Vertex 1 Zcoordinate
    122.1,                    !- Vertex 2 Xcoordinate
    134.5108,                 !- Vertex 2 Ycoordinate
    0,                        !- Vertex 2 Zcoordinate
    127.128,                  !- Vertex 3 Xcoordinate
    138.8138,                 !- Vertex 3 Ycoordinate
    0,                        !- Vertex 3 Zcoordinate
    127.128,                  !- Vertex 4 Xcoordinate
    138.8138,                 !- Vertex 4 Ycoordinate
    15;                       !- Vertex 4 Zcoordinate

SHADING:SITE:DETAILED,
    Shading_V92_1,            !- Name
    ,                         !- Transmittance Schedule Name
    autocalculate,            !- Number of Vertices
    113.9251,                 !- Vertex 1 Xcoordinate
    75.944,                   !- Vertex 1 Ycoordinate
    12,                       !- Vertex 1 Zcoordinate
    113.9251,                 !- Vertex 2 Xcoordinate
    75.944,                   !- Vertex 2 Ycoordinate
    0,                        !- Vertex 2 Zcoordinate
    118.788,                  !- Vertex 3 Xcoordinate
    70.4788,                  !- Vertex 3 Ycoordinate
    0,                        !- Vertex 3 Zcoordinate
    118.788,                  !- Vertex 4 Xcoordinate
    70.4788,                  !- Vertex 4 Ycoordinate
    12;                       !- Vertex 4 Zcoordinate

SHADING:SITE:DETAILED,
    Shading_V168_1,           !- Name
    ,                         !- Transmittance Schedule Name
    autocalculate,            !- Number of Vertices
    103.814,                  !- Vertex 1 Xcoordinate
    29.0328,                  !- Vertex 1 Ycoordinate
    9,                        !- Vertex 1 Zcoordinate
    103.814,                  !- Vertex 2 Xcoordinate
    29.0328,                  !- Vertex 2 Ycoordinate
    0,                        !- Vertex 2 Zcoordinate
    95.274,                   !- Vertex 3 Xcoordinate
    23.7848,                  !- Vertex 3 Ycoordinate
    0,                        !- Vertex 3 Zcoordinate
    95.274,                   !- Vertex 4 Xcoordinate
    23.7848,                  !- Vertex 4 Ycoordinate
    9;                        !- Vertex 4 Zcoordinate

SHADING:SITE:DETAILED,
    Shading_V169_1,           !- Name
    ,                         !- Transmittance Schedule Name
    autocalculate,            !- Number of Vertices
    95.274,                   !- Vertex 1 Xcoordinate
    23.7848,                  !- Vertex 1 Ycoordinate
    9,                        !- Vertex 1 Zcoordinate
    95.274,                   !- Vertex 2 Xcoordinate
    23.7848,                  !- Vertex 2 Ycoordinate
    0,                        !- Vertex 2 Zcoordinate
    104.369,                  !- Vertex 3 Xcoordinate
    9.3488,                   !- Vertex 3 Ycoordinate
    0,                        !- Vertex 3 Zcoordinate
    104.369,                  !- Vertex 4 Xcoordinate
    9.3488,                   !- Vertex 4 Ycoordinate
    9;                        !- Vertex 4 Zcoordinate

SHADING:SITE:DETAILED,
    Shading_V173_1,           !- Name
    ,                         !- Transmittance Schedule Name
    autocalculate,            !- Number of Vertices
    168.22,                   !- Vertex 1 Xcoordinate
    12.5978,                  !- Vertex 1 Ycoordinate
    19.2,                     !- Vertex 1 Zcoordinate
    168.22,                   !- Vertex 2 Xcoordinate
    12.5978,                  !- Vertex 2 Ycoordinate
    0,                        !- Vertex 2 Zcoordinate
    161.045,                  !- Vertex 3 Xcoordinate
    6.4768,                   !- Vertex 3 Ycoordinate
    0,                        !- Vertex 3 Zcoordinate
    161.045,                  !- Vertex 4 Xcoordinate
    6.4768,                   !- Vertex 4 Ycoordinate
    19.2;                     !- Vertex 4 Zcoordinate

SHADING:SITE:DETAILED,
    Shading_V174_1,           !- Name
    ,                         !- Transmittance Schedule Name
    autocalculate,            !- Number of Vertices
    161.045,                  !- Vertex 1 Xcoordinate
    6.4768,                   !- Vertex 1 Ycoordinate
    19.2,                     !- Vertex 1 Zcoordinate
    161.045,                  !- Vertex 2 Xcoordinate
    6.4768,                   !- Vertex 2 Ycoordinate
    0,                        !- Vertex 2 Zcoordinate
    169.348,                  !- Vertex 3 Xcoordinate
    -3.1502,                  !- Vertex 3 Ycoordinate
    0,                        !- Vertex 3 Zcoordinate
    169.348,                  !- Vertex 4 Xcoordinate
    -3.1502,                  !- Vertex 4 Ycoordinate
    19.2;                     !- Vertex 4 Zcoordinate

SHADING:SITE:DETAILED,
    Shading_V278_1,           !- Name
    ,                         !- Transmittance Schedule Name
    autocalculate,            !- Number of Vertices
    70.616,                   !- Vertex 1 Xcoordinate
    126.0208,                 !- Vertex 1 Ycoordinate
    18.7,                     !- Vertex 1 Zcoordinate
    70.616,                   !- Vertex 2 Xcoordinate
    126.0208,                 !- Vertex 2 Ycoordinate
    0,                        !- Vertex 2 Zcoordinate
    75.596,                   !- Vertex 3 Xcoordinate
    120.2398,                 !- Vertex 3 Ycoordinate
    0,                        !- Vertex 3 Zcoordinate
    75.596,                   !- Vertex 4 Xcoordinate
    120.2398,                 !- Vertex 4 Ycoordinate
    18.7;                     !- Vertex 4 Zcoordinate

SHADING:SITE:DETAILED,
    Shading_V280_1,           !- Name
    ,                         !- Transmittance Schedule Name
    autocalculate,            !- Number of Vertices
    68.431,                   !- Vertex 1 Xcoordinate
    114.0798,                 !- Vertex 1 Ycoordinate
    18.7,                     !- Vertex 1 Zcoordinate
    68.431,                   !- Vertex 2 Xcoordinate
    114.0798,                 !- Vertex 2 Ycoordinate
    0,                        !- Vertex 2 Zcoordinate
    76.695,                   !- Vertex 3 Xcoordinate
    104.4568,                 !- Vertex 3 Ycoordinate
    0,                        !- Vertex 3 Zcoordinate
    76.695,                   !- Vertex 4 Xcoordinate
    104.4568,                 !- Vertex 4 Ycoordinate
    18.7;                     !- Vertex 4 Zcoordinate

SHADING:SITE:DETAILED,
    Shading_V281_1,           !- Name
    ,                         !- Transmittance Schedule Name
    autocalculate,            !- Number of Vertices
    76.695,                   !- Vertex 1 Xcoordinate
    104.4568,                 !- Vertex 1 Ycoordinate
    18.7,                     !- Vertex 1 Zcoordinate
    76.695,                   !- Vertex 2 Xcoordinate
    104.4568,                 !- Vertex 2 Ycoordinate
    0,                        !- Vertex 2 Zcoordinate
    83.866,                   !- Vertex 3 Xcoordinate
    110.6228,                 !- Vertex 3 Ycoordinate
    0,                        !- Vertex 3 Zcoordinate
    83.866,                   !- Vertex 4 Xcoordinate
    110.6228,                 !- Vertex 4 Ycoordinate
    18.7;                     !- Vertex 4 Zcoordinate

SHADING:SITE:DETAILED,
    Shading_V282_1,           !- Name
    ,                         !- Transmittance Schedule Name
    autocalculate,            !- Number of Vertices
    83.866,                   !- Vertex 1 Xcoordinate
    110.6228,                 !- Vertex 1 Ycoordinate
    18.7,                     !- Vertex 1 Zcoordinate
    83.866,                   !- Vertex 2 Xcoordinate
    110.6228,                 !- Vertex 2 Ycoordinate
    0,                        !- Vertex 2 Zcoordinate
    88.849,                   !- Vertex 3 Xcoordinate
    104.8198,                 !- Vertex 3 Ycoordinate
    0,                        !- Vertex 3 Zcoordinate
    88.849,                   !- Vertex 4 Xcoordinate
    104.8198,                 !- Vertex 4 Ycoordinate
    18.7;                     !- Vertex 4 Zcoordinate

SHADING:SITE:DETAILED,
    Shading_V283_1,           !- Name
    ,                         !- Transmittance Schedule Name
    autocalculate,            !- Number of Vertices
    88.849,                   !- Vertex 1 Xcoordinate
    104.8198,                 !- Vertex 1 Ycoordinate
    18.7,                     !- Vertex 1 Zcoordinate
    88.849,                   !- Vertex 2 Xcoordinate
    104.8198,                 !- Vertex 2 Ycoordinate
    0,                        !- Vertex 2 Zcoordinate
    96.491,                   !- Vertex 3 Xcoordinate
    111.4078,                 !- Vertex 3 Ycoordinate
    0,                        !- Vertex 3 Zcoordinate
    96.491,                   !- Vertex 4 Xcoordinate
    111.4078,                 !- Vertex 4 Ycoordinate
    18.7;                     !- Vertex 4 Zcoordinate

SHADING:SITE:DETAILED,
    Shading_V290_1,           !- Name
    ,                         !- Transmittance Schedule Name
    autocalculate,            !- Number of Vertices
    110.891,                  !- Vertex 1 Xcoordinate
    -92.5572,                 !- Vertex 1 Ycoordinate
    7.8,                      !- Vertex 1 Zcoordinate
    110.891,                  !- Vertex 2 Xcoordinate
    -92.5572,                 !- Vertex 2 Ycoordinate
    0,                        !- Vertex 2 Zcoordinate
    114.961,                  !- Vertex 3 Xcoordinate
    -109.5462,                !- Vertex 3 Ycoordinate
    0,                        !- Vertex 3 Zcoordinate
    114.961,                  !- Vertex 4 Xcoordinate
    -109.5462,                !- Vertex 4 Ycoordinate
    7.8;                      !- Vertex 4 Zcoordinate

SHADING:SITE:DETAILED,
    Shading_V346_1,           !- Name
    ,                         !- Transmittance Schedule Name
    autocalculate,            !- Number of Vertices
    1.659,                    !- Vertex 1 Xcoordinate
    61.0428,                  !- Vertex 1 Ycoordinate
    9.8,                      !- Vertex 1 Zcoordinate
    1.659,                    !- Vertex 2 Xcoordinate
    61.0428,                  !- Vertex 2 Ycoordinate
    0,                        !- Vertex 2 Zcoordinate
    7.282,                    !- Vertex 3 Xcoordinate
    70.7978,                  !- Vertex 3 Ycoordinate
    0,                        !- Vertex 3 Zcoordinate
    7.282,                    !- Vertex 4 Xcoordinate
    70.7978,                  !- Vertex 4 Ycoordinate
    9.8;                      !- Vertex 4 Zcoordinate

SHADING:SITE:DETAILED,
    Shading_V382_1,           !- Name
    ,                         !- Transmittance Schedule Name
    autocalculate,            !- Number of Vertices
    33.459,                   !- Vertex 1 Xcoordinate
    2.3678,                   !- Vertex 1 Ycoordinate
    8.6,                      !- Vertex 1 Zcoordinate
    33.459,                   !- Vertex 2 Xcoordinate
    2.3678,                   !- Vertex 2 Ycoordinate
    0,                        !- Vertex 2 Zcoordinate
    25.243,                   !- Vertex 3 Xcoordinate
    -3.9022,                  !- Vertex 3 Ycoordinate
    0,                        !- Vertex 3 Zcoordinate
    25.243,                   !- Vertex 4 Xcoordinate
    -3.9022,                  !- Vertex 4 Ycoordinate
    8.6;                      !- Vertex 4 Zcoordinate

SHADING:SITE:DETAILED,
    Shading_V408_1,           !- Name
    ,                         !- Transmittance Schedule Name
    autocalculate,            !- Number of Vertices
    20.697,                   !- Vertex 1 Xcoordinate
    38.6338,                  !- Vertex 1 Ycoordinate
    10.2,                     !- Vertex 1 Zcoordinate
    20.697,                   !- Vertex 2 Xcoordinate
    38.6338,                  !- Vertex 2 Ycoordinate
    0,                        !- Vertex 2 Zcoordinate
    28.172,                   !- Vertex 3 Xcoordinate
    45.5318,                  !- Vertex 3 Ycoordinate
    0,                        !- Vertex 3 Zcoordinate
    28.172,                   !- Vertex 4 Xcoordinate
    45.5318,                  !- Vertex 4 Ycoordinate
    10.2;                     !- Vertex 4 Zcoordinate

SHADING:SITE:DETAILED,
    Shading_V411_1,           !- Name
    ,                         !- Transmittance Schedule Name
    autocalculate,            !- Number of Vertices
    5.006,                    !- Vertex 1 Xcoordinate
    56.8698,                  !- Vertex 1 Ycoordinate
    10.2,                     !- Vertex 1 Zcoordinate
    5.006,                    !- Vertex 2 Xcoordinate
    56.8698,                  !- Vertex 2 Ycoordinate
    0,                        !- Vertex 2 Zcoordinate
    20.697,                   !- Vertex 3 Xcoordinate
    38.6338,                  !- Vertex 3 Ycoordinate
    0,                        !- Vertex 3 Zcoordinate
    20.697,                   !- Vertex 4 Xcoordinate
    38.6338,                  !- Vertex 4 Ycoordinate
    10.2;                     !- Vertex 4 Zcoordinate

SHADING:SITE:DETAILED,
    Shading_V512_1,           !- Name
    ,                         !- Transmittance Schedule Name
    autocalculate,            !- Number of Vertices
    94.713,                   !- Vertex 1 Xcoordinate
    98.0668,                  !- Vertex 1 Ycoordinate
    19,                       !- Vertex 1 Zcoordinate
    94.713,                   !- Vertex 2 Xcoordinate
    98.0668,                  !- Vertex 2 Ycoordinate
    0,                        !- Vertex 2 Zcoordinate
    99.665,                   !- Vertex 3 Xcoordinate
    92.2618,                  !- Vertex 3 Ycoordinate
    0,                        !- Vertex 3 Zcoordinate
    99.665,                   !- Vertex 4 Xcoordinate
    92.2618,                  !- Vertex 4 Ycoordinate
    19;                       !- Vertex 4 Zcoordinate

SHADING:SITE:DETAILED,
    Shading_V514_1,           !- Name
    ,                         !- Transmittance Schedule Name
    autocalculate,            !- Number of Vertices
    92.522,                   !- Vertex 1 Xcoordinate
    86.0958,                  !- Vertex 1 Ycoordinate
    19,                       !- Vertex 1 Zcoordinate
    92.522,                   !- Vertex 2 Xcoordinate
    86.0958,                  !- Vertex 2 Ycoordinate
    0,                        !- Vertex 2 Zcoordinate
    100.83,                   !- Vertex 3 Xcoordinate
    76.4878,                  !- Vertex 3 Ycoordinate
    0,                        !- Vertex 3 Zcoordinate
    100.83,                   !- Vertex 4 Xcoordinate
    76.4878,                  !- Vertex 4 Ycoordinate
    19;                       !- Vertex 4 Zcoordinate

SHADING:SITE:DETAILED,
    Shading_V516_1,           !- Name
    ,                         !- Transmittance Schedule Name
    autocalculate,            !- Number of Vertices
    107.95,                   !- Vertex 1 Xcoordinate
    82.6598,                  !- Vertex 1 Ycoordinate
    19,                       !- Vertex 1 Zcoordinate
    107.95,                   !- Vertex 2 Xcoordinate
    82.6598,                  !- Vertex 2 Ycoordinate
    0,                        !- Vertex 2 Zcoordinate
    113.9251,                 !- Vertex 3 Xcoordinate
    75.944,                   !- Vertex 3 Ycoordinate
    0,                        !- Vertex 3 Zcoordinate
    113.9251,                 !- Vertex 4 Xcoordinate
    75.944,                   !- Vertex 4 Ycoordinate
    19;                       !- Vertex 4 Zcoordinate

SHADING:SITE:DETAILED,
    Shading_V93_1,            !- Name
    ,                         !- Transmittance Schedule Name
    autocalculate,            !- Number of Vertices
    118.788,                  !- Vertex 1 Xcoordinate
    70.4788,                  !- Vertex 1 Ycoordinate
    12,                       !- Vertex 1 Zcoordinate
    118.788,                  !- Vertex 2 Xcoordinate
    70.4788,                  !- Vertex 2 Ycoordinate
    0,                        !- Vertex 2 Zcoordinate
    118.1427,                 !- Vertex 3 Xcoordinate
    61.7232,                  !- Vertex 3 Ycoordinate
    0,                        !- Vertex 3 Zcoordinate
    118.1427,                 !- Vertex 4 Xcoordinate
    61.7232,                  !- Vertex 4 Ycoordinate
    12;                       !- Vertex 4 Zcoordinate

SHADING:SITE:DETAILED,
    Shading_V204_1,           !- Name
    ,                         !- Transmittance Schedule Name
    autocalculate,            !- Number of Vertices
    -74.303,                  !- Vertex 1 Xcoordinate
    107.9958,                 !- Vertex 1 Ycoordinate
    12.7,                     !- Vertex 1 Zcoordinate
    -74.303,                  !- Vertex 2 Xcoordinate
    107.9958,                 !- Vertex 2 Ycoordinate
    0,                        !- Vertex 2 Zcoordinate
    -67.755,                  !- Vertex 3 Xcoordinate
    100.3328,                 !- Vertex 3 Ycoordinate
    0,                        !- Vertex 3 Zcoordinate
    -67.755,                  !- Vertex 4 Xcoordinate
    100.3328,                 !- Vertex 4 Ycoordinate
    12.7;                     !- Vertex 4 Zcoordinate

SHADING:SITE:DETAILED,
    Shading_V205_1,           !- Name
    ,                         !- Transmittance Schedule Name
    autocalculate,            !- Number of Vertices
    -67.755,                  !- Vertex 1 Xcoordinate
    100.3328,                 !- Vertex 1 Ycoordinate
    12.7,                     !- Vertex 1 Zcoordinate
    -67.755,                  !- Vertex 2 Xcoordinate
    100.3328,                 !- Vertex 2 Ycoordinate
    0,                        !- Vertex 2 Zcoordinate
    -61.97,                   !- Vertex 3 Xcoordinate
    105.2748,                 !- Vertex 3 Ycoordinate
    0,                        !- Vertex 3 Zcoordinate
    -61.97,                   !- Vertex 4 Xcoordinate
    105.2748,                 !- Vertex 4 Ycoordinate
    12.7;                     !- Vertex 4 Zcoordinate

SHADING:SITE:DETAILED,
    Shading_V206_1,           !- Name
    ,                         !- Transmittance Schedule Name
    autocalculate,            !- Number of Vertices
    -61.97,                   !- Vertex 1 Xcoordinate
    105.2748,                 !- Vertex 1 Ycoordinate
    12.7,                     !- Vertex 1 Zcoordinate
    -61.97,                   !- Vertex 2 Xcoordinate
    105.2748,                 !- Vertex 2 Ycoordinate
    0,                        !- Vertex 2 Zcoordinate
    -55.764,                  !- Vertex 3 Xcoordinate
    98.0838,                  !- Vertex 3 Ycoordinate
    0,                        !- Vertex 3 Zcoordinate
    -55.764,                  !- Vertex 4 Xcoordinate
    98.0838,                  !- Vertex 4 Ycoordinate
    12.7;                     !- Vertex 4 Zcoordinate

SHADING:SITE:DETAILED,
    Shading_V207_1,           !- Name
    ,                         !- Transmittance Schedule Name
    autocalculate,            !- Number of Vertices
    -55.764,                  !- Vertex 1 Xcoordinate
    98.0838,                  !- Vertex 1 Ycoordinate
    12.7,                     !- Vertex 1 Zcoordinate
    -55.764,                  !- Vertex 2 Xcoordinate
    98.0838,                  !- Vertex 2 Ycoordinate
    0,                        !- Vertex 2 Zcoordinate
    -46.117,                  !- Vertex 3 Xcoordinate
    106.3988,                 !- Vertex 3 Ycoordinate
    0,                        !- Vertex 3 Zcoordinate
    -46.117,                  !- Vertex 4 Xcoordinate
    106.3988,                 !- Vertex 4 Ycoordinate
    12.7;                     !- Vertex 4 Zcoordinate

SHADING:SITE:DETAILED,
    Shading_V345_1,           !- Name
    ,                         !- Transmittance Schedule Name
    autocalculate,            !- Number of Vertices
    -30.06,                   !- Vertex 1 Xcoordinate
    79.2928,                  !- Vertex 1 Ycoordinate
    9.8,                      !- Vertex 1 Zcoordinate
    -30.06,                   !- Vertex 2 Xcoordinate
    79.2928,                  !- Vertex 2 Ycoordinate
    0,                        !- Vertex 2 Zcoordinate
    1.659,                    !- Vertex 3 Xcoordinate
    61.0428,                  !- Vertex 3 Ycoordinate
    0,                        !- Vertex 3 Zcoordinate
    1.659,                    !- Vertex 4 Xcoordinate
    61.0428,                  !- Vertex 4 Ycoordinate
    9.8;                      !- Vertex 4 Zcoordinate

SHADING:SITE:DETAILED,
    Shading_V513_1,           !- Name
    ,                         !- Transmittance Schedule Name
    autocalculate,            !- Number of Vertices
    99.665,                   !- Vertex 1 Xcoordinate
    92.2618,                  !- Vertex 1 Ycoordinate
    19,                       !- Vertex 1 Zcoordinate
    99.665,                   !- Vertex 2 Xcoordinate
    92.2618,                  !- Vertex 2 Ycoordinate
    0,                        !- Vertex 2 Zcoordinate
    92.522,                   !- Vertex 3 Xcoordinate
    86.0958,                  !- Vertex 3 Ycoordinate
    0,                        !- Vertex 3 Zcoordinate
    92.522,                   !- Vertex 4 Xcoordinate
    86.0958,                  !- Vertex 4 Ycoordinate
    19;                       !- Vertex 4 Zcoordinate

SHADING:SITE:DETAILED,
    Shading_V184_1,           !- Name
    ,                         !- Transmittance Schedule Name
    autocalculate,            !- Number of Vertices
    -52.301,                  !- Vertex 1 Xcoordinate
    113.5508,                 !- Vertex 1 Ycoordinate
    12.7,                     !- Vertex 1 Zcoordinate
    -52.301,                  !- Vertex 2 Xcoordinate
    113.5508,                 !- Vertex 2 Ycoordinate
    0,                        !- Vertex 2 Zcoordinate
    -39.74,                   !- Vertex 3 Xcoordinate
    124.3768,                 !- Vertex 3 Ycoordinate
    0,                        !- Vertex 3 Zcoordinate
    -39.74,                   !- Vertex 4 Xcoordinate
    124.3768,                 !- Vertex 4 Ycoordinate
    12.7;                     !- Vertex 4 Zcoordinate

ELECTRICEQUIPMENT,
    Block Build0_Alt0 Storey 0Load,    !- Name
    Block Build0_Alt0 Storey 0,    !- Zone or ZoneList Name
    LoadSchedule,             !- Schedule Name
    Watts/Area,               !- Design Level Calculation Method
    ,                         !- Design Level
    0.03,                     !- Watts per Zone Floor Area
    ,                         !- Watts per Person
    0,                        !- Fraction Latent
    0,                        !- Fraction Radiant
    0,                        !- Fraction Lost
    General;                  !- EndUse Subcategory

ZONEINFILTRATION:DESIGNFLOWRATE,
    Block Build0_Alt0 Storey -1Leak,    !- Name
    Block Build0_Alt0 Storey -1,    !- Zone or ZoneList Name
    AlwaysON,                 !- Schedule Name
    AirChanges/Hour,          !- Design Flow Rate Calculation Method
    ,                         !- Design Flow Rate
    ,                         !- Flow per Zone Floor Area
    ,                         !- Flow per Exterior Surface Area
    1,                        !- Air Changes per Hour
    1,                        !- Constant Term Coefficient
    0,                        !- Temperature Term Coefficient
    0,                        !- Velocity Term Coefficient
    0;                        !- Velocity Squared Term Coefficient

ZONEINFILTRATION:FLOWCOEFFICIENT,
    Block Build0_Alt0 Storey 0Leak,    !- Name
    Block Build0_Alt0 Storey 0,    !- Zone Name
    AlwaysON,                 !- Schedule Name
    0.0633849506615267,       !- Flow Coefficient
    0.098,                    !- Stack Coefficient
    0.667,                    !- Pressure Exponent
    0.17,                     !- Wind Coefficient
    0.5;                      !- Shelter Factor

ZONEVENTILATION:DESIGNFLOWRATE,
    Block Build0_Alt0 Storey 0FreeCool,    !- Name
    Block Build0_Alt0 Storey 0,    !- Zone or ZoneList Name
    AlwaysON,                 !- Schedule Name
    AirChanges/Hour,          !- Design Flow Rate Calculation Method
    ,                         !- Design Flow Rate
    ,                         !- Flow Rate per Zone Floor Area
    ,                         !- Flow Rate per Person
    4,                        !- Air Changes per Hour
    Natural,                  !- Ventilation Type
    0,                        !- Fan Pressure Rise
    1,                        !- Fan Total Efficiency
    1,                        !- Constant Term Coefficient
    0,                        !- Temperature Term Coefficient
    0,                        !- Velocity Term Coefficient
    0,                        !- Velocity Squared Term Coefficient
    26,                       !- Minimum Indoor Temperature
    ,                         !- Minimum Indoor Temperature Schedule Name
    100,                      !- Maximum Indoor Temperature
    ,                         !- Maximum Indoor Temperature Schedule Name
    1,                        !- Delta Temperature
    ,                         !- Delta Temperature Schedule Name
    -100,                     !- Minimum Outdoor Temperature
    ,                         !- Minimum Outdoor Temperature Schedule Name
    100,                      !- Maximum Outdoor Temperature
    ,                         !- Maximum Outdoor Temperature Schedule Name
    40;                       !- Maximum Wind Speed

HVACTEMPLATE:THERMOSTAT,
    ResidZone,                !- Name
    ,                         !- Heating Setpoint Schedule Name
    21,                       !- Constant Heating Setpoint
    ,                         !- Cooling Setpoint Schedule Name
    50;                       !- Constant Cooling Setpoint

HVACTEMPLATE:ZONE:IDEALLOADSAIRSYSTEM,
    Block Build0_Alt0 Storey 0,    !- Zone Name
    ResidZone,                !- Template Thermostat Name
    ,                         !- System Availability Schedule Name
    50,                       !- Maximum Heating Supply Air Temperature
    13,                       !- Minimum Cooling Supply Air Temperature
    0.0156,                   !- Maximum Heating Supply Air Humidity Ratio
    0.0077,                   !- Minimum Cooling Supply Air Humidity Ratio
    NoLimit,                  !- Heating Limit
    ,                         !- Maximum Heating Air Flow Rate
    18514.299486217722,       !- Maximum Sensible Heating Capacity
    NoLimit,                  !- Cooling Limit
    ,                         !- Maximum Cooling Air Flow Rate
    ,                         !- Maximum Total Cooling Capacity
    ,                         !- Heating Availability Schedule Name
    ,                         !- Cooling Availability Schedule Name
    ConstantSensibleHeatRatio,    !- Dehumidification Control Type
    0.7,                      !- Cooling Sensible Heat Ratio
    60,                       !- Dehumidification Setpoint
    None,                     !- Humidification Control Type
    30,                       !- Humidification Setpoint
    Flow/Area,                !- Outdoor Air Method
    0.007,                    !- Outdoor Air Flow Rate per Person
    1.050000e-03,             !- Outdoor Air Flow Rate per Zone Floor Area
    0,                        !- Outdoor Air Flow Rate per Zone
    ,                         !- Design Specification Outdoor Air Object Name
    None,                     !- Demand Controlled Ventilation Type
    NoEconomizer,             !- Outdoor Air Economizer Type
    None,                     !- Heat Recovery Type
    0,                        !- Sensible Heat Recovery Effectiveness
    0;                        !- Latent Heat Recovery Effectiveness

OUTDOORAIR:NODE,
    Block Build0_Alt0 Storey 0 IDEAL LOADS OUTDOOR AIR INLET,    !- Name
    -1,                       !- Height Above Ground
    ,                         !- Drybulb Temperature Schedule Name
    ,                         !- Wetbulb Temperature Schedule Name
    ,                         !- Wind Speed Schedule Name
    ,                         !- Wind Direction Schedule Name
    ,                         !- Wind Pressure Coefficient Curve Name
    No,                       !- Symmetric Wind Pressure Coefficient Curve
    Absolute;                 !- Wind Angle Type

ENERGYMANAGEMENTSYSTEM:SENSOR,
    T0,                       !- Name
    Block Build0_Alt0 Storey 0,    !- OutputVariable or OutputMeter Index Key Name
    Zone Mean Air Temperature;    !- OutputVariable or OutputMeter Name

ENERGYMANAGEMENTSYSTEM:SENSOR,
    Pow0,                     !- Name
    Block Build0_Alt0 Storey 0 IDEAL LOADS AIR SYSTEM,    !- OutputVariable or OutputMeter Index Key Name
    Zone Ideal Loads Supply Air Total Heating Rate;    !- OutputVariable or OutputMeter Name

ENERGYMANAGEMENTSYSTEM:SENSOR,
    DHWPow,                   !- Name
    DHW,                      !- OutputVariable or OutputMeter Index Key Name
    Water Use Equipment Heating Rate;    !- OutputVariable or OutputMeter Name

ENERGYMANAGEMENTSYSTEM:PROGRAMCALLINGMANAGER,
    Average Building Temperature,    !- Name
    EndOfZoneTimestepBeforeZoneReporting,    !- EnergyPlus Model Calling Point
    AverageZoneTemps;         !- Program Name 1

ENERGYMANAGEMENTSYSTEM:PROGRAMCALLINGMANAGER,
    Compute Total Building Heat Pow,    !- Name
    EndOfZoneTimestepBeforeZoneReporting,    !- EnergyPlus Model Calling Point
    TotZonePow;               !- Program Name 1

ENERGYMANAGEMENTSYSTEM:PROGRAMCALLINGMANAGER,
    Compute Total DHW Heat Pow,    !- Name
    EndOfZoneTimestepBeforeZoneReporting,    !- EnergyPlus Model Calling Point
    prgmDHWPow;               !- Program Name 1

ENERGYMANAGEMENTSYSTEM:PROGRAM,
    AverageZoneTemps,         !- Name
    SET SumNumerator = T0*Vol0,    !- Program Line 1
    SET SumDenominator  = Vol0,    !- Program Line 2
    SET AverageBuildingTemp  = SumNumerator / SumDenominator;    !- Program Line 3

ENERGYMANAGEMENTSYSTEM:PROGRAM,
    TotZonePow,               !- Name
    SET TotBuildPow = Pow0;    !- Program Line 1

ENERGYMANAGEMENTSYSTEM:PROGRAM,
    prgmDHWPow,               !- Name
    SET TotDHWPow = DHWPow;    !- Program Line 1

ENERGYMANAGEMENTSYSTEM:GLOBALVARIABLE,
    AverageBuildingTemp;      !- Erl Variable 1 Name

ENERGYMANAGEMENTSYSTEM:GLOBALVARIABLE,
    TotBuildPow;              !- Erl Variable 1 Name

ENERGYMANAGEMENTSYSTEM:GLOBALVARIABLE,
    TotDHWPow;                !- Erl Variable 1 Name

ENERGYMANAGEMENTSYSTEM:OUTPUTVARIABLE,
    Mean Heated Zones Air Temperature,    !- Name
    AverageBuildingTemp,      !- EMS Variable Name
    Averaged,                 !- Type of Data in Variable
    ZoneTimeStep;             !- Update Frequency

ENERGYMANAGEMENTSYSTEM:OUTPUTVARIABLE,
    Total Building Heating Power,    !- Name
    TotBuildPow,              !- EMS Variable Name
    Averaged,                 !- Type of Data in Variable
    ZoneTimeStep;             !- Update Frequency

ENERGYMANAGEMENTSYSTEM:OUTPUTVARIABLE,
    Total DHW Heating Power,    !- Name
    TotDHWPow,                !- EMS Variable Name
    Averaged,                 !- Type of Data in Variable
    ZoneTimeStep;             !- Update Frequency

ENERGYMANAGEMENTSYSTEM:INTERNALVARIABLE,
    Vol0,                     !- Name
    Block Build0_Alt0 Storey 0,    !- Internal Data Index Key Name
    Zone Air Volume;          !- Internal Data Type

WATERUSE:EQUIPMENT,
    DHW,                      !- Name
    General,                  !- EndUse Subcategory
    1.875517e-09,             !- Peak Flow Rate
    WaterTaps,                !- Flow Rate Fraction Schedule Name
    TargetWaterTemp,          !- Target Temperature Schedule Name
    HotWaterTemp,             !- Hot Water Supply Temperature Schedule Name
    ColdWaterTemp;            !- Cold Water Supply Temperature Schedule Name

Output:VariableDictionary,
    Regular;                  !- Key Field

OUTPUT:ENERGYMANAGEMENTSYSTEM,
    Verbose,                  !- Actuator Availability Dictionary Reporting
    Verbose,                  !- Internal Variable Availability Dictionary Reporting
    Verbose;                  !- EMS Runtime Language Debug Output Level

Output:Table:SummaryReports,
    AllSummary;               !- Report 1 Name

OutputControl:Table:Style,
    HTML;                     !- Column Separator

OUTPUT:VARIABLE,
    *,                        !- Key Value
    Site Outdoor Air Drybulb Temperature,    !- Variable Name
    Hourly;                   !- Reporting Frequency

OUTPUT:VARIABLE,
    *,                        !- Key Value
    Site Outdoor Air Relative Humidity,    !- Variable Name
    Hourly;                   !- Reporting Frequency

OUTPUT:VARIABLE,
    *,                        !- Key Value
    Site Outdoor Air Barometric Pressure,    !- Variable Name
    Hourly;                   !- Reporting Frequency

OUTPUT:VARIABLE,
    *,                        !- Key Value
    Site Wind Speed,          !- Variable Name
    Hourly;                   !- Reporting Frequency

OUTPUT:VARIABLE,
    *,                        !- Key Value
    Site Diffuse Solar Radiation Rate per Area,    !- Variable Name
    Hourly;                   !- Reporting Frequency

OUTPUT:VARIABLE,
    *,                        !- Key Value
    Site Direct Solar Radiation Rate per Area,    !- Variable Name
    Hourly;                   !- Reporting Frequency

OUTPUT:VARIABLE,
    *,                        !- Key Value
    Zone Electric Equipment Electric Power,    !- Variable Name
    Hourly;                   !- Reporting Frequency

OUTPUT:VARIABLE,
    *,                        !- Key Value
    Zone Electric Equipment Total Heating Rate,    !- Variable Name
    Hourly;                   !- Reporting Frequency

OUTPUT:VARIABLE,
    *,                        !- Key Value
    Surface Outside Face Incident Solar Radiation Rate per Area,    !- Variable Name
    Hourly;                   !- Reporting Frequency

OUTPUT:VARIABLE,
    *,                        !- Key Value
    Surface Outside Face Incident Beam Solar Radiation Rate per Area,    !- Variable Name
    Hourly;                   !- Reporting Frequency

OUTPUT:VARIABLE,
    *,                        !- Key Value
    Zone Ideal Loads Supply Air Total Heating Rate,    !- Variable Name
    Hourly;                   !- Reporting Frequency

OUTPUT:VARIABLE,
    *,                        !- Key Value
    Water Use Equipment Hot Water Mass Flow Rate,    !- Variable Name
    Hourly;                   !- Reporting Frequency

OUTPUT:VARIABLE,
    *,                        !- Key Value
    Water Use Equipment Cold Water Mass Flow Rate,    !- Variable Name
    Hourly;                   !- Reporting Frequency

OUTPUT:VARIABLE,
    *,                        !- Key Value
    Water Use Equipment Hot Water Temperature,    !- Variable Name
    Hourly;                   !- Reporting Frequency

OUTPUT:VARIABLE,
    *,                        !- Key Value
    Water Use Equipment Cold Water Temperature,    !- Variable Name
    Hourly;                   !- Reporting Frequency

OUTPUT:VARIABLE,
    *,                        !- Key Value
    Water Use Equipment Heating Rate,    !- Variable Name
    Hourly;                   !- Reporting Frequency

OUTPUT:VARIABLE,
    *,                        !- Key Value
    Mean Heated Zones Air Temperature,    !- Variable Name
    Hourly;                   !- Reporting Frequency

OUTPUT:VARIABLE,
    *,                        !- Key Value
    Total Building Heating Power,    !- Variable Name
    Hourly;                   !- Reporting Frequency

OUTPUT:VARIABLE,
    *,                        !- Key Value
    Total DHW Heating Power,    !- Variable Name
    Hourly;                   !- Reporting Frequency

OUTPUT:DIAGNOSTICS,
    DISPLAYEXTRAWARNINGS,     !- Key 1
    DisplayAdvancedReportVariables;    !- Key 2