!- Darwin Line endings 

Version,
    9.5;                      !- Version Identifier

SimulationControl,
    No,                       !- Do Zone Sizing Calculation
    No,                       !- Do System Sizing Calculation
    No,                       !- Do Plant Sizing Calculation
    No,                       !- Run Simulation for Sizing Periods
    Yes,                      !- Run Simulation for Weather File Run Periods
    No,                       !- Do HVAC Sizing Simulation for Sizing Periods
    1;                        !- Maximum Number of HVAC Sizing Simulation Passes

Building,
    None,                     !- Name
    0,                        !- North Axis
    Suburbs,                  !- Terrain
    0.04,                     !- Loads Convergence Tolerance Value
    0.4,                      !- Temperature Convergence Tolerance Value
    FullExterior,             !- Solar Distribution
    25,                       !- Maximum Number of Warmup Days
    6;                        !- Minimum Number of Warmup Days

SHADOWCALCULATION,
    PolygonClipping,          !- Shading Calculation Method
    Periodic,                 !- Shading Calculation Update Frequency Method
    20,                       !- Shading Calculation Update Frequency
    25000,                    !- Maximum Figures in Shadow Overlap Calculations
    SutherlandHodgman,        !- Polygon Clipping Algorithm
    512,                      !- Pixel Counting Resolution
    SimpleSkyDiffuseModeling,    !- Sky Diffuse Modeling Algorithm
    No,                       !- Output External Shading Calculation Results
    No,                       !- Disable SelfShading Within Shading Zone Groups
    No;                       !- Disable SelfShading From Shading Zone Groups to Other Zones

Timestep,
    4;                        !- Number of Timesteps per Hour

Site:Location,
    WeatherData/USA_CA_San.Francisco.Intl.AP.724940_TMY3.epw,    !- Name
    37.62,                    !- Latitude
    -122.4,                   !- Longitude
    -8,                       !- Time Zone
    2;                        !- Elevation

SizingPeriod:DesignDay,
    DENVER_STAPLETON Ann Htg 99.6% Condns DB,    !- Name
    12,                       !- Month
    21,                       !- Day of Month
    WinterDesignDay,          !- Day Type
    -20,                      !- Maximum DryBulb Temperature
    0,                        !- Daily DryBulb Temperature Range
    ,                         !- DryBulb Temperature Range Modifier Type
    ,                         !- DryBulb Temperature Range Modifier Day Schedule Name
    Wetbulb,                  !- Humidity Condition Type
    -20,                      !- Wetbulb or DewPoint at Maximum DryBulb
    ,                         !- Humidity Condition Day Schedule Name
    ,                         !- Humidity Ratio at Maximum DryBulb
    ,                         !- Enthalpy at Maximum DryBulb
    ,                         !- Daily WetBulb Temperature Range
    100594,                   !- Barometric Pressure
    2.3,                      !- Wind Speed
    180,                      !- Wind Direction
    No,                       !- Rain Indicator
    No,                       !- Snow Indicator
    No,                       !- Daylight Saving Time Indicator
    ASHRAEClearSky,           !- Solar Model Indicator
    ,                         !- Beam Solar Day Schedule Name
    ,                         !- Diffuse Solar Day Schedule Name
    ,                         !- ASHRAE Clear Sky Optical Depth for Beam Irradiance taub
    ,                         !- ASHRAE Clear Sky Optical Depth for Diffuse Irradiance taud
    0;                        !- Sky Clearness

SizingPeriod:DesignDay,
    DENVER_STAPLETON Ann Clg .4% Condns DB=>MWB,    !- Name
    7,                        !- Month
    21,                       !- Day of Month
    SummerDesignDay,          !- Day Type
    34.1,                     !- Maximum DryBulb Temperature
    15.2,                     !- Daily DryBulb Temperature Range
    ,                         !- DryBulb Temperature Range Modifier Type
    ,                         !- DryBulb Temperature Range Modifier Day Schedule Name
    Wetbulb,                  !- Humidity Condition Type
    15.8,                     !- Wetbulb or DewPoint at Maximum DryBulb
    ,                         !- Humidity Condition Day Schedule Name
    ,                         !- Humidity Ratio at Maximum DryBulb
    ,                         !- Enthalpy at Maximum DryBulb
    ,                         !- Daily WetBulb Temperature Range
    100594,                   !- Barometric Pressure
    4,                        !- Wind Speed
    120,                      !- Wind Direction
    No,                       !- Rain Indicator
    No,                       !- Snow Indicator
    No,                       !- Daylight Saving Time Indicator
    ASHRAEClearSky,           !- Solar Model Indicator
    ,                         !- Beam Solar Day Schedule Name
    ,                         !- Diffuse Solar Day Schedule Name
    ,                         !- ASHRAE Clear Sky Optical Depth for Beam Irradiance taub
    ,                         !- ASHRAE Clear Sky Optical Depth for Diffuse Irradiance taud
    1;                        !- Sky Clearness

RunPeriod,
    Run Period 1,             !- Name
    1,                        !- Begin Month
    1,                        !- Begin Day of Month
    ,                         !- Begin Year
    12,                       !- End Month
    31,                       !- End Day of Month
    ,                         !- End Year
    Tuesday,                  !- Day of Week for Start Day
    Yes,                      !- Use Weather File Holidays and Special Days
    Yes,                      !- Use Weather File Daylight Saving Period
    No,                       !- Apply Weekend Holiday Rule
    Yes,                      !- Use Weather File Rain Indicators
    Yes;                      !- Use Weather File Snow Indicators

SITE:GROUNDTEMPERATURE:BUILDINGSURFACE,
    15,                       !- January Ground Temperature
    15,                       !- February Ground Temperature
    15,                       !- March Ground Temperature
    15,                       !- April Ground Temperature
    15,                       !- May Ground Temperature
    15,                       !- June Ground Temperature
    15,                       !- July Ground Temperature
    15,                       !- August Ground Temperature
    15,                       !- September Ground Temperature
    15,                       !- October Ground Temperature
    15,                       !- November Ground Temperature
    15;                       !- December Ground Temperature

SCHEDULETYPELIMITS,
    Any Number,               !- Name
    ,                         !- Lower Limit Value
    ,                         !- Upper Limit Value
    ,                         !- Numeric Type
    Dimensionless;            !- Unit Type

SCHEDULE:COMPACT,
    AlwaysON,                 !- Name
    Any Number,               !- Schedule Type Limits Name
    Through: 12/31,           !- Field 1
    For: AllDays,             !- Field 2
    Until: 24:00,             !- Field 3
    1;                        !- Field 4

SCHEDULE:COMPACT,
    OccupActivity,            !- Name
    Any Number,               !- Schedule Type Limits Name
    Through: 12/31,           !- Field 1
    For: AllDays,             !- Field 2
    Until: 24:00,             !- Field 3
    70;                       !- Field 4

SCHEDULE:COMPACT,
    HotWaterTemp,             !- Name
    Any Number,               !- Schedule Type Limits Name
    Through: 12/31,           !- Field 1
    For: AllDays,             !- Field 2
    Until: 24:00,             !- Field 3
    55;                       !- Field 4

SCHEDULE:COMPACT,
    TargetWaterTemp,          !- Name
    Any Number,               !- Schedule Type Limits Name
    Through: 12/31,           !- Field 1
    For: AllDays,             !- Field 2
    Until: 24:00,             !- Field 3
    37;                       !- Field 4

SCHEDULE:FILE,
    LoadSchedule,             !- Name
    Any Number,               !- Schedule Type Limits Name
    /Users/alizad/PycharmProjects/mubes-ubem/examples/ForTest/InputFiles/Building16_winter.txt,    !- File Name
    1,                        !- Column Number
    0,                        !- Rows to Skip at Top
    8760,                     !- Number of Hours of Data
    Comma,                    !- Column Separator
    No;                       !- Interpolate to Timestep

SCHEDULE:FILE,
    Watertaps,                !- Name
    Any Number,               !- Schedule Type Limits Name
    /Users/alizad/PycharmProjects/mubes-ubem/examples/ForTest/InputFiles/domestic_hot_water_40_apartments.txt,    !- File Name
    1,                        !- Column Number
    0,                        !- Rows to Skip at Top
    8760,                     !- Number of Hours of Data
    Comma,                    !- Column Separator
    No;                       !- Interpolate to Timestep

SCHEDULE:FILE,
    ColdWaterTemp,            !- Name
    Any Number,               !- Schedule Type Limits Name
    /Users/alizad/PycharmProjects/mubes-ubem/examples/ForTest/InputFiles/cold_water_temperature_stockholm.txt,    !- File Name
    1,                        !- Column Number
    0,                        !- Rows to Skip at Top
    8760,                     !- Number of Hours of Data
    Comma,                    !- Column Separator
    No;                       !- Interpolate to Timestep

MATERIAL,
    DefaultMaterial,          !- Name
    Rough,                    !- Roughness
    0.1,                      !- Thickness
    0.1,                      !- Conductivity
    1000,                     !- Density
    1000,                     !- Specific Heat
    0.9,                      !- Thermal Absorptance
    0.7,                      !- Solar Absorptance
    0.7;                      !- Visible Absorptance

MATERIAL,
    Basement Floor,           !- Name
    Rough,                    !- Roughness
    0.1,                      !- Thickness
    0.9,                      !- Conductivity
    2300,                     !- Density
    1000,                     !- Specific Heat
    0.9,                      !- Thermal Absorptance
    0.7,                      !- Solar Absorptance
    0.7;                      !- Visible Absorptance

MATERIAL,
    Heated1rstFloor Inertia,    !- Name
    Rough,                    !- Roughness
    0.1,                      !- Thickness
    0.9,                      !- Conductivity
    2300,                     !- Density
    1000,                     !- Specific Heat
    0.9,                      !- Thermal Absorptance
    0.7,                      !- Solar Absorptance
    0.7;                      !- Visible Absorptance

MATERIAL,
    Heated1rstFloor Insulation,    !- Name
    Rough,                    !- Roughness
    0.15,                     !- Thickness
    0.035,                    !- Conductivity
    150,                      !- Density
    1000,                     !- Specific Heat
    0.9,                      !- Thermal Absorptance
    0.7,                      !- Solar Absorptance
    0.7;                      !- Visible Absorptance

MATERIAL,
    Roof Insulation,          !- Name
    Rough,                    !- Roughness
    0.3,                      !- Thickness
    0.03,                     !- Conductivity
    150,                      !- Density
    1000,                     !- Specific Heat
    0.9,                      !- Thermal Absorptance
    0.7,                      !- Solar Absorptance
    0.7;                      !- Visible Absorptance

MATERIAL,
    Wall Inertia,             !- Name
    Rough,                    !- Roughness
    0.2,                      !- Thickness
    0.9,                      !- Conductivity
    2300,                     !- Density
    1000,                     !- Specific Heat
    0.9,                      !- Thermal Absorptance
    0.7,                      !- Solar Absorptance
    0.7;                      !- Visible Absorptance

MATERIAL,
    Wall Insulation,          !- Name
    Rough,                    !- Roughness
    0.2,                      !- Thickness
    0.03,                     !- Conductivity
    150,                      !- Density
    1000,                     !- Specific Heat
    0.9,                      !- Thermal Absorptance
    0.7,                      !- Solar Absorptance
    0.7;                      !- Visible Absorptance

MATERIAL,
    HeatedZoneIntMass,        !- Name
    Rough,                    !- Roughness
    0.1,                      !- Thickness
    0.3,                      !- Conductivity
    600,                      !- Density
    1400,                     !- Specific Heat
    0.9,                      !- Thermal Absorptance
    0.7,                      !- Solar Absorptance
    0.7;                      !- Visible Absorptance

MATERIAL,
    NonHeatedZoneIntMass,     !- Name
    Rough,                    !- Roughness
    0.1,                      !- Thickness
    0.3,                      !- Conductivity
    600,                      !- Density
    1400,                     !- Specific Heat
    0.9,                      !- Thermal Absorptance
    0.7,                      !- Solar Absorptance
    0.7;                      !- Visible Absorptance

MATERIAL,
    AirWallMaterial,          !- Name
    MediumSmooth,             !- Roughness
    0.01,                     !- Thickness
    0.6,                      !- Conductivity
    800,                      !- Density
    1000,                     !- Specific Heat
    0.95,                     !- Thermal Absorptance
    0.7,                      !- Solar Absorptance
    0.7;                      !- Visible Absorptance

WINDOWMATERIAL:SIMPLEGLAZINGSYSTEM,
    DefaultGlazing,           !- Name
    2.7,                      !- UFactor
    0.763,                    !- Solar Heat Gain Coefficient
    0.8;                      !- Visible Transmittance

WINDOWMATERIAL:SIMPLEGLAZINGSYSTEM,
    Window,                   !- Name
    1.9,                      !- UFactor
    0.7,                      !- Solar Heat Gain Coefficient
    0.8;                      !- Visible Transmittance

CONSTRUCTION,
    Project Wall,             !- Name
    Wall Inertia,             !- Outside Layer
    Wall Insulation;          !- Layer 2

CONSTRUCTION,
    Project Basement Wall,    !- Name
    Wall Inertia;             !- Outside Layer

CONSTRUCTION,
    Project Basement Floor,    !- Name
    Basement Floor;           !- Outside Layer

CONSTRUCTION,
    Project Flat Roof,        !- Name
    Roof Insulation;          !- Outside Layer

CONSTRUCTION,
    Project External Window,    !- Name
    Window;                   !- Outside Layer

CONSTRUCTION,
    Project Heated1rstFloor,    !- Name
    Heated1rstFloor Inertia,    !- Outside Layer
    Heated1rstFloor Insulation;    !- Layer 2

CONSTRUCTION,
    Project Heated1rstFloor Rev,    !- Name
    Heated1rstFloor Insulation,    !- Outside Layer
    Heated1rstFloor Inertia;    !- Layer 2

CONSTRUCTION,
    HeatedZoneIntMassObj,     !- Name
    HeatedZoneIntMass;        !- Outside Layer

CONSTRUCTION,
    NonHeatedZoneIntMassObj,    !- Name
    NonHeatedZoneIntMass;     !- Outside Layer

GlobalGeometryRules,
    UpperLeftCorner,          !- Starting Vertex Position
    CounterClockWise,         !- Vertex Entry Direction
    World;                    !- Coordinate System

ZONE,
    Block Build0_Alt0 Storey -1,    !- Name
    0,                        !- Direction of Relative North
    0,                        !- X Origin
    0,                        !- Y Origin
    0,                        !- Z Origin
    1,                        !- Type
    1,                        !- Multiplier
    autocalculate,            !- Ceiling Height
    autocalculate,            !- Volume
    autocalculate,            !- Floor Area
    ,                         !- Zone Inside Convection Algorithm
    ,                         !- Zone Outside Convection Algorithm
    Yes;                      !- Part of Total Floor Area

ZONE,
    Block Build0_Alt0 Storey 0,    !- Name
    0,                        !- Direction of Relative North
    0,                        !- X Origin
    0,                        !- Y Origin
    0,                        !- Z Origin
    1,                        !- Type
    1,                        !- Multiplier
    autocalculate,            !- Ceiling Height
    autocalculate,            !- Volume
    autocalculate,            !- Floor Area
    ,                         !- Zone Inside Convection Algorithm
    ,                         !- Zone Outside Convection Algorithm
    Yes;                      !- Part of Total Floor Area

BUILDINGSURFACE:DETAILED,
    Block Build0_Alt0 Storey -1 Wall 0001,    !- Name
    wall,                     !- Surface Type
    Project Basement Wall,    !- Construction Name
    Block Build0_Alt0 Storey -1,    !- Zone Name
    ground,                   !- Outside Boundary Condition
    ,                         !- Outside Boundary Condition Object
    NoSun,                    !- Sun Exposure
    NoWind,                   !- Wind Exposure
    autocalculate,            !- View Factor to Ground
    autocalculate,            !- Number of Vertices
    6.8138,                   !- Vertex 1 Xcoordinate
    -9.7429,                  !- Vertex 1 Ycoordinate
    0,                        !- Vertex 1 Zcoordinate
    6.8138,                   !- Vertex 2 Xcoordinate
    -9.7429,                  !- Vertex 2 Ycoordinate
    -2.5,                     !- Vertex 2 Zcoordinate
    14.2888,                  !- Vertex 3 Xcoordinate
    -2.8449,                  !- Vertex 3 Ycoordinate
    -2.5,                     !- Vertex 3 Zcoordinate
    14.2888,                  !- Vertex 4 Xcoordinate
    -2.8449,                  !- Vertex 4 Ycoordinate
    0;                        !- Vertex 4 Zcoordinate

BUILDINGSURFACE:DETAILED,
    Block Build0_Alt0 Storey -1 Wall 0002,    !- Name
    wall,                     !- Surface Type
    Project Basement Wall,    !- Construction Name
    Block Build0_Alt0 Storey -1,    !- Zone Name
    ground,                   !- Outside Boundary Condition
    ,                         !- Outside Boundary Condition Object
    NoSun,                    !- Sun Exposure
    NoWind,                   !- Wind Exposure
    autocalculate,            !- View Factor to Ground
    autocalculate,            !- Number of Vertices
    14.2888,                  !- Vertex 1 Xcoordinate
    -2.8449,                  !- Vertex 1 Ycoordinate
    0,                        !- Vertex 1 Zcoordinate
    14.2888,                  !- Vertex 2 Xcoordinate
    -2.8449,                  !- Vertex 2 Ycoordinate
    -2.5,                     !- Vertex 2 Zcoordinate
    -1.1522,                  !- Vertex 3 Xcoordinate
    15.1371,                  !- Vertex 3 Ycoordinate
    -2.5,                     !- Vertex 3 Zcoordinate
    -1.1522,                  !- Vertex 4 Xcoordinate
    15.1371,                  !- Vertex 4 Ycoordinate
    0;                        !- Vertex 4 Zcoordinate

BUILDINGSURFACE:DETAILED,
    Block Build0_Alt0 Storey -1 Wall 0003,    !- Name
    wall,                     !- Surface Type
    Project Basement Wall,    !- Construction Name
    Block Build0_Alt0 Storey -1,    !- Zone Name
    ground,                   !- Outside Boundary Condition
    ,                         !- Outside Boundary Condition Object
    NoSun,                    !- Sun Exposure
    NoWind,                   !- Wind Exposure
    autocalculate,            !- View Factor to Ground
    autocalculate,            !- Number of Vertices
    -1.1522,                  !- Vertex 1 Xcoordinate
    15.1371,                  !- Vertex 1 Ycoordinate
    0,                        !- Vertex 1 Zcoordinate
    -1.1522,                  !- Vertex 2 Xcoordinate
    15.1371,                  !- Vertex 2 Ycoordinate
    -2.5,                     !- Vertex 2 Zcoordinate
    -8.8772,                  !- Vertex 3 Xcoordinate
    8.4931,                   !- Vertex 3 Ycoordinate
    -2.5,                     !- Vertex 3 Zcoordinate
    -8.8772,                  !- Vertex 4 Xcoordinate
    8.4931,                   !- Vertex 4 Ycoordinate
    0;                        !- Vertex 4 Zcoordinate

BUILDINGSURFACE:DETAILED,
    Block Build0_Alt0 Storey -1 Wall 0004,    !- Name
    wall,                     !- Surface Type
    Project Basement Wall,    !- Construction Name
    Block Build0_Alt0 Storey -1,    !- Zone Name
    ground,                   !- Outside Boundary Condition
    ,                         !- Outside Boundary Condition Object
    NoSun,                    !- Sun Exposure
    NoWind,                   !- Wind Exposure
    autocalculate,            !- View Factor to Ground
    autocalculate,            !- Number of Vertices
    -8.8772,                  !- Vertex 1 Xcoordinate
    8.4931,                   !- Vertex 1 Ycoordinate
    0,                        !- Vertex 1 Zcoordinate
    -8.8772,                  !- Vertex 2 Xcoordinate
    8.4931,                   !- Vertex 2 Ycoordinate
    -2.5,                     !- Vertex 2 Zcoordinate
    6.8138,                   !- Vertex 3 Xcoordinate
    -9.7429,                  !- Vertex 3 Ycoordinate
    -2.5,                     !- Vertex 3 Zcoordinate
    6.8138,                   !- Vertex 4 Xcoordinate
    -9.7429,                  !- Vertex 4 Ycoordinate
    0;                        !- Vertex 4 Zcoordinate

BUILDINGSURFACE:DETAILED,
    Block Build0_Alt0 Storey -1 Floor 0001,    !- Name
    floor,                    !- Surface Type
    Project Basement Floor,    !- Construction Name
    Block Build0_Alt0 Storey -1,    !- Zone Name
    ground,                   !- Outside Boundary Condition
    ,                         !- Outside Boundary Condition Object
    NoSun,                    !- Sun Exposure
    NoWind,                   !- Wind Exposure
    autocalculate,            !- View Factor to Ground
    autocalculate,            !- Number of Vertices
    -1.1522,                  !- Vertex 1 Xcoordinate
    15.1371,                  !- Vertex 1 Ycoordinate
    -2.5,                     !- Vertex 1 Zcoordinate
    14.2888,                  !- Vertex 2 Xcoordinate
    -2.8449,                  !- Vertex 2 Ycoordinate
    -2.5,                     !- Vertex 2 Zcoordinate
    6.8138,                   !- Vertex 3 Xcoordinate
    -9.7429,                  !- Vertex 3 Ycoordinate
    -2.5,                     !- Vertex 3 Zcoordinate
    -8.8772,                  !- Vertex 4 Xcoordinate
    8.4931,                   !- Vertex 4 Ycoordinate
    -2.5;                     !- Vertex 4 Zcoordinate

BUILDINGSURFACE:DETAILED,
    Block Build0_Alt0 Storey 0 Wall 0001,    !- Name
    wall,                     !- Surface Type
    Project Wall,             !- Construction Name
    Block Build0_Alt0 Storey 0,    !- Zone Name
    outdoors,                 !- Outside Boundary Condition
    ,                         !- Outside Boundary Condition Object
    SunExposed,               !- Sun Exposure
    WindExposed,              !- Wind Exposure
    autocalculate,            !- View Factor to Ground
    autocalculate,            !- Number of Vertices
    6.8138,                   !- Vertex 1 Xcoordinate
    -9.7429,                  !- Vertex 1 Ycoordinate
    9,                        !- Vertex 1 Zcoordinate
    6.8138,                   !- Vertex 2 Xcoordinate
    -9.7429,                  !- Vertex 2 Ycoordinate
    0,                        !- Vertex 2 Zcoordinate
    14.2888,                  !- Vertex 3 Xcoordinate
    -2.8449,                  !- Vertex 3 Ycoordinate
    0,                        !- Vertex 3 Zcoordinate
    14.2888,                  !- Vertex 4 Xcoordinate
    -2.8449,                  !- Vertex 4 Ycoordinate
    9;                        !- Vertex 4 Zcoordinate

BUILDINGSURFACE:DETAILED,
    Block Build0_Alt0 Storey 0 Wall 0002,    !- Name
    wall,                     !- Surface Type
    Project Wall,             !- Construction Name
    Block Build0_Alt0 Storey 0,    !- Zone Name
    outdoors,                 !- Outside Boundary Condition
    ,                         !- Outside Boundary Condition Object
    SunExposed,               !- Sun Exposure
    WindExposed,              !- Wind Exposure
    autocalculate,            !- View Factor to Ground
    autocalculate,            !- Number of Vertices
    14.2888,                  !- Vertex 1 Xcoordinate
    -2.8449,                  !- Vertex 1 Ycoordinate
    9,                        !- Vertex 1 Zcoordinate
    14.2888,                  !- Vertex 2 Xcoordinate
    -2.8449,                  !- Vertex 2 Ycoordinate
    0,                        !- Vertex 2 Zcoordinate
    -1.1522,                  !- Vertex 3 Xcoordinate
    15.1371,                  !- Vertex 3 Ycoordinate
    0,                        !- Vertex 3 Zcoordinate
    -1.1522,                  !- Vertex 4 Xcoordinate
    15.1371,                  !- Vertex 4 Ycoordinate
    9;                        !- Vertex 4 Zcoordinate

BUILDINGSURFACE:DETAILED,
    Block Build0_Alt0 Storey 0 Wall 0003,    !- Name
    wall,                     !- Surface Type
    Project Wall,             !- Construction Name
    Block Build0_Alt0 Storey 0,    !- Zone Name
    outdoors,                 !- Outside Boundary Condition
    ,                         !- Outside Boundary Condition Object
    SunExposed,               !- Sun Exposure
    WindExposed,              !- Wind Exposure
    autocalculate,            !- View Factor to Ground
    autocalculate,            !- Number of Vertices
    -1.1522,                  !- Vertex 1 Xcoordinate
    15.1371,                  !- Vertex 1 Ycoordinate
    9,                        !- Vertex 1 Zcoordinate
    -1.1522,                  !- Vertex 2 Xcoordinate
    15.1371,                  !- Vertex 2 Ycoordinate
    0,                        !- Vertex 2 Zcoordinate
    -8.8772,                  !- Vertex 3 Xcoordinate
    8.4931,                   !- Vertex 3 Ycoordinate
    0,                        !- Vertex 3 Zcoordinate
    -8.8772,                  !- Vertex 4 Xcoordinate
    8.4931,                   !- Vertex 4 Ycoordinate
    9;                        !- Vertex 4 Zcoordinate

BUILDINGSURFACE:DETAILED,
    Block Build0_Alt0 Storey 0 Wall 0004,    !- Name
    wall,                     !- Surface Type
    Project Wall,             !- Construction Name
    Block Build0_Alt0 Storey 0,    !- Zone Name
    outdoors,                 !- Outside Boundary Condition
    ,                         !- Outside Boundary Condition Object
    SunExposed,               !- Sun Exposure
    WindExposed,              !- Wind Exposure
    autocalculate,            !- View Factor to Ground
    autocalculate,            !- Number of Vertices
    -8.8772,                  !- Vertex 1 Xcoordinate
    8.4931,                   !- Vertex 1 Ycoordinate
    9,                        !- Vertex 1 Zcoordinate
    -8.8772,                  !- Vertex 2 Xcoordinate
    8.4931,                   !- Vertex 2 Ycoordinate
    0,                        !- Vertex 2 Zcoordinate
    6.8138,                   !- Vertex 3 Xcoordinate
    -9.7429,                  !- Vertex 3 Ycoordinate
    0,                        !- Vertex 3 Zcoordinate
    6.8138,                   !- Vertex 4 Xcoordinate
    -9.7429,                  !- Vertex 4 Ycoordinate
    9;                        !- Vertex 4 Zcoordinate

BUILDINGSURFACE:DETAILED,
    Block Build0_Alt0 Storey 0 Roof 0001,    !- Name
    roof,                     !- Surface Type
    Project Flat Roof,        !- Construction Name
    Block Build0_Alt0 Storey 0,    !- Zone Name
    outdoors,                 !- Outside Boundary Condition
    ,                         !- Outside Boundary Condition Object
    SunExposed,               !- Sun Exposure
    WindExposed,              !- Wind Exposure
    autocalculate,            !- View Factor to Ground
    autocalculate,            !- Number of Vertices
    14.2888,                  !- Vertex 1 Xcoordinate
    -2.8449,                  !- Vertex 1 Ycoordinate
    9,                        !- Vertex 1 Zcoordinate
    -1.1522,                  !- Vertex 2 Xcoordinate
    15.1371,                  !- Vertex 2 Ycoordinate
    9,                        !- Vertex 2 Zcoordinate
    -8.8772,                  !- Vertex 3 Xcoordinate
    8.4931,                   !- Vertex 3 Ycoordinate
    9,                        !- Vertex 3 Zcoordinate
    6.8138,                   !- Vertex 4 Xcoordinate
    -9.7429,                  !- Vertex 4 Ycoordinate
    9;                        !- Vertex 4 Zcoordinate

BUILDINGSURFACE:DETAILED,
    Block Build0_Alt0 Storey -1 Ceiling 0001_1,    !- Name
    ceiling,                  !- Surface Type
    Project Heated1rstFloor Rev,    !- Construction Name
    Block Build0_Alt0 Storey -1,    !- Zone Name
    surface,                  !- Outside Boundary Condition
    Block Build0_Alt0 Storey 0 Floor 0001_1,    !- Outside Boundary Condition Object
    NoSun,                    !- Sun Exposure
    NoWind,                   !- Wind Exposure
    autocalculate,            !- View Factor to Ground
    autocalculate,            !- Number of Vertices
    14.288799999747425,       !- Vertex 1 Xcoordinate
    -2.844899999909103,       !- Vertex 1 Ycoordinate
    0,                        !- Vertex 1 Zcoordinate
    -1.152200e+00,            !- Vertex 2 Xcoordinate
    15.137099999934435,       !- Vertex 2 Ycoordinate
    0,                        !- Vertex 2 Zcoordinate
    -8.877199999988079,       !- Vertex 3 Xcoordinate
    8.49309999961406,         !- Vertex 3 Ycoordinate
    0,                        !- Vertex 3 Zcoordinate
    6.813799999654293,        !- Vertex 4 Xcoordinate
    -9.742899999953806,       !- Vertex 4 Ycoordinate
    0;                        !- Vertex 4 Zcoordinate

BUILDINGSURFACE:DETAILED,
    Block Build0_Alt0 Storey 0 Floor 0001_1,    !- Name
    floor,                    !- Surface Type
    Project Heated1rstFloor,    !- Construction Name
    Block Build0_Alt0 Storey 0,    !- Zone Name
    surface,                  !- Outside Boundary Condition
    Block Build0_Alt0 Storey -1 Ceiling 0001_1,    !- Outside Boundary Condition Object
    NoSun,                    !- Sun Exposure
    NoWind,                   !- Wind Exposure
    autocalculate,            !- View Factor to Ground
    autocalculate,            !- Number of Vertices
    -1.152200e+00,            !- Vertex 1 Xcoordinate
    15.137099999934435,       !- Vertex 1 Ycoordinate
    0,                        !- Vertex 1 Zcoordinate
    14.288799999747425,       !- Vertex 2 Xcoordinate
    -2.844899999909103,       !- Vertex 2 Ycoordinate
    0,                        !- Vertex 2 Zcoordinate
    6.813799999654293,        !- Vertex 3 Xcoordinate
    -9.742899999953806,       !- Vertex 3 Ycoordinate
    0,                        !- Vertex 3 Zcoordinate
    -8.877199999988079,       !- Vertex 4 Xcoordinate
    8.49309999961406,         !- Vertex 4 Ycoordinate
    0;                        !- Vertex 4 Zcoordinate

FENESTRATIONSURFACE:DETAILED,
    Block Build0_Alt0 Storey 0 Wall 0001 window,    !- Name
    Window,                   !- Surface Type
    Project External Window,    !- Construction Name
    Block Build0_Alt0 Storey 0 Wall 0001,    !- Building Surface Name
    ,                         !- Outside Boundary Condition Object
    autocalculate,            !- View Factor to Ground
    ,                         !- Frame and Divider Name
    1.0,                      !- Multiplier
    autocalculate,            !- Number of Vertices
    6.8175375,                !- Vertex 1 Xcoordinate
    -9.739451,                !- Vertex 1 Ycoordinate
    5.85,                     !- Vertex 1 Zcoordinate
    6.8175375,                !- Vertex 2 Xcoordinate
    -9.739451,                !- Vertex 2 Ycoordinate
    3.1500000000000004,       !- Vertex 2 Zcoordinate
    14.2850625,               !- Vertex 3 Xcoordinate
    -2.848349,                !- Vertex 3 Ycoordinate
    3.1500000000000004,       !- Vertex 3 Zcoordinate
    14.2850625,               !- Vertex 4 Xcoordinate
    -2.848349,                !- Vertex 4 Ycoordinate
    5.85;                     !- Vertex 4 Zcoordinate

FENESTRATIONSURFACE:DETAILED,
    Block Build0_Alt0 Storey 0 Wall 0002 window,    !- Name
    Window,                   !- Surface Type
    Project External Window,    !- Construction Name
    Block Build0_Alt0 Storey 0 Wall 0002,    !- Building Surface Name
    ,                         !- Outside Boundary Condition Object
    autocalculate,            !- View Factor to Ground
    ,                         !- Frame and Divider Name
    1.0,                      !- Multiplier
    autocalculate,            !- Number of Vertices
    14.2810795,               !- Vertex 1 Xcoordinate
    -2.835908999999999,       !- Vertex 1 Ycoordinate
    5.85,                     !- Vertex 1 Zcoordinate
    14.2810795,               !- Vertex 2 Xcoordinate
    -2.835908999999999,       !- Vertex 2 Ycoordinate
    3.1500000000000004,       !- Vertex 2 Zcoordinate
    -1.1444795,               !- Vertex 3 Xcoordinate
    15.128109,                !- Vertex 3 Ycoordinate
    3.1500000000000004,       !- Vertex 3 Zcoordinate
    -1.1444795,               !- Vertex 4 Xcoordinate
    15.128109,                !- Vertex 4 Ycoordinate
    5.85;                     !- Vertex 4 Zcoordinate

FENESTRATIONSURFACE:DETAILED,
    Block Build0_Alt0 Storey 0 Wall 0003 window,    !- Name
    Window,                   !- Surface Type
    Project External Window,    !- Construction Name
    Block Build0_Alt0 Storey 0 Wall 0003,    !- Building Surface Name
    ,                         !- Outside Boundary Condition Object
    autocalculate,            !- View Factor to Ground
    ,                         !- Frame and Divider Name
    1.0,                      !- Multiplier
    autocalculate,            !- Number of Vertices
    -1.156062e+00,            !- Vertex 1 Xcoordinate
    15.133778,                !- Vertex 1 Ycoordinate
    5.85,                     !- Vertex 1 Zcoordinate
    -1.156062e+00,            !- Vertex 2 Xcoordinate
    15.133778,                !- Vertex 2 Ycoordinate
    3.1500000000000004,       !- Vertex 2 Zcoordinate
    -8.8733375,               !- Vertex 3 Xcoordinate
    8.496421999999999,        !- Vertex 3 Ycoordinate
    3.1500000000000004,       !- Vertex 3 Zcoordinate
    -8.8733375,               !- Vertex 4 Xcoordinate
    8.496421999999999,        !- Vertex 4 Ycoordinate
    5.85;                     !- Vertex 4 Zcoordinate

FENESTRATIONSURFACE:DETAILED,
    Block Build0_Alt0 Storey 0 Wall 0004 window,    !- Name
    Window,                   !- Surface Type
    Project External Window,    !- Construction Name
    Block Build0_Alt0 Storey 0 Wall 0004,    !- Building Surface Name
    ,                         !- Outside Boundary Condition Object
    autocalculate,            !- View Factor to Ground
    ,                         !- Frame and Divider Name
    1.0,                      !- Multiplier
    autocalculate,            !- Number of Vertices
    -8.8693545,               !- Vertex 1 Xcoordinate
    8.483982,                 !- Vertex 1 Ycoordinate
    5.85,                     !- Vertex 1 Zcoordinate
    -8.8693545,               !- Vertex 2 Xcoordinate
    8.483982,                 !- Vertex 2 Ycoordinate
    3.1500000000000004,       !- Vertex 2 Zcoordinate
    6.8059544999999995,       !- Vertex 3 Xcoordinate
    -9.733782,                !- Vertex 3 Ycoordinate
    3.1500000000000004,       !- Vertex 3 Zcoordinate
    6.8059544999999995,       !- Vertex 4 Xcoordinate
    -9.733782,                !- Vertex 4 Ycoordinate
    5.85;                     !- Vertex 4 Zcoordinate

INTERNALMASS,
    Block Build0_Alt0 Storey -1IntMass,    !- Name
    NonHeatedZoneIntMassObj,    !- Construction Name
    Block Build0_Alt0 Storey -1,    !- Zone or ZoneList Name
    486;                      !- Surface Area

INTERNALMASS,
    Block Build0_Alt0 Storey 0IntMass,    !- Name
    HeatedZoneIntMassObj,     !- Construction Name
    Block Build0_Alt0 Storey 0,    !- Zone or ZoneList Name
    1458;                     !- Surface Area

SHADING:SITE:DETAILED,
    Shading_V0_1,             !- Name
    ,                         !- Transmittance Schedule Name
    autocalculate,            !- Number of Vertices
    104.2595,                 !- Vertex 1 Xcoordinate
    13.3465,                  !- Vertex 1 Ycoordinate
    15.8,                     !- Vertex 1 Zcoordinate
    104.2595,                 !- Vertex 2 Xcoordinate
    13.3465,                  !- Vertex 2 Ycoordinate
    0,                        !- Vertex 2 Zcoordinate
    103.5478,                 !- Vertex 3 Xcoordinate
    3.6841,                   !- Vertex 3 Ycoordinate
    0,                        !- Vertex 3 Zcoordinate
    103.5478,                 !- Vertex 4 Xcoordinate
    3.6841,                   !- Vertex 4 Ycoordinate
    15.8;                     !- Vertex 4 Zcoordinate

SHADING:SITE:DETAILED,
    Shading_V1_1,             !- Name
    ,                         !- Transmittance Schedule Name
    autocalculate,            !- Number of Vertices
    103.5478,                 !- Vertex 1 Xcoordinate
    3.6841,                   !- Vertex 1 Ycoordinate
    15.8,                     !- Vertex 1 Zcoordinate
    103.5478,                 !- Vertex 2 Xcoordinate
    3.6841,                   !- Vertex 2 Ycoordinate
    0,                        !- Vertex 2 Zcoordinate
    94.8218,                  !- Vertex 3 Xcoordinate
    -3.7109,                  !- Vertex 3 Ycoordinate
    0,                        !- Vertex 3 Zcoordinate
    94.8218,                  !- Vertex 4 Xcoordinate
    -3.7109,                  !- Vertex 4 Ycoordinate
    15.8;                     !- Vertex 4 Zcoordinate

SHADING:SITE:DETAILED,
    Shading_V23_1,            !- Name
    ,                         !- Transmittance Schedule Name
    autocalculate,            !- Number of Vertices
    12.7338,                  !- Vertex 1 Xcoordinate
    -79.7069,                 !- Vertex 1 Ycoordinate
    6.9,                      !- Vertex 1 Zcoordinate
    12.7338,                  !- Vertex 2 Xcoordinate
    -79.7069,                 !- Vertex 2 Ycoordinate
    0,                        !- Vertex 2 Zcoordinate
    7.9418,                   !- Vertex 3 Xcoordinate
    -88.8449,                 !- Vertex 3 Ycoordinate
    0,                        !- Vertex 3 Zcoordinate
    7.9418,                   !- Vertex 4 Xcoordinate
    -88.8449,                 !- Vertex 4 Ycoordinate
    6.9;                      !- Vertex 4 Zcoordinate

SHADING:SITE:DETAILED,
    Shading_V27_1,            !- Name
    ,                         !- Transmittance Schedule Name
    autocalculate,            !- Number of Vertices
    65.1428,                  !- Vertex 1 Xcoordinate
    -4.1389,                  !- Vertex 1 Ycoordinate
    9,                        !- Vertex 1 Zcoordinate
    65.1428,                  !- Vertex 2 Xcoordinate
    -4.1389,                  !- Vertex 2 Ycoordinate
    0,                        !- Vertex 2 Zcoordinate
    56.4288,                  !- Vertex 3 Xcoordinate
    -9.6019,                  !- Vertex 3 Ycoordinate
    0,                        !- Vertex 3 Zcoordinate
    56.4288,                  !- Vertex 4 Xcoordinate
    -9.6019,                  !- Vertex 4 Ycoordinate
    9;                        !- Vertex 4 Zcoordinate

SHADING:SITE:DETAILED,
    Shading_V28_1,            !- Name
    ,                         !- Transmittance Schedule Name
    autocalculate,            !- Number of Vertices
    56.4288,                  !- Vertex 1 Xcoordinate
    -9.6019,                  !- Vertex 1 Ycoordinate
    9,                        !- Vertex 1 Zcoordinate
    56.4288,                  !- Vertex 2 Xcoordinate
    -9.6019,                  !- Vertex 2 Ycoordinate
    0,                        !- Vertex 2 Zcoordinate
    65.5948,                  !- Vertex 3 Xcoordinate
    -24.4179,                 !- Vertex 3 Ycoordinate
    0,                        !- Vertex 3 Zcoordinate
    65.5948,                  !- Vertex 4 Xcoordinate
    -24.4179,                 !- Vertex 4 Ycoordinate
    9;                        !- Vertex 4 Zcoordinate

SHADING:SITE:DETAILED,
    Shading_V84_1,            !- Name
    ,                         !- Transmittance Schedule Name
    autocalculate,            !- Number of Vertices
    80.5788,                  !- Vertex 1 Xcoordinate
    -55.9789,                 !- Vertex 1 Ycoordinate
    8,                        !- Vertex 1 Zcoordinate
    80.5788,                  !- Vertex 2 Xcoordinate
    -55.9789,                 !- Vertex 2 Ycoordinate
    0,                        !- Vertex 2 Zcoordinate
    72.0518,                  !- Vertex 3 Xcoordinate
    -62.1489,                 !- Vertex 3 Ycoordinate
    0,                        !- Vertex 3 Zcoordinate
    72.0518,                  !- Vertex 4 Xcoordinate
    -62.1489,                 !- Vertex 4 Ycoordinate
    8;                        !- Vertex 4 Zcoordinate

SHADING:SITE:DETAILED,
    Shading_V85_1,            !- Name
    ,                         !- Transmittance Schedule Name
    autocalculate,            !- Number of Vertices
    72.0518,                  !- Vertex 1 Xcoordinate
    -62.1489,                 !- Vertex 1 Ycoordinate
    8,                        !- Vertex 1 Zcoordinate
    72.0518,                  !- Vertex 2 Xcoordinate
    -62.1489,                 !- Vertex 2 Ycoordinate
    0,                        !- Vertex 2 Zcoordinate
    78.7938,                  !- Vertex 3 Xcoordinate
    -71.4969,                 !- Vertex 3 Ycoordinate
    0,                        !- Vertex 3 Zcoordinate
    78.7938,                  !- Vertex 4 Xcoordinate
    -71.4969,                 !- Vertex 4 Ycoordinate
    8;                        !- Vertex 4 Zcoordinate

SHADING:SITE:DETAILED,
    Shading_V92_1,            !- Name
    ,                         !- Transmittance Schedule Name
    autocalculate,            !- Number of Vertices
    100.0419,                 !- Vertex 1 Xcoordinate
    27.5673,                  !- Vertex 1 Ycoordinate
    12,                       !- Vertex 1 Zcoordinate
    100.0419,                 !- Vertex 2 Xcoordinate
    27.5673,                  !- Vertex 2 Ycoordinate
    0,                        !- Vertex 2 Zcoordinate
    104.9048,                 !- Vertex 3 Xcoordinate
    22.1021,                  !- Vertex 3 Ycoordinate
    0,                        !- Vertex 3 Zcoordinate
    104.9048,                 !- Vertex 4 Xcoordinate
    22.1021,                  !- Vertex 4 Ycoordinate
    12;                       !- Vertex 4 Zcoordinate

SHADING:SITE:DETAILED,
    Shading_V93_1,            !- Name
    ,                         !- Transmittance Schedule Name
    autocalculate,            !- Number of Vertices
    104.9048,                 !- Vertex 1 Xcoordinate
    22.1021,                  !- Vertex 1 Ycoordinate
    12,                       !- Vertex 1 Zcoordinate
    104.9048,                 !- Vertex 2 Xcoordinate
    22.1021,                  !- Vertex 2 Ycoordinate
    0,                        !- Vertex 2 Zcoordinate
    104.2595,                 !- Vertex 3 Xcoordinate
    13.3465,                  !- Vertex 3 Ycoordinate
    0,                        !- Vertex 3 Zcoordinate
    104.2595,                 !- Vertex 4 Xcoordinate
    13.3465,                  !- Vertex 4 Ycoordinate
    12;                       !- Vertex 4 Zcoordinate

SHADING:SITE:DETAILED,
    Shading_V98_1,            !- Name
    ,                         !- Transmittance Schedule Name
    autocalculate,            !- Number of Vertices
    137.4798,                 !- Vertex 1 Xcoordinate
    97.5021,                  !- Vertex 1 Ycoordinate
    15.5,                     !- Vertex 1 Zcoordinate
    137.4798,                 !- Vertex 2 Xcoordinate
    97.5021,                  !- Vertex 2 Ycoordinate
    0,                        !- Vertex 2 Zcoordinate
    132.4628,                 !- Vertex 3 Xcoordinate
    93.2921,                  !- Vertex 3 Ycoordinate
    0,                        !- Vertex 3 Zcoordinate
    132.4628,                 !- Vertex 4 Xcoordinate
    93.2921,                  !- Vertex 4 Ycoordinate
    15.5;                     !- Vertex 4 Zcoordinate

SHADING:SITE:DETAILED,
    Shading_V102_1,           !- Name
    ,                         !- Transmittance Schedule Name
    autocalculate,            !- Number of Vertices
    119.8278,                 !- Vertex 1 Xcoordinate
    82.6941,                  !- Vertex 1 Ycoordinate
    15.5,                     !- Vertex 1 Zcoordinate
    119.8278,                 !- Vertex 2 Xcoordinate
    82.6941,                  !- Vertex 2 Ycoordinate
    0,                        !- Vertex 2 Zcoordinate
    114.6788,                 !- Vertex 3 Xcoordinate
    78.3761,                  !- Vertex 3 Ycoordinate
    0,                        !- Vertex 3 Zcoordinate
    114.6788,                 !- Vertex 4 Xcoordinate
    78.3761,                  !- Vertex 4 Ycoordinate
    15.5;                     !- Vertex 4 Zcoordinate

SHADING:SITE:DETAILED,
    Shading_V169_1,           !- Name
    ,                         !- Transmittance Schedule Name
    autocalculate,            !- Number of Vertices
    81.3908,                  !- Vertex 1 Xcoordinate
    -24.5919,                 !- Vertex 1 Ycoordinate
    9,                        !- Vertex 1 Zcoordinate
    81.3908,                  !- Vertex 2 Xcoordinate
    -24.5919,                 !- Vertex 2 Ycoordinate
    0,                        !- Vertex 2 Zcoordinate
    90.4858,                  !- Vertex 3 Xcoordinate
    -39.0279,                 !- Vertex 3 Ycoordinate
    0,                        !- Vertex 3 Zcoordinate
    90.4858,                  !- Vertex 4 Xcoordinate
    -39.0279,                 !- Vertex 4 Ycoordinate
    9;                        !- Vertex 4 Zcoordinate

SHADING:SITE:DETAILED,
    Shading_V218_1,           !- Name
    ,                         !- Transmittance Schedule Name
    autocalculate,            !- Number of Vertices
    157.8428,                 !- Vertex 1 Xcoordinate
    114.5151,                 !- Vertex 1 Ycoordinate
    14.3,                     !- Vertex 1 Zcoordinate
    157.8428,                 !- Vertex 2 Xcoordinate
    114.5151,                 !- Vertex 2 Ycoordinate
    0,                        !- Vertex 2 Zcoordinate
    150.4178,                 !- Vertex 3 Xcoordinate
    108.3231,                 !- Vertex 3 Ycoordinate
    0,                        !- Vertex 3 Zcoordinate
    150.4178,                 !- Vertex 4 Xcoordinate
    108.3231,                 !- Vertex 4 Ycoordinate
    14.3;                     !- Vertex 4 Zcoordinate

SHADING:SITE:DETAILED,
    Shading_V289_1,           !- Name
    ,                         !- Transmittance Schedule Name
    autocalculate,            !- Number of Vertices
    105.5538,                 !- Vertex 1 Xcoordinate
    -138.8879,                !- Vertex 1 Ycoordinate
    7.8,                      !- Vertex 1 Zcoordinate
    105.5538,                 !- Vertex 2 Xcoordinate
    -138.8879,                !- Vertex 2 Ycoordinate
    0,                        !- Vertex 2 Zcoordinate
    97.0078,                  !- Vertex 3 Xcoordinate
    -140.9339,                !- Vertex 3 Ycoordinate
    0,                        !- Vertex 3 Zcoordinate
    97.0078,                  !- Vertex 4 Xcoordinate
    -140.9339,                !- Vertex 4 Ycoordinate
    7.8;                      !- Vertex 4 Zcoordinate

SHADING:SITE:DETAILED,
    Shading_V290_1,           !- Name
    ,                         !- Transmittance Schedule Name
    autocalculate,            !- Number of Vertices
    97.0078,                  !- Vertex 1 Xcoordinate
    -140.9339,                !- Vertex 1 Ycoordinate
    7.8,                      !- Vertex 1 Zcoordinate
    97.0078,                  !- Vertex 2 Xcoordinate
    -140.9339,                !- Vertex 2 Ycoordinate
    0,                        !- Vertex 2 Zcoordinate
    101.0778,                 !- Vertex 3 Xcoordinate
    -157.9229,                !- Vertex 3 Ycoordinate
    0,                        !- Vertex 3 Zcoordinate
    101.0778,                 !- Vertex 4 Xcoordinate
    -157.9229,                !- Vertex 4 Ycoordinate
    7.8;                      !- Vertex 4 Zcoordinate

SHADING:SITE:DETAILED,
    Shading_V310_1,           !- Name
    ,                         !- Transmittance Schedule Name
    autocalculate,            !- Number of Vertices
    171.2238,                 !- Vertex 1 Xcoordinate
    -69.9009,                 !- Vertex 1 Ycoordinate
    18.8,                     !- Vertex 1 Zcoordinate
    171.2238,                 !- Vertex 2 Xcoordinate
    -69.9009,                 !- Vertex 2 Ycoordinate
    0,                        !- Vertex 2 Zcoordinate
    179.5388,                 !- Vertex 3 Xcoordinate
    -79.5709,                 !- Vertex 3 Ycoordinate
    0,                        !- Vertex 3 Zcoordinate
    179.5388,                 !- Vertex 4 Xcoordinate
    -79.5709,                 !- Vertex 4 Ycoordinate
    18.8;                     !- Vertex 4 Zcoordinate

SHADING:SITE:DETAILED,
    Shading_V381_1,           !- Name
    ,                         !- Transmittance Schedule Name
    autocalculate,            !- Number of Vertices
    33.4668,                  !- Vertex 1 Xcoordinate
    -64.2629,                 !- Vertex 1 Ycoordinate
    8.6,                      !- Vertex 1 Zcoordinate
    33.4668,                  !- Vertex 2 Xcoordinate
    -64.2629,                 !- Vertex 2 Ycoordinate
    0,                        !- Vertex 2 Zcoordinate
    19.5758,                  !- Vertex 3 Xcoordinate
    -46.0089,                 !- Vertex 3 Ycoordinate
    0,                        !- Vertex 3 Zcoordinate
    19.5758,                  !- Vertex 4 Xcoordinate
    -46.0089,                 !- Vertex 4 Ycoordinate
    8.6;                      !- Vertex 4 Zcoordinate

SHADING:SITE:DETAILED,
    Shading_V382_1,           !- Name
    ,                         !- Transmittance Schedule Name
    autocalculate,            !- Number of Vertices
    19.5758,                  !- Vertex 1 Xcoordinate
    -46.0089,                 !- Vertex 1 Ycoordinate
    8.6,                      !- Vertex 1 Zcoordinate
    19.5758,                  !- Vertex 2 Xcoordinate
    -46.0089,                 !- Vertex 2 Ycoordinate
    0,                        !- Vertex 2 Zcoordinate
    11.3598,                  !- Vertex 3 Xcoordinate
    -52.2789,                 !- Vertex 3 Ycoordinate
    0,                        !- Vertex 3 Zcoordinate
    11.3598,                  !- Vertex 4 Xcoordinate
    -52.2789,                 !- Vertex 4 Ycoordinate
    8.6;                      !- Vertex 4 Zcoordinate

SHADING:SITE:DETAILED,
    Shading_V385_1,           !- Name
    ,                         !- Transmittance Schedule Name
    autocalculate,            !- Number of Vertices
    -7.7242,                  !- Vertex 1 Xcoordinate
    -33.0329,                 !- Vertex 1 Ycoordinate
    10.4,                     !- Vertex 1 Zcoordinate
    -7.7242,                  !- Vertex 2 Xcoordinate
    -33.0329,                 !- Vertex 2 Ycoordinate
    0,                        !- Vertex 2 Zcoordinate
    -18.0402,                 !- Vertex 3 Xcoordinate
    -34.7349,                 !- Vertex 3 Ycoordinate
    0,                        !- Vertex 3 Zcoordinate
    -18.0402,                 !- Vertex 4 Xcoordinate
    -34.7349,                 !- Vertex 4 Ycoordinate
    10.4;                     !- Vertex 4 Zcoordinate

SHADING:SITE:DETAILED,
    Shading_V388_1,           !- Name
    ,                         !- Transmittance Schedule Name
    autocalculate,            !- Number of Vertices
    -4.2212,                  !- Vertex 1 Xcoordinate
    -56.5049,                 !- Vertex 1 Ycoordinate
    10.4,                     !- Vertex 1 Zcoordinate
    -4.2212,                  !- Vertex 2 Xcoordinate
    -56.5049,                 !- Vertex 2 Ycoordinate
    0,                        !- Vertex 2 Zcoordinate
    -7.7242,                  !- Vertex 3 Xcoordinate
    -33.0329,                 !- Vertex 3 Ycoordinate
    0,                        !- Vertex 3 Zcoordinate
    -7.7242,                  !- Vertex 4 Xcoordinate
    -33.0329,                 !- Vertex 4 Ycoordinate
    10.4;                     !- Vertex 4 Zcoordinate

SHADING:SITE:DETAILED,
    Shading_V427_1,           !- Name
    ,                         !- Transmittance Schedule Name
    autocalculate,            !- Number of Vertices
    143.1998,                 !- Vertex 1 Xcoordinate
    116.0711,                 !- Vertex 1 Ycoordinate
    15.9,                     !- Vertex 1 Zcoordinate
    143.1998,                 !- Vertex 2 Xcoordinate
    116.0711,                 !- Vertex 2 Ycoordinate
    0,                        !- Vertex 2 Zcoordinate
    150.8848,                 !- Vertex 3 Xcoordinate
    122.6471,                 !- Vertex 3 Ycoordinate
    0,                        !- Vertex 3 Zcoordinate
    150.8848,                 !- Vertex 4 Xcoordinate
    122.6471,                 !- Vertex 4 Ycoordinate
    15.9;                     !- Vertex 4 Zcoordinate

SHADING:SITE:DETAILED,
    Shading_V504_1,           !- Name
    ,                         !- Transmittance Schedule Name
    autocalculate,            !- Number of Vertices
    121.1598,                 !- Vertex 1 Xcoordinate
    -63.3089,                 !- Vertex 1 Ycoordinate
    8.3,                      !- Vertex 1 Zcoordinate
    121.1598,                 !- Vertex 2 Xcoordinate
    -63.3089,                 !- Vertex 2 Ycoordinate
    0,                        !- Vertex 2 Zcoordinate
    113.7478,                 !- Vertex 3 Xcoordinate
    -70.7659,                 !- Vertex 3 Ycoordinate
    0,                        !- Vertex 3 Zcoordinate
    113.7478,                 !- Vertex 4 Xcoordinate
    -70.7659,                 !- Vertex 4 Ycoordinate
    8.3;                      !- Vertex 4 Zcoordinate

SHADING:SITE:DETAILED,
    Shading_V505_1,           !- Name
    ,                         !- Transmittance Schedule Name
    autocalculate,            !- Number of Vertices
    113.7478,                 !- Vertex 1 Xcoordinate
    -70.7659,                 !- Vertex 1 Ycoordinate
    8.3,                      !- Vertex 1 Zcoordinate
    113.7478,                 !- Vertex 2 Xcoordinate
    -70.7659,                 !- Vertex 2 Ycoordinate
    0,                        !- Vertex 2 Zcoordinate
    121.8688,                 !- Vertex 3 Xcoordinate
    -78.9399,                 !- Vertex 3 Ycoordinate
    0,                        !- Vertex 3 Zcoordinate
    121.8688,                 !- Vertex 4 Xcoordinate
    -78.9399,                 !- Vertex 4 Ycoordinate
    8.3;                      !- Vertex 4 Zcoordinate

SHADING:SITE:DETAILED,
    Shading_V511_1,           !- Name
    ,                         !- Transmittance Schedule Name
    autocalculate,            !- Number of Vertices
    88.4848,                  !- Vertex 1 Xcoordinate
    56.2781,                  !- Vertex 1 Ycoordinate
    19,                       !- Vertex 1 Zcoordinate
    88.4848,                  !- Vertex 2 Xcoordinate
    56.2781,                  !- Vertex 2 Ycoordinate
    0,                        !- Vertex 2 Zcoordinate
    80.8298,                  !- Vertex 3 Xcoordinate
    49.6901,                  !- Vertex 3 Ycoordinate
    0,                        !- Vertex 3 Zcoordinate
    80.8298,                  !- Vertex 4 Xcoordinate
    49.6901,                  !- Vertex 4 Ycoordinate
    19;                       !- Vertex 4 Zcoordinate

SHADING:SITE:DETAILED,
    Shading_V512_1,           !- Name
    ,                         !- Transmittance Schedule Name
    autocalculate,            !- Number of Vertices
    80.8298,                  !- Vertex 1 Xcoordinate
    49.6901,                  !- Vertex 1 Ycoordinate
    19,                       !- Vertex 1 Zcoordinate
    80.8298,                  !- Vertex 2 Xcoordinate
    49.6901,                  !- Vertex 2 Ycoordinate
    0,                        !- Vertex 2 Zcoordinate
    85.7818,                  !- Vertex 3 Xcoordinate
    43.8851,                  !- Vertex 3 Ycoordinate
    0,                        !- Vertex 3 Zcoordinate
    85.7818,                  !- Vertex 4 Xcoordinate
    43.8851,                  !- Vertex 4 Ycoordinate
    19;                       !- Vertex 4 Zcoordinate

SHADING:SITE:DETAILED,
    Shading_V513_1,           !- Name
    ,                         !- Transmittance Schedule Name
    autocalculate,            !- Number of Vertices
    85.7818,                  !- Vertex 1 Xcoordinate
    43.8851,                  !- Vertex 1 Ycoordinate
    19,                       !- Vertex 1 Zcoordinate
    85.7818,                  !- Vertex 2 Xcoordinate
    43.8851,                  !- Vertex 2 Ycoordinate
    0,                        !- Vertex 2 Zcoordinate
    78.6388,                  !- Vertex 3 Xcoordinate
    37.7191,                  !- Vertex 3 Ycoordinate
    0,                        !- Vertex 3 Zcoordinate
    78.6388,                  !- Vertex 4 Xcoordinate
    37.7191,                  !- Vertex 4 Ycoordinate
    19;                       !- Vertex 4 Zcoordinate

SHADING:SITE:DETAILED,
    Shading_V514_1,           !- Name
    ,                         !- Transmittance Schedule Name
    autocalculate,            !- Number of Vertices
    78.6388,                  !- Vertex 1 Xcoordinate
    37.7191,                  !- Vertex 1 Ycoordinate
    19,                       !- Vertex 1 Zcoordinate
    78.6388,                  !- Vertex 2 Xcoordinate
    37.7191,                  !- Vertex 2 Ycoordinate
    0,                        !- Vertex 2 Zcoordinate
    86.9468,                  !- Vertex 3 Xcoordinate
    28.1111,                  !- Vertex 3 Ycoordinate
    0,                        !- Vertex 3 Zcoordinate
    86.9468,                  !- Vertex 4 Xcoordinate
    28.1111,                  !- Vertex 4 Ycoordinate
    19;                       !- Vertex 4 Zcoordinate

SHADING:SITE:DETAILED,
    Shading_V516_1,           !- Name
    ,                         !- Transmittance Schedule Name
    autocalculate,            !- Number of Vertices
    94.0668,                  !- Vertex 1 Xcoordinate
    34.2831,                  !- Vertex 1 Ycoordinate
    19,                       !- Vertex 1 Zcoordinate
    94.0668,                  !- Vertex 2 Xcoordinate
    34.2831,                  !- Vertex 2 Ycoordinate
    0,                        !- Vertex 2 Zcoordinate
    100.0419,                 !- Vertex 3 Xcoordinate
    27.5673,                  !- Vertex 3 Ycoordinate
    0,                        !- Vertex 3 Zcoordinate
    100.0419,                 !- Vertex 4 Xcoordinate
    27.5673,                  !- Vertex 4 Ycoordinate
    19;                       !- Vertex 4 Zcoordinate

SHADING:SITE:DETAILED,
    Shading_V2_1,             !- Name
    ,                         !- Transmittance Schedule Name
    autocalculate,            !- Number of Vertices
    94.8218,                  !- Vertex 1 Xcoordinate
    -3.7109,                  !- Vertex 1 Ycoordinate
    15.8,                     !- Vertex 1 Zcoordinate
    94.8218,                  !- Vertex 2 Xcoordinate
    -3.7109,                  !- Vertex 2 Ycoordinate
    0,                        !- Vertex 2 Zcoordinate
    101.4018,                 !- Vertex 3 Xcoordinate
    -11.4389,                 !- Vertex 3 Ycoordinate
    0,                        !- Vertex 3 Zcoordinate
    101.4018,                 !- Vertex 4 Xcoordinate
    -11.4389,                 !- Vertex 4 Ycoordinate
    15.8;                     !- Vertex 4 Zcoordinate

SHADING:SITE:DETAILED,
    Shading_V103_1,           !- Name
    ,                         !- Transmittance Schedule Name
    autocalculate,            !- Number of Vertices
    114.6788,                 !- Vertex 1 Xcoordinate
    78.3761,                  !- Vertex 1 Ycoordinate
    15.5,                     !- Vertex 1 Zcoordinate
    114.6788,                 !- Vertex 2 Xcoordinate
    78.3761,                  !- Vertex 2 Ycoordinate
    0,                        !- Vertex 2 Zcoordinate
    118.1368,                 !- Vertex 3 Xcoordinate
    74.3961,                  !- Vertex 3 Ycoordinate
    0,                        !- Vertex 3 Zcoordinate
    118.1368,                 !- Vertex 4 Xcoordinate
    74.3961,                  !- Vertex 4 Ycoordinate
    15.5;                     !- Vertex 4 Zcoordinate

SHADING:SITE:DETAILED,
    Shading_V185_1,           !- Name
    ,                         !- Transmittance Schedule Name
    autocalculate,            !- Number of Vertices
    -53.6232,                 !- Vertex 1 Xcoordinate
    76.0001,                  !- Vertex 1 Ycoordinate
    12.7,                     !- Vertex 1 Zcoordinate
    -53.6232,                 !- Vertex 2 Xcoordinate
    76.0001,                  !- Vertex 2 Ycoordinate
    0,                        !- Vertex 2 Zcoordinate
    -34.8252,                 !- Vertex 3 Xcoordinate
    74.6031,                  !- Vertex 3 Ycoordinate
    0,                        !- Vertex 3 Zcoordinate
    -34.8252,                 !- Vertex 4 Xcoordinate
    74.6031,                  !- Vertex 4 Ycoordinate
    12.7;                     !- Vertex 4 Zcoordinate

SHADING:SITE:DETAILED,
    Shading_V187_1,           !- Name
    ,                         !- Transmittance Schedule Name
    autocalculate,            !- Number of Vertices
    -35.4852,                 !- Vertex 1 Xcoordinate
    65.1861,                  !- Vertex 1 Ycoordinate
    12.7,                     !- Vertex 1 Zcoordinate
    -35.4852,                 !- Vertex 2 Xcoordinate
    65.1861,                  !- Vertex 2 Ycoordinate
    0,                        !- Vertex 2 Zcoordinate
    -22.9472,                 !- Vertex 3 Xcoordinate
    64.3811,                  !- Vertex 3 Ycoordinate
    0,                        !- Vertex 3 Zcoordinate
    -22.9472,                 !- Vertex 4 Xcoordinate
    64.3811,                  !- Vertex 4 Ycoordinate
    12.7;                     !- Vertex 4 Zcoordinate

SHADING:SITE:DETAILED,
    Shading_V188_1,           !- Name
    ,                         !- Transmittance Schedule Name
    autocalculate,            !- Number of Vertices
    -22.9472,                 !- Vertex 1 Xcoordinate
    64.3811,                  !- Vertex 1 Ycoordinate
    12.7,                     !- Vertex 1 Zcoordinate
    -22.9472,                 !- Vertex 2 Xcoordinate
    64.3811,                  !- Vertex 2 Ycoordinate
    0,                        !- Vertex 2 Zcoordinate
    -22.1582,                 !- Vertex 3 Xcoordinate
    73.6421,                  !- Vertex 3 Ycoordinate
    0,                        !- Vertex 3 Zcoordinate
    -22.1582,                 !- Vertex 4 Xcoordinate
    73.6421,                  !- Vertex 4 Ycoordinate
    12.7;                     !- Vertex 4 Zcoordinate

SHADING:SITE:DETAILED,
    Shading_V189_1,           !- Name
    ,                         !- Transmittance Schedule Name
    autocalculate,            !- Number of Vertices
    -22.1582,                 !- Vertex 1 Xcoordinate
    73.6421,                  !- Vertex 1 Ycoordinate
    12.7,                     !- Vertex 1 Zcoordinate
    -22.1582,                 !- Vertex 2 Xcoordinate
    73.6421,                  !- Vertex 2 Ycoordinate
    0,                        !- Vertex 2 Zcoordinate
    -15.2442,                 !- Vertex 3 Xcoordinate
    73.1231,                  !- Vertex 3 Ycoordinate
    0,                        !- Vertex 3 Zcoordinate
    -15.2442,                 !- Vertex 4 Xcoordinate
    73.1231,                  !- Vertex 4 Ycoordinate
    12.7;                     !- Vertex 4 Zcoordinate

SHADING:SITE:DETAILED,
    Shading_V190_1,           !- Name
    ,                         !- Transmittance Schedule Name
    autocalculate,            !- Number of Vertices
    -15.2442,                 !- Vertex 1 Xcoordinate
    73.1231,                  !- Vertex 1 Ycoordinate
    12.7,                     !- Vertex 1 Zcoordinate
    -15.2442,                 !- Vertex 2 Xcoordinate
    73.1231,                  !- Vertex 2 Ycoordinate
    0,                        !- Vertex 2 Zcoordinate
    -14.4872,                 !- Vertex 3 Xcoordinate
    83.1741,                  !- Vertex 3 Ycoordinate
    0,                        !- Vertex 3 Zcoordinate
    -14.4872,                 !- Vertex 4 Xcoordinate
    83.1741,                  !- Vertex 4 Ycoordinate
    12.7;                     !- Vertex 4 Zcoordinate

SHADING:SITE:DETAILED,
    Shading_V227_1,           !- Name
    ,                         !- Transmittance Schedule Name
    autocalculate,            !- Number of Vertices
    22.6363,                  !- Vertex 1 Xcoordinate
    70.2628,                  !- Vertex 1 Ycoordinate
    11.3,                     !- Vertex 1 Zcoordinate
    22.6363,                  !- Vertex 2 Xcoordinate
    70.2628,                  !- Vertex 2 Ycoordinate
    0,                        !- Vertex 2 Zcoordinate
    33.4038,                  !- Vertex 3 Xcoordinate
    69.4641,                  !- Vertex 3 Ycoordinate
    0,                        !- Vertex 3 Zcoordinate
    33.4038,                  !- Vertex 4 Xcoordinate
    69.4641,                  !- Vertex 4 Ycoordinate
    11.3;                     !- Vertex 4 Zcoordinate

SHADING:SITE:DETAILED,
    Shading_V228_1,           !- Name
    ,                         !- Transmittance Schedule Name
    autocalculate,            !- Number of Vertices
    33.4038,                  !- Vertex 1 Xcoordinate
    69.4641,                  !- Vertex 1 Ycoordinate
    11.3,                     !- Vertex 1 Zcoordinate
    33.4038,                  !- Vertex 2 Xcoordinate
    69.4641,                  !- Vertex 2 Ycoordinate
    0,                        !- Vertex 2 Zcoordinate
    39.4848,                  !- Vertex 3 Xcoordinate
    62.4391,                  !- Vertex 3 Ycoordinate
    0,                        !- Vertex 3 Zcoordinate
    39.4848,                  !- Vertex 4 Xcoordinate
    62.4391,                  !- Vertex 4 Ycoordinate
    11.3;                     !- Vertex 4 Zcoordinate

SHADING:SITE:DETAILED,
    Shading_V229_1,           !- Name
    ,                         !- Transmittance Schedule Name
    autocalculate,            !- Number of Vertices
    39.4848,                  !- Vertex 1 Xcoordinate
    62.4391,                  !- Vertex 1 Ycoordinate
    11.3,                     !- Vertex 1 Zcoordinate
    39.4848,                  !- Vertex 2 Xcoordinate
    62.4391,                  !- Vertex 2 Ycoordinate
    0,                        !- Vertex 2 Zcoordinate
    47.1248,                  !- Vertex 3 Xcoordinate
    69.0261,                  !- Vertex 3 Ycoordinate
    0,                        !- Vertex 3 Zcoordinate
    47.1248,                  !- Vertex 4 Xcoordinate
    69.0261,                  !- Vertex 4 Ycoordinate
    11.3;                     !- Vertex 4 Zcoordinate

SHADING:SITE:DETAILED,
    Shading_V272_1,           !- Name
    ,                         !- Transmittance Schedule Name
    autocalculate,            !- Number of Vertices
    -5.6072,                  !- Vertex 1 Xcoordinate
    72.3861,                  !- Vertex 1 Ycoordinate
    17.1,                     !- Vertex 1 Zcoordinate
    -5.6072,                  !- Vertex 2 Xcoordinate
    72.3861,                  !- Vertex 2 Ycoordinate
    0,                        !- Vertex 2 Zcoordinate
    1.9948,                   !- Vertex 3 Xcoordinate
    71.8531,                  !- Vertex 3 Ycoordinate
    0,                        !- Vertex 3 Zcoordinate
    1.9948,                   !- Vertex 4 Xcoordinate
    71.8531,                  !- Vertex 4 Ycoordinate
    17.1;                     !- Vertex 4 Zcoordinate

SHADING:SITE:DETAILED,
    Shading_V274_1,           !- Name
    ,                         !- Transmittance Schedule Name
    autocalculate,            !- Number of Vertices
    1.2618,                   !- Vertex 1 Xcoordinate
    62.4531,                  !- Vertex 1 Ycoordinate
    17.1,                     !- Vertex 1 Zcoordinate
    1.2618,                   !- Vertex 2 Xcoordinate
    62.4531,                  !- Vertex 2 Ycoordinate
    0,                        !- Vertex 2 Zcoordinate
    13.9038,                  !- Vertex 3 Xcoordinate
    61.4661,                  !- Vertex 3 Ycoordinate
    0,                        !- Vertex 3 Zcoordinate
    13.9038,                  !- Vertex 4 Xcoordinate
    61.4661,                  !- Vertex 4 Ycoordinate
    17.1;                     !- Vertex 4 Zcoordinate

SHADING:SITE:DETAILED,
    Shading_V276_1,           !- Name
    ,                         !- Transmittance Schedule Name
    autocalculate,            !- Number of Vertices
    14.6378,                  !- Vertex 1 Xcoordinate
    70.8561,                  !- Vertex 1 Ycoordinate
    17.1,                     !- Vertex 1 Zcoordinate
    14.6378,                  !- Vertex 2 Xcoordinate
    70.8561,                  !- Vertex 2 Ycoordinate
    0,                        !- Vertex 2 Zcoordinate
    22.6363,                  !- Vertex 3 Xcoordinate
    70.2628,                  !- Vertex 3 Ycoordinate
    0,                        !- Vertex 3 Zcoordinate
    22.6363,                  !- Vertex 4 Xcoordinate
    70.2628,                  !- Vertex 4 Ycoordinate
    17.1;                     !- Vertex 4 Zcoordinate

SHADING:SITE:DETAILED,
    Shading_V278_1,           !- Name
    ,                         !- Transmittance Schedule Name
    autocalculate,            !- Number of Vertices
    56.7328,                  !- Vertex 1 Xcoordinate
    77.6441,                  !- Vertex 1 Ycoordinate
    18.7,                     !- Vertex 1 Zcoordinate
    56.7328,                  !- Vertex 2 Xcoordinate
    77.6441,                  !- Vertex 2 Ycoordinate
    0,                        !- Vertex 2 Zcoordinate
    61.7128,                  !- Vertex 3 Xcoordinate
    71.8631,                  !- Vertex 3 Ycoordinate
    0,                        !- Vertex 3 Zcoordinate
    61.7128,                  !- Vertex 4 Xcoordinate
    71.8631,                  !- Vertex 4 Ycoordinate
    18.7;                     !- Vertex 4 Zcoordinate

SHADING:SITE:DETAILED,
    Shading_V280_1,           !- Name
    ,                         !- Transmittance Schedule Name
    autocalculate,            !- Number of Vertices
    54.5478,                  !- Vertex 1 Xcoordinate
    65.7031,                  !- Vertex 1 Ycoordinate
    18.7,                     !- Vertex 1 Zcoordinate
    54.5478,                  !- Vertex 2 Xcoordinate
    65.7031,                  !- Vertex 2 Ycoordinate
    0,                        !- Vertex 2 Zcoordinate
    62.8118,                  !- Vertex 3 Xcoordinate
    56.0801,                  !- Vertex 3 Ycoordinate
    0,                        !- Vertex 3 Zcoordinate
    62.8118,                  !- Vertex 4 Xcoordinate
    56.0801,                  !- Vertex 4 Ycoordinate
    18.7;                     !- Vertex 4 Zcoordinate

SHADING:SITE:DETAILED,
    Shading_V281_1,           !- Name
    ,                         !- Transmittance Schedule Name
    autocalculate,            !- Number of Vertices
    62.8118,                  !- Vertex 1 Xcoordinate
    56.0801,                  !- Vertex 1 Ycoordinate
    18.7,                     !- Vertex 1 Zcoordinate
    62.8118,                  !- Vertex 2 Xcoordinate
    56.0801,                  !- Vertex 2 Ycoordinate
    0,                        !- Vertex 2 Zcoordinate
    69.9828,                  !- Vertex 3 Xcoordinate
    62.2461,                  !- Vertex 3 Ycoordinate
    0,                        !- Vertex 3 Zcoordinate
    69.9828,                  !- Vertex 4 Xcoordinate
    62.2461,                  !- Vertex 4 Ycoordinate
    18.7;                     !- Vertex 4 Zcoordinate

SHADING:SITE:DETAILED,
    Shading_V282_1,           !- Name
    ,                         !- Transmittance Schedule Name
    autocalculate,            !- Number of Vertices
    69.9828,                  !- Vertex 1 Xcoordinate
    62.2461,                  !- Vertex 1 Ycoordinate
    18.7,                     !- Vertex 1 Zcoordinate
    69.9828,                  !- Vertex 2 Xcoordinate
    62.2461,                  !- Vertex 2 Ycoordinate
    0,                        !- Vertex 2 Zcoordinate
    74.9658,                  !- Vertex 3 Xcoordinate
    56.4431,                  !- Vertex 3 Ycoordinate
    0,                        !- Vertex 3 Zcoordinate
    74.9658,                  !- Vertex 4 Xcoordinate
    56.4431,                  !- Vertex 4 Ycoordinate
    18.7;                     !- Vertex 4 Zcoordinate

SHADING:SITE:DETAILED,
    Shading_V273_1,           !- Name
    ,                         !- Transmittance Schedule Name
    autocalculate,            !- Number of Vertices
    1.9948,                   !- Vertex 1 Xcoordinate
    71.8531,                  !- Vertex 1 Ycoordinate
    17.1,                     !- Vertex 1 Zcoordinate
    1.9948,                   !- Vertex 2 Xcoordinate
    71.8531,                  !- Vertex 2 Ycoordinate
    0,                        !- Vertex 2 Zcoordinate
    1.2618,                   !- Vertex 3 Xcoordinate
    62.4531,                  !- Vertex 3 Ycoordinate
    0,                        !- Vertex 3 Zcoordinate
    1.2618,                   !- Vertex 4 Xcoordinate
    62.4531,                  !- Vertex 4 Ycoordinate
    17.1;                     !- Vertex 4 Zcoordinate

SHADING:SITE:DETAILED,
    Shading_V346_1,           !- Name
    ,                         !- Transmittance Schedule Name
    autocalculate,            !- Number of Vertices
    -12.2242,                 !- Vertex 1 Xcoordinate
    12.6661,                  !- Vertex 1 Ycoordinate
    9.8,                      !- Vertex 1 Zcoordinate
    -12.2242,                 !- Vertex 2 Xcoordinate
    12.6661,                  !- Vertex 2 Ycoordinate
    0,                        !- Vertex 2 Zcoordinate
    -6.6012,                  !- Vertex 3 Xcoordinate
    22.4211,                  !- Vertex 3 Ycoordinate
    0,                        !- Vertex 3 Zcoordinate
    -6.6012,                  !- Vertex 4 Xcoordinate
    22.4211,                  !- Vertex 4 Ycoordinate
    9.8;                      !- Vertex 4 Zcoordinate

SHADING:SITE:DETAILED,
    Shading_V424_1,           !- Name
    ,                         !- Transmittance Schedule Name
    autocalculate,            !- Number of Vertices
    112.6408,                 !- Vertex 1 Xcoordinate
    145.5271,                 !- Vertex 1 Ycoordinate
    15.9,                     !- Vertex 1 Zcoordinate
    112.6408,                 !- Vertex 2 Xcoordinate
    145.5271,                 !- Vertex 2 Ycoordinate
    0,                        !- Vertex 2 Zcoordinate
    117.2928,                 !- Vertex 3 Xcoordinate
    140.1091,                 !- Vertex 3 Ycoordinate
    0,                        !- Vertex 3 Zcoordinate
    117.2928,                 !- Vertex 4 Xcoordinate
    140.1091,                 !- Vertex 4 Ycoordinate
    15.9;                     !- Vertex 4 Zcoordinate

SHADING:SITE:DETAILED,
    Shading_V205_1,           !- Name
    ,                         !- Transmittance Schedule Name
    autocalculate,            !- Number of Vertices
    -81.6382,                 !- Vertex 1 Xcoordinate
    51.9561,                  !- Vertex 1 Ycoordinate
    12.7,                     !- Vertex 1 Zcoordinate
    -81.6382,                 !- Vertex 2 Xcoordinate
    51.9561,                  !- Vertex 2 Ycoordinate
    0,                        !- Vertex 2 Zcoordinate
    -75.8532,                 !- Vertex 3 Xcoordinate
    56.8981,                  !- Vertex 3 Ycoordinate
    0,                        !- Vertex 3 Zcoordinate
    -75.8532,                 !- Vertex 4 Xcoordinate
    56.8981,                  !- Vertex 4 Ycoordinate
    12.7;                     !- Vertex 4 Zcoordinate

SHADING:SITE:DETAILED,
    Shading_V345_1,           !- Name
    ,                         !- Transmittance Schedule Name
    autocalculate,            !- Number of Vertices
    -43.9432,                 !- Vertex 1 Xcoordinate
    30.9161,                  !- Vertex 1 Ycoordinate
    9.8,                      !- Vertex 1 Zcoordinate
    -43.9432,                 !- Vertex 2 Xcoordinate
    30.9161,                  !- Vertex 2 Ycoordinate
    0,                        !- Vertex 2 Zcoordinate
    -12.2242,                 !- Vertex 3 Xcoordinate
    12.6661,                  !- Vertex 3 Ycoordinate
    0,                        !- Vertex 3 Zcoordinate
    -12.2242,                 !- Vertex 4 Xcoordinate
    12.6661,                  !- Vertex 4 Ycoordinate
    9.8;                      !- Vertex 4 Zcoordinate

ELECTRICEQUIPMENT,
    Block Build0_Alt0 Storey 0Load,    !- Name
    Block Build0_Alt0 Storey 0,    !- Zone or ZoneList Name
    LoadSchedule,             !- Schedule Name
    Watts/Area,               !- Design Level Calculation Method
    ,                         !- Design Level
    0.03,                     !- Watts per Zone Floor Area
    ,                         !- Watts per Person
    0,                        !- Fraction Latent
    0,                        !- Fraction Radiant
    0,                        !- Fraction Lost
    General;                  !- EndUse Subcategory

ZONEINFILTRATION:DESIGNFLOWRATE,
    Block Build0_Alt0 Storey -1Leak,    !- Name
    Block Build0_Alt0 Storey -1,    !- Zone or ZoneList Name
    AlwaysON,                 !- Schedule Name
    AirChanges/Hour,          !- Design Flow Rate Calculation Method
    ,                         !- Design Flow Rate
    ,                         !- Flow per Zone Floor Area
    ,                         !- Flow per Exterior Surface Area
    1,                        !- Air Changes per Hour
    1,                        !- Constant Term Coefficient
    0,                        !- Temperature Term Coefficient
    0,                        !- Velocity Term Coefficient
    0;                        !- Velocity Squared Term Coefficient

ZONEINFILTRATION:FLOWCOEFFICIENT,
    Block Build0_Alt0 Storey 0Leak,    !- Name
    Block Build0_Alt0 Storey 0,    !- Zone Name
    AlwaysON,                 !- Schedule Name
    6.299608e-02,             !- Flow Coefficient
    0.098,                    !- Stack Coefficient
    0.667,                    !- Pressure Exponent
    0.17,                     !- Wind Coefficient
    0.5;                      !- Shelter Factor

ZONEVENTILATION:DESIGNFLOWRATE,
    Block Build0_Alt0 Storey 0FreeCool,    !- Name
    Block Build0_Alt0 Storey 0,    !- Zone or ZoneList Name
    AlwaysON,                 !- Schedule Name
    AirChanges/Hour,          !- Design Flow Rate Calculation Method
    ,                         !- Design Flow Rate
    ,                         !- Flow Rate per Zone Floor Area
    ,                         !- Flow Rate per Person
    4,                        !- Air Changes per Hour
    Natural,                  !- Ventilation Type
    0,                        !- Fan Pressure Rise
    1,                        !- Fan Total Efficiency
    1,                        !- Constant Term Coefficient
    0,                        !- Temperature Term Coefficient
    0,                        !- Velocity Term Coefficient
    0,                        !- Velocity Squared Term Coefficient
    26,                       !- Minimum Indoor Temperature
    ,                         !- Minimum Indoor Temperature Schedule Name
    100,                      !- Maximum Indoor Temperature
    ,                         !- Maximum Indoor Temperature Schedule Name
    1,                        !- Delta Temperature
    ,                         !- Delta Temperature Schedule Name
    -100,                     !- Minimum Outdoor Temperature
    ,                         !- Minimum Outdoor Temperature Schedule Name
    100,                      !- Maximum Outdoor Temperature
    ,                         !- Maximum Outdoor Temperature Schedule Name
    40;                       !- Maximum Wind Speed

HVACTEMPLATE:THERMOSTAT,
    ResidZone,                !- Name
    ,                         !- Heating Setpoint Schedule Name
    21,                       !- Constant Heating Setpoint
    ,                         !- Cooling Setpoint Schedule Name
    50;                       !- Constant Cooling Setpoint

HVACTEMPLATE:ZONE:IDEALLOADSAIRSYSTEM,
    Block Build0_Alt0 Storey 0,    !- Zone Name
    ResidZone,                !- Template Thermostat Name
    ,                         !- System Availability Schedule Name
    50,                       !- Maximum Heating Supply Air Temperature
    13,                       !- Minimum Cooling Supply Air Temperature
    0.0156,                   !- Maximum Heating Supply Air Humidity Ratio
    0.0077,                   !- Minimum Cooling Supply Air Humidity Ratio
    NoLimit,                  !- Heating Limit
    ,                         !- Maximum Heating Air Flow Rate
    18226.93394999023,        !- Maximum Sensible Heating Capacity
    NoLimit,                  !- Cooling Limit
    ,                         !- Maximum Cooling Air Flow Rate
    ,                         !- Maximum Total Cooling Capacity
    ,                         !- Heating Availability Schedule Name
    ,                         !- Cooling Availability Schedule Name
    ConstantSensibleHeatRatio,    !- Dehumidification Control Type
    0.7,                      !- Cooling Sensible Heat Ratio
    60,                       !- Dehumidification Setpoint
    None,                     !- Humidification Control Type
    30,                       !- Humidification Setpoint
    Flow/Area,                !- Outdoor Air Method
    0.007,                    !- Outdoor Air Flow Rate per Person
    1.050000e-03,             !- Outdoor Air Flow Rate per Zone Floor Area
    0,                        !- Outdoor Air Flow Rate per Zone
    ,                         !- Design Specification Outdoor Air Object Name
    None,                     !- Demand Controlled Ventilation Type
    NoEconomizer,             !- Outdoor Air Economizer Type
    None,                     !- Heat Recovery Type
    0,                        !- Sensible Heat Recovery Effectiveness
    0;                        !- Latent Heat Recovery Effectiveness

OUTDOORAIR:NODE,
    Block Build0_Alt0 Storey 0 IDEAL LOADS OUTDOOR AIR INLET,    !- Name
    -1,                       !- Height Above Ground
    ,                         !- Drybulb Temperature Schedule Name
    ,                         !- Wetbulb Temperature Schedule Name
    ,                         !- Wind Speed Schedule Name
    ,                         !- Wind Direction Schedule Name
    ,                         !- Wind Pressure Coefficient Curve Name
    No,                       !- Symmetric Wind Pressure Coefficient Curve
    Absolute;                 !- Wind Angle Type

ENERGYMANAGEMENTSYSTEM:SENSOR,
    T0,                       !- Name
    Block Build0_Alt0 Storey 0,    !- OutputVariable or OutputMeter Index Key Name
    Zone Mean Air Temperature;    !- OutputVariable or OutputMeter Name

ENERGYMANAGEMENTSYSTEM:SENSOR,
    Pow0,                     !- Name
    Block Build0_Alt0 Storey 0 IDEAL LOADS AIR SYSTEM,    !- OutputVariable or OutputMeter Index Key Name
    Zone Ideal Loads Supply Air Total Heating Rate;    !- OutputVariable or OutputMeter Name

ENERGYMANAGEMENTSYSTEM:SENSOR,
    DHWPow,                   !- Name
    DHW,                      !- OutputVariable or OutputMeter Index Key Name
    Water Use Equipment Heating Rate;    !- OutputVariable or OutputMeter Name

ENERGYMANAGEMENTSYSTEM:PROGRAMCALLINGMANAGER,
    Average Building Temperature,    !- Name
    EndOfZoneTimestepBeforeZoneReporting,    !- EnergyPlus Model Calling Point
    AverageZoneTemps;         !- Program Name 1

ENERGYMANAGEMENTSYSTEM:PROGRAMCALLINGMANAGER,
    Compute Total Building Heat Pow,    !- Name
    EndOfZoneTimestepBeforeZoneReporting,    !- EnergyPlus Model Calling Point
    TotZonePow;               !- Program Name 1

ENERGYMANAGEMENTSYSTEM:PROGRAMCALLINGMANAGER,
    Compute Total DHW Heat Pow,    !- Name
    EndOfZoneTimestepBeforeZoneReporting,    !- EnergyPlus Model Calling Point
    prgmDHWPow;               !- Program Name 1

ENERGYMANAGEMENTSYSTEM:PROGRAM,
    AverageZoneTemps,         !- Name
    SET SumNumerator = T0*Vol0,    !- Program Line 1
    SET SumDenominator  = Vol0,    !- Program Line 2
    SET AverageBuildingTemp  = SumNumerator / SumDenominator;    !- Program Line 3

ENERGYMANAGEMENTSYSTEM:PROGRAM,
    TotZonePow,               !- Name
    SET TotBuildPow = Pow0;    !- Program Line 1

ENERGYMANAGEMENTSYSTEM:PROGRAM,
    prgmDHWPow,               !- Name
    SET TotDHWPow = DHWPow;    !- Program Line 1

ENERGYMANAGEMENTSYSTEM:GLOBALVARIABLE,
    AverageBuildingTemp;      !- Erl Variable 1 Name

ENERGYMANAGEMENTSYSTEM:GLOBALVARIABLE,
    TotBuildPow;              !- Erl Variable 1 Name

ENERGYMANAGEMENTSYSTEM:GLOBALVARIABLE,
    TotDHWPow;                !- Erl Variable 1 Name

ENERGYMANAGEMENTSYSTEM:OUTPUTVARIABLE,
    Mean Heated Zones Air Temperature,    !- Name
    AverageBuildingTemp,      !- EMS Variable Name
    Averaged,                 !- Type of Data in Variable
    ZoneTimeStep;             !- Update Frequency

ENERGYMANAGEMENTSYSTEM:OUTPUTVARIABLE,
    Total Building Heating Power,    !- Name
    TotBuildPow,              !- EMS Variable Name
    Averaged,                 !- Type of Data in Variable
    ZoneTimeStep;             !- Update Frequency

ENERGYMANAGEMENTSYSTEM:OUTPUTVARIABLE,
    Total DHW Heating Power,    !- Name
    TotDHWPow,                !- EMS Variable Name
    Averaged,                 !- Type of Data in Variable
    ZoneTimeStep;             !- Update Frequency

ENERGYMANAGEMENTSYSTEM:INTERNALVARIABLE,
    Vol0,                     !- Name
    Block Build0_Alt0 Storey 0,    !- Internal Data Index Key Name
    Zone Air Volume;          !- Internal Data Type

WATERUSE:EQUIPMENT,
    DHW,                      !- Name
    General,                  !- EndUse Subcategory
    1.875517e-09,             !- Peak Flow Rate
    WaterTaps,                !- Flow Rate Fraction Schedule Name
    TargetWaterTemp,          !- Target Temperature Schedule Name
    HotWaterTemp,             !- Hot Water Supply Temperature Schedule Name
    ColdWaterTemp;            !- Cold Water Supply Temperature Schedule Name

Output:VariableDictionary,
    Regular;                  !- Key Field

OUTPUT:ENERGYMANAGEMENTSYSTEM,
    Verbose,                  !- Actuator Availability Dictionary Reporting
    Verbose,                  !- Internal Variable Availability Dictionary Reporting
    Verbose;                  !- EMS Runtime Language Debug Output Level

Output:Table:SummaryReports,
    AllSummary;               !- Report 1 Name

OutputControl:Table:Style,
    HTML;                     !- Column Separator

OUTPUT:VARIABLE,
    *,                        !- Key Value
    Site Outdoor Air Drybulb Temperature,    !- Variable Name
    Hourly;                   !- Reporting Frequency

OUTPUT:VARIABLE,
    *,                        !- Key Value
    Site Outdoor Air Relative Humidity,    !- Variable Name
    Hourly;                   !- Reporting Frequency

OUTPUT:VARIABLE,
    *,                        !- Key Value
    Site Outdoor Air Barometric Pressure,    !- Variable Name
    Hourly;                   !- Reporting Frequency

OUTPUT:VARIABLE,
    *,                        !- Key Value
    Site Wind Speed,          !- Variable Name
    Hourly;                   !- Reporting Frequency

OUTPUT:VARIABLE,
    *,                        !- Key Value
    Site Diffuse Solar Radiation Rate per Area,    !- Variable Name
    Hourly;                   !- Reporting Frequency

OUTPUT:VARIABLE,
    *,                        !- Key Value
    Site Direct Solar Radiation Rate per Area,    !- Variable Name
    Hourly;                   !- Reporting Frequency

OUTPUT:VARIABLE,
    *,                        !- Key Value
    Zone Electric Equipment Electric Power,    !- Variable Name
    Hourly;                   !- Reporting Frequency

OUTPUT:VARIABLE,
    *,                        !- Key Value
    Zone Electric Equipment Total Heating Rate,    !- Variable Name
    Hourly;                   !- Reporting Frequency

OUTPUT:VARIABLE,
    *,                        !- Key Value
    Surface Outside Face Incident Solar Radiation Rate per Area,    !- Variable Name
    Hourly;                   !- Reporting Frequency

OUTPUT:VARIABLE,
    *,                        !- Key Value
    Surface Outside Face Incident Beam Solar Radiation Rate per Area,    !- Variable Name
    Hourly;                   !- Reporting Frequency

OUTPUT:VARIABLE,
    *,                        !- Key Value
    Zone Ideal Loads Supply Air Total Heating Rate,    !- Variable Name
    Hourly;                   !- Reporting Frequency

OUTPUT:VARIABLE,
    *,                        !- Key Value
    Water Use Equipment Hot Water Mass Flow Rate,    !- Variable Name
    Hourly;                   !- Reporting Frequency

OUTPUT:VARIABLE,
    *,                        !- Key Value
    Water Use Equipment Cold Water Mass Flow Rate,    !- Variable Name
    Hourly;                   !- Reporting Frequency

OUTPUT:VARIABLE,
    *,                        !- Key Value
    Water Use Equipment Hot Water Temperature,    !- Variable Name
    Hourly;                   !- Reporting Frequency

OUTPUT:VARIABLE,
    *,                        !- Key Value
    Water Use Equipment Cold Water Temperature,    !- Variable Name
    Hourly;                   !- Reporting Frequency

OUTPUT:VARIABLE,
    *,                        !- Key Value
    Water Use Equipment Heating Rate,    !- Variable Name
    Hourly;                   !- Reporting Frequency

OUTPUT:VARIABLE,
    *,                        !- Key Value
    Mean Heated Zones Air Temperature,    !- Variable Name
    Hourly;                   !- Reporting Frequency

OUTPUT:VARIABLE,
    *,                        !- Key Value
    Total Building Heating Power,    !- Variable Name
    Hourly;                   !- Reporting Frequency

OUTPUT:VARIABLE,
    *,                        !- Key Value
    Total DHW Heating Power,    !- Variable Name
    Hourly;                   !- Reporting Frequency

OUTPUT:DIAGNOSTICS,
    DISPLAYEXTRAWARNINGS,     !- Key 1
    DisplayAdvancedReportVariables;    !- Key 2