!- Darwin Line endings 

Version,
    9.5;                      !- Version Identifier

SimulationControl,
    No,                       !- Do Zone Sizing Calculation
    No,                       !- Do System Sizing Calculation
    No,                       !- Do Plant Sizing Calculation
    No,                       !- Run Simulation for Sizing Periods
    Yes,                      !- Run Simulation for Weather File Run Periods
    No,                       !- Do HVAC Sizing Simulation for Sizing Periods
    1;                        !- Maximum Number of HVAC Sizing Simulation Passes

Building,
    None,                     !- Name
    0,                        !- North Axis
    Suburbs,                  !- Terrain
    0.04,                     !- Loads Convergence Tolerance Value
    0.4,                      !- Temperature Convergence Tolerance Value
    FullExterior,             !- Solar Distribution
    25,                       !- Maximum Number of Warmup Days
    6;                        !- Minimum Number of Warmup Days

SHADOWCALCULATION,
    PolygonClipping,          !- Shading Calculation Method
    Periodic,                 !- Shading Calculation Update Frequency Method
    20,                       !- Shading Calculation Update Frequency
    25000,                    !- Maximum Figures in Shadow Overlap Calculations
    SutherlandHodgman,        !- Polygon Clipping Algorithm
    512,                      !- Pixel Counting Resolution
    SimpleSkyDiffuseModeling,    !- Sky Diffuse Modeling Algorithm
    No,                       !- Output External Shading Calculation Results
    No,                       !- Disable SelfShading Within Shading Zone Groups
    No;                       !- Disable SelfShading From Shading Zone Groups to Other Zones

Timestep,
    4;                        !- Number of Timesteps per Hour

Site:Location,
    WeatherData/USA_CA_San.Francisco.Intl.AP.724940_TMY3.epw,    !- Name
    37.62,                    !- Latitude
    -122.4,                   !- Longitude
    -8,                       !- Time Zone
    2;                        !- Elevation

SizingPeriod:DesignDay,
    DENVER_STAPLETON Ann Htg 99.6% Condns DB,    !- Name
    12,                       !- Month
    21,                       !- Day of Month
    WinterDesignDay,          !- Day Type
    -20,                      !- Maximum DryBulb Temperature
    0,                        !- Daily DryBulb Temperature Range
    ,                         !- DryBulb Temperature Range Modifier Type
    ,                         !- DryBulb Temperature Range Modifier Day Schedule Name
    Wetbulb,                  !- Humidity Condition Type
    -20,                      !- Wetbulb or DewPoint at Maximum DryBulb
    ,                         !- Humidity Condition Day Schedule Name
    ,                         !- Humidity Ratio at Maximum DryBulb
    ,                         !- Enthalpy at Maximum DryBulb
    ,                         !- Daily WetBulb Temperature Range
    100594,                   !- Barometric Pressure
    2.3,                      !- Wind Speed
    180,                      !- Wind Direction
    No,                       !- Rain Indicator
    No,                       !- Snow Indicator
    No,                       !- Daylight Saving Time Indicator
    ASHRAEClearSky,           !- Solar Model Indicator
    ,                         !- Beam Solar Day Schedule Name
    ,                         !- Diffuse Solar Day Schedule Name
    ,                         !- ASHRAE Clear Sky Optical Depth for Beam Irradiance taub
    ,                         !- ASHRAE Clear Sky Optical Depth for Diffuse Irradiance taud
    0;                        !- Sky Clearness

SizingPeriod:DesignDay,
    DENVER_STAPLETON Ann Clg .4% Condns DB=>MWB,    !- Name
    7,                        !- Month
    21,                       !- Day of Month
    SummerDesignDay,          !- Day Type
    34.1,                     !- Maximum DryBulb Temperature
    15.2,                     !- Daily DryBulb Temperature Range
    ,                         !- DryBulb Temperature Range Modifier Type
    ,                         !- DryBulb Temperature Range Modifier Day Schedule Name
    Wetbulb,                  !- Humidity Condition Type
    15.8,                     !- Wetbulb or DewPoint at Maximum DryBulb
    ,                         !- Humidity Condition Day Schedule Name
    ,                         !- Humidity Ratio at Maximum DryBulb
    ,                         !- Enthalpy at Maximum DryBulb
    ,                         !- Daily WetBulb Temperature Range
    100594,                   !- Barometric Pressure
    4,                        !- Wind Speed
    120,                      !- Wind Direction
    No,                       !- Rain Indicator
    No,                       !- Snow Indicator
    No,                       !- Daylight Saving Time Indicator
    ASHRAEClearSky,           !- Solar Model Indicator
    ,                         !- Beam Solar Day Schedule Name
    ,                         !- Diffuse Solar Day Schedule Name
    ,                         !- ASHRAE Clear Sky Optical Depth for Beam Irradiance taub
    ,                         !- ASHRAE Clear Sky Optical Depth for Diffuse Irradiance taud
    1;                        !- Sky Clearness

RunPeriod,
    Run Period 1,             !- Name
    1,                        !- Begin Month
    1,                        !- Begin Day of Month
    ,                         !- Begin Year
    12,                       !- End Month
    31,                       !- End Day of Month
    ,                         !- End Year
    Tuesday,                  !- Day of Week for Start Day
    Yes,                      !- Use Weather File Holidays and Special Days
    Yes,                      !- Use Weather File Daylight Saving Period
    No,                       !- Apply Weekend Holiday Rule
    Yes,                      !- Use Weather File Rain Indicators
    Yes;                      !- Use Weather File Snow Indicators

SITE:GROUNDTEMPERATURE:BUILDINGSURFACE,
    15,                       !- January Ground Temperature
    15,                       !- February Ground Temperature
    15,                       !- March Ground Temperature
    15,                       !- April Ground Temperature
    15,                       !- May Ground Temperature
    15,                       !- June Ground Temperature
    15,                       !- July Ground Temperature
    15,                       !- August Ground Temperature
    15,                       !- September Ground Temperature
    15,                       !- October Ground Temperature
    15,                       !- November Ground Temperature
    15;                       !- December Ground Temperature

SCHEDULETYPELIMITS,
    Any Number,               !- Name
    ,                         !- Lower Limit Value
    ,                         !- Upper Limit Value
    ,                         !- Numeric Type
    Dimensionless;            !- Unit Type

SCHEDULE:COMPACT,
    AlwaysON,                 !- Name
    Any Number,               !- Schedule Type Limits Name
    Through: 12/31,           !- Field 1
    For: AllDays,             !- Field 2
    Until: 24:00,             !- Field 3
    1;                        !- Field 4

SCHEDULE:COMPACT,
    OccupActivity,            !- Name
    Any Number,               !- Schedule Type Limits Name
    Through: 12/31,           !- Field 1
    For: AllDays,             !- Field 2
    Until: 24:00,             !- Field 3
    70;                       !- Field 4

SCHEDULE:COMPACT,
    HotWaterTemp,             !- Name
    Any Number,               !- Schedule Type Limits Name
    Through: 12/31,           !- Field 1
    For: AllDays,             !- Field 2
    Until: 24:00,             !- Field 3
    55;                       !- Field 4

SCHEDULE:COMPACT,
    TargetWaterTemp,          !- Name
    Any Number,               !- Schedule Type Limits Name
    Through: 12/31,           !- Field 1
    For: AllDays,             !- Field 2
    Until: 24:00,             !- Field 3
    37;                       !- Field 4

SCHEDULE:FILE,
    LoadSchedule,             !- Name
    Any Number,               !- Schedule Type Limits Name
    /Users/alizad/PycharmProjects/mubes-ubem/examples/ForTest/InputFiles/Building4_winter.txt,    !- File Name
    1,                        !- Column Number
    0,                        !- Rows to Skip at Top
    8760,                     !- Number of Hours of Data
    Comma,                    !- Column Separator
    No;                       !- Interpolate to Timestep

SCHEDULE:FILE,
    Watertaps,                !- Name
    Any Number,               !- Schedule Type Limits Name
    /Users/alizad/PycharmProjects/mubes-ubem/examples/ForTest/InputFiles/domestic_hot_water_40_apartments.txt,    !- File Name
    1,                        !- Column Number
    0,                        !- Rows to Skip at Top
    8760,                     !- Number of Hours of Data
    Comma,                    !- Column Separator
    No;                       !- Interpolate to Timestep

SCHEDULE:FILE,
    ColdWaterTemp,            !- Name
    Any Number,               !- Schedule Type Limits Name
    /Users/alizad/PycharmProjects/mubes-ubem/examples/ForTest/InputFiles/cold_water_temperature_stockholm.txt,    !- File Name
    1,                        !- Column Number
    0,                        !- Rows to Skip at Top
    8760,                     !- Number of Hours of Data
    Comma,                    !- Column Separator
    No;                       !- Interpolate to Timestep

MATERIAL,
    DefaultMaterial,          !- Name
    Rough,                    !- Roughness
    0.1,                      !- Thickness
    0.1,                      !- Conductivity
    1000,                     !- Density
    1000,                     !- Specific Heat
    0.9,                      !- Thermal Absorptance
    0.7,                      !- Solar Absorptance
    0.7;                      !- Visible Absorptance

MATERIAL,
    Basement Floor,           !- Name
    Rough,                    !- Roughness
    0.1,                      !- Thickness
    0.9,                      !- Conductivity
    2300,                     !- Density
    1000,                     !- Specific Heat
    0.9,                      !- Thermal Absorptance
    0.7,                      !- Solar Absorptance
    0.7;                      !- Visible Absorptance

MATERIAL,
    Heated1rstFloor Inertia,    !- Name
    Rough,                    !- Roughness
    0.1,                      !- Thickness
    0.9,                      !- Conductivity
    2300,                     !- Density
    1000,                     !- Specific Heat
    0.9,                      !- Thermal Absorptance
    0.7,                      !- Solar Absorptance
    0.7;                      !- Visible Absorptance

MATERIAL,
    Heated1rstFloor Insulation,    !- Name
    Rough,                    !- Roughness
    0.15,                     !- Thickness
    0.035,                    !- Conductivity
    150,                      !- Density
    1000,                     !- Specific Heat
    0.9,                      !- Thermal Absorptance
    0.7,                      !- Solar Absorptance
    0.7;                      !- Visible Absorptance

MATERIAL,
    Roof Insulation,          !- Name
    Rough,                    !- Roughness
    0.3,                      !- Thickness
    0.03,                     !- Conductivity
    150,                      !- Density
    1000,                     !- Specific Heat
    0.9,                      !- Thermal Absorptance
    0.7,                      !- Solar Absorptance
    0.7;                      !- Visible Absorptance

MATERIAL,
    Wall Inertia,             !- Name
    Rough,                    !- Roughness
    0.2,                      !- Thickness
    0.9,                      !- Conductivity
    2300,                     !- Density
    1000,                     !- Specific Heat
    0.9,                      !- Thermal Absorptance
    0.7,                      !- Solar Absorptance
    0.7;                      !- Visible Absorptance

MATERIAL,
    Wall Insulation,          !- Name
    Rough,                    !- Roughness
    0.2,                      !- Thickness
    0.03,                     !- Conductivity
    150,                      !- Density
    1000,                     !- Specific Heat
    0.9,                      !- Thermal Absorptance
    0.7,                      !- Solar Absorptance
    0.7;                      !- Visible Absorptance

MATERIAL,
    HeatedZoneIntMass,        !- Name
    Rough,                    !- Roughness
    0.1,                      !- Thickness
    0.3,                      !- Conductivity
    600,                      !- Density
    1400,                     !- Specific Heat
    0.9,                      !- Thermal Absorptance
    0.7,                      !- Solar Absorptance
    0.7;                      !- Visible Absorptance

MATERIAL,
    NonHeatedZoneIntMass,     !- Name
    Rough,                    !- Roughness
    0.1,                      !- Thickness
    0.3,                      !- Conductivity
    600,                      !- Density
    1400,                     !- Specific Heat
    0.9,                      !- Thermal Absorptance
    0.7,                      !- Solar Absorptance
    0.7;                      !- Visible Absorptance

MATERIAL,
    AirWallMaterial,          !- Name
    MediumSmooth,             !- Roughness
    0.01,                     !- Thickness
    0.6,                      !- Conductivity
    800,                      !- Density
    1000,                     !- Specific Heat
    0.95,                     !- Thermal Absorptance
    0.7,                      !- Solar Absorptance
    0.7;                      !- Visible Absorptance

WINDOWMATERIAL:SIMPLEGLAZINGSYSTEM,
    DefaultGlazing,           !- Name
    2.7,                      !- UFactor
    0.763,                    !- Solar Heat Gain Coefficient
    0.8;                      !- Visible Transmittance

WINDOWMATERIAL:SIMPLEGLAZINGSYSTEM,
    Window,                   !- Name
    1.9,                      !- UFactor
    0.7,                      !- Solar Heat Gain Coefficient
    0.8;                      !- Visible Transmittance

CONSTRUCTION,
    Project Wall,             !- Name
    Wall Inertia,             !- Outside Layer
    Wall Insulation;          !- Layer 2

CONSTRUCTION,
    Project Basement Wall,    !- Name
    Wall Inertia;             !- Outside Layer

CONSTRUCTION,
    Project Partition,        !- Name
    AirWallMaterial;          !- Outside Layer

CONSTRUCTION,
    Project Basement Floor,    !- Name
    Basement Floor;           !- Outside Layer

CONSTRUCTION,
    Project Flat Roof,        !- Name
    Roof Insulation;          !- Outside Layer

CONSTRUCTION,
    Project External Window,    !- Name
    Window;                   !- Outside Layer

CONSTRUCTION,
    Project Heated1rstFloor,    !- Name
    Heated1rstFloor Inertia,    !- Outside Layer
    Heated1rstFloor Insulation;    !- Layer 2

CONSTRUCTION,
    Project Heated1rstFloor Rev,    !- Name
    Heated1rstFloor Insulation,    !- Outside Layer
    Heated1rstFloor Inertia;    !- Layer 2

CONSTRUCTION,
    HeatedZoneIntMassObj,     !- Name
    HeatedZoneIntMass;        !- Outside Layer

CONSTRUCTION,
    NonHeatedZoneIntMassObj,    !- Name
    NonHeatedZoneIntMass;     !- Outside Layer

GlobalGeometryRules,
    UpperLeftCorner,          !- Starting Vertex Position
    CounterClockWise,         !- Vertex Entry Direction
    World;                    !- Coordinate System

ZONE,
    Block Build0_Alt0 Storey -1,    !- Name
    0,                        !- Direction of Relative North
    0,                        !- X Origin
    0,                        !- Y Origin
    0,                        !- Z Origin
    1,                        !- Type
    1,                        !- Multiplier
    autocalculate,            !- Ceiling Height
    autocalculate,            !- Volume
    autocalculate,            !- Floor Area
    ,                         !- Zone Inside Convection Algorithm
    ,                         !- Zone Outside Convection Algorithm
    Yes;                      !- Part of Total Floor Area

ZONE,
    Block Build0_Alt0 Storey 0,    !- Name
    0,                        !- Direction of Relative North
    0,                        !- X Origin
    0,                        !- Y Origin
    0,                        !- Z Origin
    1,                        !- Type
    1,                        !- Multiplier
    autocalculate,            !- Ceiling Height
    autocalculate,            !- Volume
    autocalculate,            !- Floor Area
    ,                         !- Zone Inside Convection Algorithm
    ,                         !- Zone Outside Convection Algorithm
    Yes;                      !- Part of Total Floor Area

ZONE,
    Block Build1_Alt0 Storey -1,    !- Name
    0,                        !- Direction of Relative North
    0,                        !- X Origin
    0,                        !- Y Origin
    0,                        !- Z Origin
    1,                        !- Type
    1,                        !- Multiplier
    autocalculate,            !- Ceiling Height
    autocalculate,            !- Volume
    autocalculate,            !- Floor Area
    ,                         !- Zone Inside Convection Algorithm
    ,                         !- Zone Outside Convection Algorithm
    Yes;                      !- Part of Total Floor Area

ZONE,
    Block Build1_Alt0 Storey 0,    !- Name
    0,                        !- Direction of Relative North
    0,                        !- X Origin
    0,                        !- Y Origin
    0,                        !- Z Origin
    1,                        !- Type
    1,                        !- Multiplier
    autocalculate,            !- Ceiling Height
    autocalculate,            !- Volume
    autocalculate,            !- Floor Area
    ,                         !- Zone Inside Convection Algorithm
    ,                         !- Zone Outside Convection Algorithm
    Yes;                      !- Part of Total Floor Area

BUILDINGSURFACE:DETAILED,
    Block Build0_Alt0 Storey -1 Wall 0004,    !- Name
    wall,                     !- Surface Type
    Project Basement Wall,    !- Construction Name
    Block Build0_Alt0 Storey -1,    !- Zone Name
    ground,                   !- Outside Boundary Condition
    ,                         !- Outside Boundary Condition Object
    NoSun,                    !- Sun Exposure
    NoWind,                   !- Wind Exposure
    autocalculate,            !- View Factor to Ground
    autocalculate,            !- Number of Vertices
    -5.9037,                  !- Vertex 1 Xcoordinate
    3.9794,                   !- Vertex 1 Ycoordinate
    0,                        !- Vertex 1 Zcoordinate
    -5.9037,                  !- Vertex 2 Xcoordinate
    3.9794,                   !- Vertex 2 Ycoordinate
    -5,                       !- Vertex 2 Zcoordinate
    -13.4307,                 !- Vertex 3 Xcoordinate
    -2.5876,                  !- Vertex 3 Ycoordinate
    -5,                       !- Vertex 3 Zcoordinate
    -13.4307,                 !- Vertex 4 Xcoordinate
    -2.5876,                  !- Vertex 4 Ycoordinate
    0;                        !- Vertex 4 Zcoordinate

BUILDINGSURFACE:DETAILED,
    Block Build0_Alt0 Storey -1 Wall 0005,    !- Name
    wall,                     !- Surface Type
    Project Basement Wall,    !- Construction Name
    Block Build0_Alt0 Storey -1,    !- Zone Name
    ground,                   !- Outside Boundary Condition
    ,                         !- Outside Boundary Condition Object
    NoSun,                    !- Sun Exposure
    NoWind,                   !- Wind Exposure
    autocalculate,            !- View Factor to Ground
    autocalculate,            !- Number of Vertices
    -13.4307,                 !- Vertex 1 Xcoordinate
    -2.5876,                  !- Vertex 1 Ycoordinate
    0,                        !- Vertex 1 Zcoordinate
    -13.4307,                 !- Vertex 2 Xcoordinate
    -2.5876,                  !- Vertex 2 Ycoordinate
    -5,                       !- Vertex 2 Zcoordinate
    -6.9937,                  !- Vertex 3 Xcoordinate
    -10.1076,                 !- Vertex 3 Ycoordinate
    -5,                       !- Vertex 3 Zcoordinate
    -6.9937,                  !- Vertex 4 Xcoordinate
    -10.1076,                 !- Vertex 4 Ycoordinate
    0;                        !- Vertex 4 Zcoordinate

BUILDINGSURFACE:DETAILED,
    Block Build0_Alt0 Storey -1 Wall 0006,    !- Name
    wall,                     !- Surface Type
    Project Basement Wall,    !- Construction Name
    Block Build0_Alt0 Storey -1,    !- Zone Name
    ground,                   !- Outside Boundary Condition
    ,                         !- Outside Boundary Condition Object
    NoSun,                    !- Sun Exposure
    NoWind,                   !- Wind Exposure
    autocalculate,            !- View Factor to Ground
    autocalculate,            !- Number of Vertices
    -6.9937,                  !- Vertex 1 Xcoordinate
    -10.1076,                 !- Vertex 1 Ycoordinate
    0,                        !- Vertex 1 Zcoordinate
    -6.9937,                  !- Vertex 2 Xcoordinate
    -10.1076,                 !- Vertex 2 Ycoordinate
    -5,                       !- Vertex 2 Zcoordinate
    -10.0327,                 !- Vertex 3 Xcoordinate
    -12.7076,                 !- Vertex 3 Ycoordinate
    -5,                       !- Vertex 3 Zcoordinate
    -10.0327,                 !- Vertex 4 Xcoordinate
    -12.7076,                 !- Vertex 4 Ycoordinate
    0;                        !- Vertex 4 Zcoordinate

BUILDINGSURFACE:DETAILED,
    Block Build0_Alt0 Storey -1 Wall 0007,    !- Name
    wall,                     !- Surface Type
    Project Basement Wall,    !- Construction Name
    Block Build0_Alt0 Storey -1,    !- Zone Name
    ground,                   !- Outside Boundary Condition
    ,                         !- Outside Boundary Condition Object
    NoSun,                    !- Sun Exposure
    NoWind,                   !- Wind Exposure
    autocalculate,            !- View Factor to Ground
    autocalculate,            !- Number of Vertices
    -10.0327,                 !- Vertex 1 Xcoordinate
    -12.7076,                 !- Vertex 1 Ycoordinate
    0,                        !- Vertex 1 Zcoordinate
    -10.0327,                 !- Vertex 2 Xcoordinate
    -12.7076,                 !- Vertex 2 Ycoordinate
    -5,                       !- Vertex 2 Zcoordinate
    -3.8017,                  !- Vertex 3 Xcoordinate
    -19.9906,                 !- Vertex 3 Ycoordinate
    -5,                       !- Vertex 3 Zcoordinate
    -3.8017,                  !- Vertex 4 Xcoordinate
    -19.9906,                 !- Vertex 4 Ycoordinate
    0;                        !- Vertex 4 Zcoordinate

BUILDINGSURFACE:DETAILED,
    Block Build0_Alt0 Storey -1 Wall 0008,    !- Name
    wall,                     !- Surface Type
    Project Basement Wall,    !- Construction Name
    Block Build0_Alt0 Storey -1,    !- Zone Name
    ground,                   !- Outside Boundary Condition
    ,                         !- Outside Boundary Condition Object
    NoSun,                    !- Sun Exposure
    NoWind,                   !- Wind Exposure
    autocalculate,            !- View Factor to Ground
    autocalculate,            !- Number of Vertices
    -3.8017,                  !- Vertex 1 Xcoordinate
    -19.9906,                 !- Vertex 1 Ycoordinate
    0,                        !- Vertex 1 Zcoordinate
    -3.8017,                  !- Vertex 2 Xcoordinate
    -19.9906,                 !- Vertex 2 Ycoordinate
    -5,                       !- Vertex 2 Zcoordinate
    4.0023,                   !- Vertex 3 Xcoordinate
    -13.3116,                 !- Vertex 3 Ycoordinate
    -5,                       !- Vertex 3 Zcoordinate
    4.0023,                   !- Vertex 4 Xcoordinate
    -13.3116,                 !- Vertex 4 Ycoordinate
    0;                        !- Vertex 4 Zcoordinate

BUILDINGSURFACE:DETAILED,
    Block Build0_Alt0 Storey -1 Wall 0009,    !- Name
    wall,                     !- Surface Type
    Project Basement Wall,    !- Construction Name
    Block Build0_Alt0 Storey -1,    !- Zone Name
    ground,                   !- Outside Boundary Condition
    ,                         !- Outside Boundary Condition Object
    NoSun,                    !- Sun Exposure
    NoWind,                   !- Wind Exposure
    autocalculate,            !- View Factor to Ground
    autocalculate,            !- Number of Vertices
    4.0023,                   !- Vertex 1 Xcoordinate
    -13.3116,                 !- Vertex 1 Ycoordinate
    0,                        !- Vertex 1 Zcoordinate
    4.0023,                   !- Vertex 2 Xcoordinate
    -13.3116,                 !- Vertex 2 Ycoordinate
    -5,                       !- Vertex 2 Zcoordinate
    6.6043,                   !- Vertex 3 Xcoordinate
    -16.3506,                 !- Vertex 3 Ycoordinate
    -5,                       !- Vertex 3 Zcoordinate
    6.6043,                   !- Vertex 4 Xcoordinate
    -16.3506,                 !- Vertex 4 Ycoordinate
    0;                        !- Vertex 4 Zcoordinate

BUILDINGSURFACE:DETAILED,
    Block Build0_Alt0 Storey -1 Wall 0010,    !- Name
    wall,                     !- Surface Type
    Project Basement Wall,    !- Construction Name
    Block Build0_Alt0 Storey -1,    !- Zone Name
    ground,                   !- Outside Boundary Condition
    ,                         !- Outside Boundary Condition Object
    NoSun,                    !- Sun Exposure
    NoWind,                   !- Wind Exposure
    autocalculate,            !- View Factor to Ground
    autocalculate,            !- Number of Vertices
    6.6043,                   !- Vertex 1 Xcoordinate
    -16.3506,                 !- Vertex 1 Ycoordinate
    0,                        !- Vertex 1 Zcoordinate
    6.6043,                   !- Vertex 2 Xcoordinate
    -16.3506,                 !- Vertex 2 Ycoordinate
    -5,                       !- Vertex 2 Zcoordinate
    11.7023,                  !- Vertex 3 Xcoordinate
    -11.9886,                 !- Vertex 3 Ycoordinate
    -5,                       !- Vertex 3 Zcoordinate
    11.7023,                  !- Vertex 4 Xcoordinate
    -11.9886,                 !- Vertex 4 Ycoordinate
    0;                        !- Vertex 4 Zcoordinate

BUILDINGSURFACE:DETAILED,
    Block Build0_Alt0 Storey -1 Wall 0011,    !- Name
    wall,                     !- Surface Type
    Project Basement Wall,    !- Construction Name
    Block Build0_Alt0 Storey -1,    !- Zone Name
    ground,                   !- Outside Boundary Condition
    ,                         !- Outside Boundary Condition Object
    NoSun,                    !- Sun Exposure
    NoWind,                   !- Wind Exposure
    autocalculate,            !- View Factor to Ground
    autocalculate,            !- Number of Vertices
    11.7023,                  !- Vertex 1 Xcoordinate
    -11.9886,                 !- Vertex 1 Ycoordinate
    0,                        !- Vertex 1 Zcoordinate
    11.7023,                  !- Vertex 2 Xcoordinate
    -11.9886,                 !- Vertex 2 Ycoordinate
    -5,                       !- Vertex 2 Zcoordinate
    9.1003,                   !- Vertex 3 Xcoordinate
    -8.9486,                  !- Vertex 3 Ycoordinate
    -5,                       !- Vertex 3 Zcoordinate
    9.1003,                   !- Vertex 4 Xcoordinate
    -8.9486,                  !- Vertex 4 Ycoordinate
    0;                        !- Vertex 4 Zcoordinate

BUILDINGSURFACE:DETAILED,
    Block Build0_Alt0 Storey -1 Wall 0012,    !- Name
    wall,                     !- Surface Type
    Project Basement Wall,    !- Construction Name
    Block Build0_Alt0 Storey -1,    !- Zone Name
    ground,                   !- Outside Boundary Condition
    ,                         !- Outside Boundary Condition Object
    NoSun,                    !- Sun Exposure
    NoWind,                   !- Wind Exposure
    autocalculate,            !- View Factor to Ground
    autocalculate,            !- Number of Vertices
    9.1003,                   !- Vertex 1 Xcoordinate
    -8.9486,                  !- Vertex 1 Ycoordinate
    0,                        !- Vertex 1 Zcoordinate
    9.1003,                   !- Vertex 2 Xcoordinate
    -8.9486,                  !- Vertex 2 Ycoordinate
    -5,                       !- Vertex 2 Zcoordinate
    21.5463,                  !- Vertex 3 Xcoordinate
    1.7004,                   !- Vertex 3 Ycoordinate
    -5,                       !- Vertex 3 Zcoordinate
    21.5463,                  !- Vertex 4 Xcoordinate
    1.7004,                   !- Vertex 4 Ycoordinate
    0;                        !- Vertex 4 Zcoordinate

BUILDINGSURFACE:DETAILED,
    Block Build0_Alt0 Storey -1 Wall 0013,    !- Name
    wall,                     !- Surface Type
    Project Basement Wall,    !- Construction Name
    Block Build0_Alt0 Storey -1,    !- Zone Name
    ground,                   !- Outside Boundary Condition
    ,                         !- Outside Boundary Condition Object
    NoSun,                    !- Sun Exposure
    NoWind,                   !- Wind Exposure
    autocalculate,            !- View Factor to Ground
    autocalculate,            !- Number of Vertices
    21.5463,                  !- Vertex 1 Xcoordinate
    1.7004,                   !- Vertex 1 Ycoordinate
    0,                        !- Vertex 1 Zcoordinate
    21.5463,                  !- Vertex 2 Xcoordinate
    1.7004,                   !- Vertex 2 Ycoordinate
    -5,                       !- Vertex 2 Zcoordinate
    24.1463,                  !- Vertex 3 Xcoordinate
    -1.3386,                  !- Vertex 3 Ycoordinate
    -5,                       !- Vertex 3 Zcoordinate
    24.1463,                  !- Vertex 4 Xcoordinate
    -1.3386,                  !- Vertex 4 Ycoordinate
    0;                        !- Vertex 4 Zcoordinate

BUILDINGSURFACE:DETAILED,
    Block Build0_Alt0 Storey -1 Wall 0014,    !- Name
    wall,                     !- Surface Type
    Project Basement Wall,    !- Construction Name
    Block Build0_Alt0 Storey -1,    !- Zone Name
    ground,                   !- Outside Boundary Condition
    ,                         !- Outside Boundary Condition Object
    NoSun,                    !- Sun Exposure
    NoWind,                   !- Wind Exposure
    autocalculate,            !- View Factor to Ground
    autocalculate,            !- Number of Vertices
    24.1463,                  !- Vertex 1 Xcoordinate
    -1.3386,                  !- Vertex 1 Ycoordinate
    0,                        !- Vertex 1 Zcoordinate
    24.1463,                  !- Vertex 2 Xcoordinate
    -1.3386,                  !- Vertex 2 Ycoordinate
    -5,                       !- Vertex 2 Zcoordinate
    29.2173,                  !- Vertex 3 Xcoordinate
    3.0024,                   !- Vertex 3 Ycoordinate
    -5,                       !- Vertex 3 Zcoordinate
    29.2173,                  !- Vertex 4 Xcoordinate
    3.0024,                   !- Vertex 4 Ycoordinate
    0;                        !- Vertex 4 Zcoordinate

BUILDINGSURFACE:DETAILED,
    Block Build0_Alt0 Storey -1 Wall 0015,    !- Name
    wall,                     !- Surface Type
    Project Basement Wall,    !- Construction Name
    Block Build0_Alt0 Storey -1,    !- Zone Name
    ground,                   !- Outside Boundary Condition
    ,                         !- Outside Boundary Condition Object
    NoSun,                    !- Sun Exposure
    NoWind,                   !- Wind Exposure
    autocalculate,            !- View Factor to Ground
    autocalculate,            !- Number of Vertices
    29.2173,                  !- Vertex 1 Xcoordinate
    3.0024,                   !- Vertex 1 Ycoordinate
    0,                        !- Vertex 1 Zcoordinate
    29.2173,                  !- Vertex 2 Xcoordinate
    3.0024,                   !- Vertex 2 Ycoordinate
    -5,                       !- Vertex 2 Zcoordinate
    26.6173,                  !- Vertex 3 Xcoordinate
    6.0404,                   !- Vertex 3 Ycoordinate
    -5,                       !- Vertex 3 Zcoordinate
    26.6173,                  !- Vertex 4 Xcoordinate
    6.0404,                   !- Vertex 4 Ycoordinate
    0;                        !- Vertex 4 Zcoordinate

BUILDINGSURFACE:DETAILED,
    Block Build0_Alt0 Storey -1 Wall 0016,    !- Name
    wall,                     !- Surface Type
    Project Basement Wall,    !- Construction Name
    Block Build0_Alt0 Storey -1,    !- Zone Name
    ground,                   !- Outside Boundary Condition
    ,                         !- Outside Boundary Condition Object
    NoSun,                    !- Sun Exposure
    NoWind,                   !- Wind Exposure
    autocalculate,            !- View Factor to Ground
    autocalculate,            !- Number of Vertices
    26.6173,                  !- Vertex 1 Xcoordinate
    6.0404,                   !- Vertex 1 Ycoordinate
    0,                        !- Vertex 1 Zcoordinate
    26.6173,                  !- Vertex 2 Xcoordinate
    6.0404,                   !- Vertex 2 Ycoordinate
    -5,                       !- Vertex 2 Zcoordinate
    30.7683,                  !- Vertex 3 Xcoordinate
    9.5934,                   !- Vertex 3 Ycoordinate
    -5,                       !- Vertex 3 Zcoordinate
    30.7683,                  !- Vertex 4 Xcoordinate
    9.5934,                   !- Vertex 4 Ycoordinate
    0;                        !- Vertex 4 Zcoordinate

BUILDINGSURFACE:DETAILED,
    Block Build0_Alt0 Storey -1 Wall 0017,    !- Name
    wall,                     !- Surface Type
    Project Basement Wall,    !- Construction Name
    Block Build0_Alt0 Storey -1,    !- Zone Name
    ground,                   !- Outside Boundary Condition
    ,                         !- Outside Boundary Condition Object
    NoSun,                    !- Sun Exposure
    NoWind,                   !- Wind Exposure
    autocalculate,            !- View Factor to Ground
    autocalculate,            !- Number of Vertices
    30.7683,                  !- Vertex 1 Xcoordinate
    9.5934,                   !- Vertex 1 Ycoordinate
    0,                        !- Vertex 1 Zcoordinate
    30.7683,                  !- Vertex 2 Xcoordinate
    9.5934,                   !- Vertex 2 Ycoordinate
    -5,                       !- Vertex 2 Zcoordinate
    18.0053,                  !- Vertex 3 Xcoordinate
    24.5094,                  !- Vertex 3 Ycoordinate
    -5,                       !- Vertex 3 Zcoordinate
    18.0053,                  !- Vertex 4 Xcoordinate
    24.5094,                  !- Vertex 4 Ycoordinate
    0;                        !- Vertex 4 Zcoordinate

BUILDINGSURFACE:DETAILED,
    Block Build0_Alt0 Storey -1 Wall 0018,    !- Name
    wall,                     !- Surface Type
    Project Basement Wall,    !- Construction Name
    Block Build0_Alt0 Storey -1,    !- Zone Name
    ground,                   !- Outside Boundary Condition
    ,                         !- Outside Boundary Condition Object
    NoSun,                    !- Sun Exposure
    NoWind,                   !- Wind Exposure
    autocalculate,            !- View Factor to Ground
    autocalculate,            !- Number of Vertices
    18.0053,                  !- Vertex 1 Xcoordinate
    24.5094,                  !- Vertex 1 Ycoordinate
    0,                        !- Vertex 1 Zcoordinate
    18.0053,                  !- Vertex 2 Xcoordinate
    24.5094,                  !- Vertex 2 Ycoordinate
    -5,                       !- Vertex 2 Zcoordinate
    8.6863,                   !- Vertex 3 Xcoordinate
    16.5524,                  !- Vertex 3 Ycoordinate
    -5,                       !- Vertex 3 Zcoordinate
    8.6863,                   !- Vertex 4 Xcoordinate
    16.5524,                  !- Vertex 4 Ycoordinate
    0;                        !- Vertex 4 Zcoordinate

BUILDINGSURFACE:DETAILED,
    Block Build0_Alt0 Storey -1 Floor 0001,    !- Name
    floor,                    !- Surface Type
    Project Basement Floor,    !- Construction Name
    Block Build0_Alt0 Storey -1,    !- Zone Name
    ground,                   !- Outside Boundary Condition
    ,                         !- Outside Boundary Condition Object
    NoSun,                    !- Sun Exposure
    NoWind,                   !- Wind Exposure
    autocalculate,            !- View Factor to Ground
    autocalculate,            !- Number of Vertices
    18.0053,                  !- Vertex 1 Xcoordinate
    24.5094,                  !- Vertex 1 Ycoordinate
    -5,                       !- Vertex 1 Zcoordinate
    30.7683,                  !- Vertex 2 Xcoordinate
    9.5934,                   !- Vertex 2 Ycoordinate
    -5,                       !- Vertex 2 Zcoordinate
    26.6173,                  !- Vertex 3 Xcoordinate
    6.0404,                   !- Vertex 3 Ycoordinate
    -5,                       !- Vertex 3 Zcoordinate
    29.2173,                  !- Vertex 4 Xcoordinate
    3.0024,                   !- Vertex 4 Ycoordinate
    -5,                       !- Vertex 4 Zcoordinate
    24.1463,                  !- Vertex 5 Xcoordinate
    -1.3386,                  !- Vertex 5 Ycoordinate
    -5,                       !- Vertex 5 Zcoordinate
    21.5463,                  !- Vertex 6 Xcoordinate
    1.7004,                   !- Vertex 6 Ycoordinate
    -5,                       !- Vertex 6 Zcoordinate
    9.1003,                   !- Vertex 7 Xcoordinate
    -8.9486,                  !- Vertex 7 Ycoordinate
    -5,                       !- Vertex 7 Zcoordinate
    11.7023,                  !- Vertex 8 Xcoordinate
    -11.9886,                 !- Vertex 8 Ycoordinate
    -5,                       !- Vertex 8 Zcoordinate
    6.6043,                   !- Vertex 9 Xcoordinate
    -16.3506,                 !- Vertex 9 Ycoordinate
    -5,                       !- Vertex 9 Zcoordinate
    4.0023,                   !- Vertex 10 Xcoordinate
    -13.3116,                 !- Vertex 10 Ycoordinate
    -5,                       !- Vertex 10 Zcoordinate
    -3.8017,                  !- Vertex 11 Xcoordinate
    -19.9906,                 !- Vertex 11 Ycoordinate
    -5,                       !- Vertex 11 Zcoordinate
    -10.0327,                 !- Vertex 12 Xcoordinate
    -12.7076,                 !- Vertex 12 Ycoordinate
    -5,                       !- Vertex 12 Zcoordinate
    -6.9937,                  !- Vertex 13 Xcoordinate
    -10.1076,                 !- Vertex 13 Ycoordinate
    -5,                       !- Vertex 13 Zcoordinate
    -13.4307,                 !- Vertex 14 Xcoordinate
    -2.5876,                  !- Vertex 14 Ycoordinate
    -5,                       !- Vertex 14 Zcoordinate
    -5.9037,                  !- Vertex 15 Xcoordinate
    3.9794,                   !- Vertex 15 Ycoordinate
    -5,                       !- Vertex 15 Zcoordinate
    0.634,                    !- Vertex 16 Xcoordinate
    0.0578,                   !- Vertex 16 Ycoordinate
    -5,                       !- Vertex 16 Zcoordinate
    11.5198,                  !- Vertex 17 Xcoordinate
    10.0731,                  !- Vertex 17 Ycoordinate
    -5,                       !- Vertex 17 Zcoordinate
    8.6863,                   !- Vertex 18 Xcoordinate
    16.5524,                  !- Vertex 18 Ycoordinate
    -5;                       !- Vertex 18 Zcoordinate

BUILDINGSURFACE:DETAILED,
    Block Build0_Alt0 Storey 0 Wall 0004,    !- Name
    wall,                     !- Surface Type
    Project Wall,             !- Construction Name
    Block Build0_Alt0 Storey 0,    !- Zone Name
    outdoors,                 !- Outside Boundary Condition
    ,                         !- Outside Boundary Condition Object
    SunExposed,               !- Sun Exposure
    WindExposed,              !- Wind Exposure
    autocalculate,            !- View Factor to Ground
    autocalculate,            !- Number of Vertices
    -5.9037,                  !- Vertex 1 Xcoordinate
    3.9794,                   !- Vertex 1 Ycoordinate
    15,                       !- Vertex 1 Zcoordinate
    -5.9037,                  !- Vertex 2 Xcoordinate
    3.9794,                   !- Vertex 2 Ycoordinate
    0,                        !- Vertex 2 Zcoordinate
    -13.4307,                 !- Vertex 3 Xcoordinate
    -2.5876,                  !- Vertex 3 Ycoordinate
    0,                        !- Vertex 3 Zcoordinate
    -13.4307,                 !- Vertex 4 Xcoordinate
    -2.5876,                  !- Vertex 4 Ycoordinate
    15;                       !- Vertex 4 Zcoordinate

BUILDINGSURFACE:DETAILED,
    Block Build0_Alt0 Storey 0 Wall 0005,    !- Name
    wall,                     !- Surface Type
    Project Wall,             !- Construction Name
    Block Build0_Alt0 Storey 0,    !- Zone Name
    outdoors,                 !- Outside Boundary Condition
    ,                         !- Outside Boundary Condition Object
    SunExposed,               !- Sun Exposure
    WindExposed,              !- Wind Exposure
    autocalculate,            !- View Factor to Ground
    autocalculate,            !- Number of Vertices
    -13.4307,                 !- Vertex 1 Xcoordinate
    -2.5876,                  !- Vertex 1 Ycoordinate
    15,                       !- Vertex 1 Zcoordinate
    -13.4307,                 !- Vertex 2 Xcoordinate
    -2.5876,                  !- Vertex 2 Ycoordinate
    0,                        !- Vertex 2 Zcoordinate
    -6.9937,                  !- Vertex 3 Xcoordinate
    -10.1076,                 !- Vertex 3 Ycoordinate
    0,                        !- Vertex 3 Zcoordinate
    -6.9937,                  !- Vertex 4 Xcoordinate
    -10.1076,                 !- Vertex 4 Ycoordinate
    15;                       !- Vertex 4 Zcoordinate

BUILDINGSURFACE:DETAILED,
    Block Build0_Alt0 Storey 0 Wall 0006,    !- Name
    wall,                     !- Surface Type
    Project Wall,             !- Construction Name
    Block Build0_Alt0 Storey 0,    !- Zone Name
    outdoors,                 !- Outside Boundary Condition
    ,                         !- Outside Boundary Condition Object
    SunExposed,               !- Sun Exposure
    WindExposed,              !- Wind Exposure
    autocalculate,            !- View Factor to Ground
    autocalculate,            !- Number of Vertices
    -6.9937,                  !- Vertex 1 Xcoordinate
    -10.1076,                 !- Vertex 1 Ycoordinate
    15,                       !- Vertex 1 Zcoordinate
    -6.9937,                  !- Vertex 2 Xcoordinate
    -10.1076,                 !- Vertex 2 Ycoordinate
    0,                        !- Vertex 2 Zcoordinate
    -10.0327,                 !- Vertex 3 Xcoordinate
    -12.7076,                 !- Vertex 3 Ycoordinate
    0,                        !- Vertex 3 Zcoordinate
    -10.0327,                 !- Vertex 4 Xcoordinate
    -12.7076,                 !- Vertex 4 Ycoordinate
    15;                       !- Vertex 4 Zcoordinate

BUILDINGSURFACE:DETAILED,
    Block Build0_Alt0 Storey 0 Wall 0007,    !- Name
    wall,                     !- Surface Type
    Project Wall,             !- Construction Name
    Block Build0_Alt0 Storey 0,    !- Zone Name
    outdoors,                 !- Outside Boundary Condition
    ,                         !- Outside Boundary Condition Object
    SunExposed,               !- Sun Exposure
    WindExposed,              !- Wind Exposure
    autocalculate,            !- View Factor to Ground
    autocalculate,            !- Number of Vertices
    -10.0327,                 !- Vertex 1 Xcoordinate
    -12.7076,                 !- Vertex 1 Ycoordinate
    15,                       !- Vertex 1 Zcoordinate
    -10.0327,                 !- Vertex 2 Xcoordinate
    -12.7076,                 !- Vertex 2 Ycoordinate
    0,                        !- Vertex 2 Zcoordinate
    -3.8017,                  !- Vertex 3 Xcoordinate
    -19.9906,                 !- Vertex 3 Ycoordinate
    0,                        !- Vertex 3 Zcoordinate
    -3.8017,                  !- Vertex 4 Xcoordinate
    -19.9906,                 !- Vertex 4 Ycoordinate
    15;                       !- Vertex 4 Zcoordinate

BUILDINGSURFACE:DETAILED,
    Block Build0_Alt0 Storey 0 Wall 0008,    !- Name
    wall,                     !- Surface Type
    Project Wall,             !- Construction Name
    Block Build0_Alt0 Storey 0,    !- Zone Name
    outdoors,                 !- Outside Boundary Condition
    ,                         !- Outside Boundary Condition Object
    SunExposed,               !- Sun Exposure
    WindExposed,              !- Wind Exposure
    autocalculate,            !- View Factor to Ground
    autocalculate,            !- Number of Vertices
    -3.8017,                  !- Vertex 1 Xcoordinate
    -19.9906,                 !- Vertex 1 Ycoordinate
    15,                       !- Vertex 1 Zcoordinate
    -3.8017,                  !- Vertex 2 Xcoordinate
    -19.9906,                 !- Vertex 2 Ycoordinate
    0,                        !- Vertex 2 Zcoordinate
    4.0023,                   !- Vertex 3 Xcoordinate
    -13.3116,                 !- Vertex 3 Ycoordinate
    0,                        !- Vertex 3 Zcoordinate
    4.0023,                   !- Vertex 4 Xcoordinate
    -13.3116,                 !- Vertex 4 Ycoordinate
    15;                       !- Vertex 4 Zcoordinate

BUILDINGSURFACE:DETAILED,
    Block Build0_Alt0 Storey 0 Wall 0009,    !- Name
    wall,                     !- Surface Type
    Project Wall,             !- Construction Name
    Block Build0_Alt0 Storey 0,    !- Zone Name
    outdoors,                 !- Outside Boundary Condition
    ,                         !- Outside Boundary Condition Object
    SunExposed,               !- Sun Exposure
    WindExposed,              !- Wind Exposure
    autocalculate,            !- View Factor to Ground
    autocalculate,            !- Number of Vertices
    4.0023,                   !- Vertex 1 Xcoordinate
    -13.3116,                 !- Vertex 1 Ycoordinate
    15,                       !- Vertex 1 Zcoordinate
    4.0023,                   !- Vertex 2 Xcoordinate
    -13.3116,                 !- Vertex 2 Ycoordinate
    0,                        !- Vertex 2 Zcoordinate
    6.6043,                   !- Vertex 3 Xcoordinate
    -16.3506,                 !- Vertex 3 Ycoordinate
    0,                        !- Vertex 3 Zcoordinate
    6.6043,                   !- Vertex 4 Xcoordinate
    -16.3506,                 !- Vertex 4 Ycoordinate
    15;                       !- Vertex 4 Zcoordinate

BUILDINGSURFACE:DETAILED,
    Block Build0_Alt0 Storey 0 Wall 0010,    !- Name
    wall,                     !- Surface Type
    Project Wall,             !- Construction Name
    Block Build0_Alt0 Storey 0,    !- Zone Name
    outdoors,                 !- Outside Boundary Condition
    ,                         !- Outside Boundary Condition Object
    SunExposed,               !- Sun Exposure
    WindExposed,              !- Wind Exposure
    autocalculate,            !- View Factor to Ground
    autocalculate,            !- Number of Vertices
    6.6043,                   !- Vertex 1 Xcoordinate
    -16.3506,                 !- Vertex 1 Ycoordinate
    15,                       !- Vertex 1 Zcoordinate
    6.6043,                   !- Vertex 2 Xcoordinate
    -16.3506,                 !- Vertex 2 Ycoordinate
    0,                        !- Vertex 2 Zcoordinate
    11.7023,                  !- Vertex 3 Xcoordinate
    -11.9886,                 !- Vertex 3 Ycoordinate
    0,                        !- Vertex 3 Zcoordinate
    11.7023,                  !- Vertex 4 Xcoordinate
    -11.9886,                 !- Vertex 4 Ycoordinate
    15;                       !- Vertex 4 Zcoordinate

BUILDINGSURFACE:DETAILED,
    Block Build0_Alt0 Storey 0 Wall 0011,    !- Name
    wall,                     !- Surface Type
    Project Wall,             !- Construction Name
    Block Build0_Alt0 Storey 0,    !- Zone Name
    outdoors,                 !- Outside Boundary Condition
    ,                         !- Outside Boundary Condition Object
    SunExposed,               !- Sun Exposure
    WindExposed,              !- Wind Exposure
    autocalculate,            !- View Factor to Ground
    autocalculate,            !- Number of Vertices
    11.7023,                  !- Vertex 1 Xcoordinate
    -11.9886,                 !- Vertex 1 Ycoordinate
    15,                       !- Vertex 1 Zcoordinate
    11.7023,                  !- Vertex 2 Xcoordinate
    -11.9886,                 !- Vertex 2 Ycoordinate
    0,                        !- Vertex 2 Zcoordinate
    9.1003,                   !- Vertex 3 Xcoordinate
    -8.9486,                  !- Vertex 3 Ycoordinate
    0,                        !- Vertex 3 Zcoordinate
    9.1003,                   !- Vertex 4 Xcoordinate
    -8.9486,                  !- Vertex 4 Ycoordinate
    15;                       !- Vertex 4 Zcoordinate

BUILDINGSURFACE:DETAILED,
    Block Build0_Alt0 Storey 0 Wall 0012,    !- Name
    wall,                     !- Surface Type
    Project Wall,             !- Construction Name
    Block Build0_Alt0 Storey 0,    !- Zone Name
    outdoors,                 !- Outside Boundary Condition
    ,                         !- Outside Boundary Condition Object
    SunExposed,               !- Sun Exposure
    WindExposed,              !- Wind Exposure
    autocalculate,            !- View Factor to Ground
    autocalculate,            !- Number of Vertices
    9.1003,                   !- Vertex 1 Xcoordinate
    -8.9486,                  !- Vertex 1 Ycoordinate
    15,                       !- Vertex 1 Zcoordinate
    9.1003,                   !- Vertex 2 Xcoordinate
    -8.9486,                  !- Vertex 2 Ycoordinate
    0,                        !- Vertex 2 Zcoordinate
    21.5463,                  !- Vertex 3 Xcoordinate
    1.7004,                   !- Vertex 3 Ycoordinate
    0,                        !- Vertex 3 Zcoordinate
    21.5463,                  !- Vertex 4 Xcoordinate
    1.7004,                   !- Vertex 4 Ycoordinate
    15;                       !- Vertex 4 Zcoordinate

BUILDINGSURFACE:DETAILED,
    Block Build0_Alt0 Storey 0 Wall 0013,    !- Name
    wall,                     !- Surface Type
    Project Wall,             !- Construction Name
    Block Build0_Alt0 Storey 0,    !- Zone Name
    outdoors,                 !- Outside Boundary Condition
    ,                         !- Outside Boundary Condition Object
    SunExposed,               !- Sun Exposure
    WindExposed,              !- Wind Exposure
    autocalculate,            !- View Factor to Ground
    autocalculate,            !- Number of Vertices
    21.5463,                  !- Vertex 1 Xcoordinate
    1.7004,                   !- Vertex 1 Ycoordinate
    15,                       !- Vertex 1 Zcoordinate
    21.5463,                  !- Vertex 2 Xcoordinate
    1.7004,                   !- Vertex 2 Ycoordinate
    0,                        !- Vertex 2 Zcoordinate
    24.1463,                  !- Vertex 3 Xcoordinate
    -1.3386,                  !- Vertex 3 Ycoordinate
    0,                        !- Vertex 3 Zcoordinate
    24.1463,                  !- Vertex 4 Xcoordinate
    -1.3386,                  !- Vertex 4 Ycoordinate
    15;                       !- Vertex 4 Zcoordinate

BUILDINGSURFACE:DETAILED,
    Block Build0_Alt0 Storey 0 Wall 0014,    !- Name
    wall,                     !- Surface Type
    Project Wall,             !- Construction Name
    Block Build0_Alt0 Storey 0,    !- Zone Name
    outdoors,                 !- Outside Boundary Condition
    ,                         !- Outside Boundary Condition Object
    SunExposed,               !- Sun Exposure
    WindExposed,              !- Wind Exposure
    autocalculate,            !- View Factor to Ground
    autocalculate,            !- Number of Vertices
    24.1463,                  !- Vertex 1 Xcoordinate
    -1.3386,                  !- Vertex 1 Ycoordinate
    15,                       !- Vertex 1 Zcoordinate
    24.1463,                  !- Vertex 2 Xcoordinate
    -1.3386,                  !- Vertex 2 Ycoordinate
    0,                        !- Vertex 2 Zcoordinate
    29.2173,                  !- Vertex 3 Xcoordinate
    3.0024,                   !- Vertex 3 Ycoordinate
    0,                        !- Vertex 3 Zcoordinate
    29.2173,                  !- Vertex 4 Xcoordinate
    3.0024,                   !- Vertex 4 Ycoordinate
    15;                       !- Vertex 4 Zcoordinate

BUILDINGSURFACE:DETAILED,
    Block Build0_Alt0 Storey 0 Wall 0015,    !- Name
    wall,                     !- Surface Type
    Project Wall,             !- Construction Name
    Block Build0_Alt0 Storey 0,    !- Zone Name
    outdoors,                 !- Outside Boundary Condition
    ,                         !- Outside Boundary Condition Object
    SunExposed,               !- Sun Exposure
    WindExposed,              !- Wind Exposure
    autocalculate,            !- View Factor to Ground
    autocalculate,            !- Number of Vertices
    29.2173,                  !- Vertex 1 Xcoordinate
    3.0024,                   !- Vertex 1 Ycoordinate
    15,                       !- Vertex 1 Zcoordinate
    29.2173,                  !- Vertex 2 Xcoordinate
    3.0024,                   !- Vertex 2 Ycoordinate
    0,                        !- Vertex 2 Zcoordinate
    26.6173,                  !- Vertex 3 Xcoordinate
    6.0404,                   !- Vertex 3 Ycoordinate
    0,                        !- Vertex 3 Zcoordinate
    26.6173,                  !- Vertex 4 Xcoordinate
    6.0404,                   !- Vertex 4 Ycoordinate
    15;                       !- Vertex 4 Zcoordinate

BUILDINGSURFACE:DETAILED,
    Block Build0_Alt0 Storey 0 Wall 0016,    !- Name
    wall,                     !- Surface Type
    Project Wall,             !- Construction Name
    Block Build0_Alt0 Storey 0,    !- Zone Name
    outdoors,                 !- Outside Boundary Condition
    ,                         !- Outside Boundary Condition Object
    SunExposed,               !- Sun Exposure
    WindExposed,              !- Wind Exposure
    autocalculate,            !- View Factor to Ground
    autocalculate,            !- Number of Vertices
    26.6173,                  !- Vertex 1 Xcoordinate
    6.0404,                   !- Vertex 1 Ycoordinate
    15,                       !- Vertex 1 Zcoordinate
    26.6173,                  !- Vertex 2 Xcoordinate
    6.0404,                   !- Vertex 2 Ycoordinate
    0,                        !- Vertex 2 Zcoordinate
    30.7683,                  !- Vertex 3 Xcoordinate
    9.5934,                   !- Vertex 3 Ycoordinate
    0,                        !- Vertex 3 Zcoordinate
    30.7683,                  !- Vertex 4 Xcoordinate
    9.5934,                   !- Vertex 4 Ycoordinate
    15;                       !- Vertex 4 Zcoordinate

BUILDINGSURFACE:DETAILED,
    Block Build0_Alt0 Storey 0 Wall 0017,    !- Name
    wall,                     !- Surface Type
    Project Wall,             !- Construction Name
    Block Build0_Alt0 Storey 0,    !- Zone Name
    outdoors,                 !- Outside Boundary Condition
    ,                         !- Outside Boundary Condition Object
    SunExposed,               !- Sun Exposure
    WindExposed,              !- Wind Exposure
    autocalculate,            !- View Factor to Ground
    autocalculate,            !- Number of Vertices
    30.7683,                  !- Vertex 1 Xcoordinate
    9.5934,                   !- Vertex 1 Ycoordinate
    15,                       !- Vertex 1 Zcoordinate
    30.7683,                  !- Vertex 2 Xcoordinate
    9.5934,                   !- Vertex 2 Ycoordinate
    0,                        !- Vertex 2 Zcoordinate
    18.0053,                  !- Vertex 3 Xcoordinate
    24.5094,                  !- Vertex 3 Ycoordinate
    0,                        !- Vertex 3 Zcoordinate
    18.0053,                  !- Vertex 4 Xcoordinate
    24.5094,                  !- Vertex 4 Ycoordinate
    15;                       !- Vertex 4 Zcoordinate

BUILDINGSURFACE:DETAILED,
    Block Build0_Alt0 Storey 0 Wall 0018,    !- Name
    wall,                     !- Surface Type
    Project Wall,             !- Construction Name
    Block Build0_Alt0 Storey 0,    !- Zone Name
    outdoors,                 !- Outside Boundary Condition
    ,                         !- Outside Boundary Condition Object
    SunExposed,               !- Sun Exposure
    WindExposed,              !- Wind Exposure
    autocalculate,            !- View Factor to Ground
    autocalculate,            !- Number of Vertices
    18.0053,                  !- Vertex 1 Xcoordinate
    24.5094,                  !- Vertex 1 Ycoordinate
    15,                       !- Vertex 1 Zcoordinate
    18.0053,                  !- Vertex 2 Xcoordinate
    24.5094,                  !- Vertex 2 Ycoordinate
    0,                        !- Vertex 2 Zcoordinate
    8.6863,                   !- Vertex 3 Xcoordinate
    16.5524,                  !- Vertex 3 Ycoordinate
    0,                        !- Vertex 3 Zcoordinate
    8.6863,                   !- Vertex 4 Xcoordinate
    16.5524,                  !- Vertex 4 Ycoordinate
    15;                       !- Vertex 4 Zcoordinate

BUILDINGSURFACE:DETAILED,
    Block Build1_Alt0 Storey -1 Wall 0001,    !- Name
    wall,                     !- Surface Type
    Project Basement Wall,    !- Construction Name
    Block Build1_Alt0 Storey -1,    !- Zone Name
    ground,                   !- Outside Boundary Condition
    ,                         !- Outside Boundary Condition Object
    NoSun,                    !- Sun Exposure
    NoWind,                   !- Wind Exposure
    autocalculate,            !- View Factor to Ground
    autocalculate,            !- Number of Vertices
    8.6863,                   !- Vertex 1 Xcoordinate
    16.5524,                  !- Vertex 1 Ycoordinate
    0,                        !- Vertex 1 Zcoordinate
    8.6863,                   !- Vertex 2 Xcoordinate
    16.5524,                  !- Vertex 2 Ycoordinate
    -5,                       !- Vertex 2 Zcoordinate
    -1.8427,                  !- Vertex 3 Xcoordinate
    17.1874,                  !- Vertex 3 Ycoordinate
    -5,                       !- Vertex 3 Zcoordinate
    -1.8427,                  !- Vertex 4 Xcoordinate
    17.1874,                  !- Vertex 4 Ycoordinate
    0;                        !- Vertex 4 Zcoordinate

BUILDINGSURFACE:DETAILED,
    Block Build1_Alt0 Storey -1 Wall 0002,    !- Name
    wall,                     !- Surface Type
    Project Basement Wall,    !- Construction Name
    Block Build1_Alt0 Storey -1,    !- Zone Name
    ground,                   !- Outside Boundary Condition
    ,                         !- Outside Boundary Condition Object
    NoSun,                    !- Sun Exposure
    NoWind,                   !- Wind Exposure
    autocalculate,            !- View Factor to Ground
    autocalculate,            !- Number of Vertices
    -1.8427,                  !- Vertex 1 Xcoordinate
    17.1874,                  !- Vertex 1 Ycoordinate
    0,                        !- Vertex 1 Zcoordinate
    -1.8427,                  !- Vertex 2 Xcoordinate
    17.1874,                  !- Vertex 2 Ycoordinate
    -5,                       !- Vertex 2 Zcoordinate
    -4.9637,                  !- Vertex 3 Xcoordinate
    14.5654,                  !- Vertex 3 Ycoordinate
    -5,                       !- Vertex 3 Zcoordinate
    -4.9637,                  !- Vertex 4 Xcoordinate
    14.5654,                  !- Vertex 4 Ycoordinate
    0;                        !- Vertex 4 Zcoordinate

BUILDINGSURFACE:DETAILED,
    Block Build1_Alt0 Storey -1 Wall 0003,    !- Name
    wall,                     !- Surface Type
    Project Basement Wall,    !- Construction Name
    Block Build1_Alt0 Storey -1,    !- Zone Name
    ground,                   !- Outside Boundary Condition
    ,                         !- Outside Boundary Condition Object
    NoSun,                    !- Sun Exposure
    NoWind,                   !- Wind Exposure
    autocalculate,            !- View Factor to Ground
    autocalculate,            !- Number of Vertices
    -4.9637,                  !- Vertex 1 Xcoordinate
    14.5654,                  !- Vertex 1 Ycoordinate
    0,                        !- Vertex 1 Zcoordinate
    -4.9637,                  !- Vertex 2 Xcoordinate
    14.5654,                  !- Vertex 2 Ycoordinate
    -5,                       !- Vertex 2 Zcoordinate
    -5.9037,                  !- Vertex 3 Xcoordinate
    3.9794,                   !- Vertex 3 Ycoordinate
    -5,                       !- Vertex 3 Zcoordinate
    -5.9037,                  !- Vertex 4 Xcoordinate
    3.9794,                   !- Vertex 4 Ycoordinate
    0;                        !- Vertex 4 Zcoordinate

BUILDINGSURFACE:DETAILED,
    Block Build1_Alt0 Storey -1 Floor 0001,    !- Name
    floor,                    !- Surface Type
    Project Basement Floor,    !- Construction Name
    Block Build1_Alt0 Storey -1,    !- Zone Name
    ground,                   !- Outside Boundary Condition
    ,                         !- Outside Boundary Condition Object
    NoSun,                    !- Sun Exposure
    NoWind,                   !- Wind Exposure
    autocalculate,            !- View Factor to Ground
    autocalculate,            !- Number of Vertices
    8.6863,                   !- Vertex 1 Xcoordinate
    16.5524,                  !- Vertex 1 Ycoordinate
    -5,                       !- Vertex 1 Zcoordinate
    11.5198,                  !- Vertex 2 Xcoordinate
    10.0731,                  !- Vertex 2 Ycoordinate
    -5,                       !- Vertex 2 Zcoordinate
    0.634,                    !- Vertex 3 Xcoordinate
    0.0578,                   !- Vertex 3 Ycoordinate
    -5,                       !- Vertex 3 Zcoordinate
    -5.9037,                  !- Vertex 4 Xcoordinate
    3.9794,                   !- Vertex 4 Ycoordinate
    -5,                       !- Vertex 4 Zcoordinate
    -4.9637,                  !- Vertex 5 Xcoordinate
    14.5654,                  !- Vertex 5 Ycoordinate
    -5,                       !- Vertex 5 Zcoordinate
    -1.8427,                  !- Vertex 6 Xcoordinate
    17.1874,                  !- Vertex 6 Ycoordinate
    -5;                       !- Vertex 6 Zcoordinate

BUILDINGSURFACE:DETAILED,
    Block Build1_Alt0 Storey 0 Wall 0001,    !- Name
    wall,                     !- Surface Type
    Project Wall,             !- Construction Name
    Block Build1_Alt0 Storey 0,    !- Zone Name
    outdoors,                 !- Outside Boundary Condition
    ,                         !- Outside Boundary Condition Object
    SunExposed,               !- Sun Exposure
    WindExposed,              !- Wind Exposure
    autocalculate,            !- View Factor to Ground
    autocalculate,            !- Number of Vertices
    8.6863,                   !- Vertex 1 Xcoordinate
    16.5524,                  !- Vertex 1 Ycoordinate
    3,                        !- Vertex 1 Zcoordinate
    8.6863,                   !- Vertex 2 Xcoordinate
    16.5524,                  !- Vertex 2 Ycoordinate
    0,                        !- Vertex 2 Zcoordinate
    -1.8427,                  !- Vertex 3 Xcoordinate
    17.1874,                  !- Vertex 3 Ycoordinate
    0,                        !- Vertex 3 Zcoordinate
    -1.8427,                  !- Vertex 4 Xcoordinate
    17.1874,                  !- Vertex 4 Ycoordinate
    3;                        !- Vertex 4 Zcoordinate

BUILDINGSURFACE:DETAILED,
    Block Build1_Alt0 Storey 0 Wall 0002,    !- Name
    wall,                     !- Surface Type
    Project Wall,             !- Construction Name
    Block Build1_Alt0 Storey 0,    !- Zone Name
    outdoors,                 !- Outside Boundary Condition
    ,                         !- Outside Boundary Condition Object
    SunExposed,               !- Sun Exposure
    WindExposed,              !- Wind Exposure
    autocalculate,            !- View Factor to Ground
    autocalculate,            !- Number of Vertices
    -1.8427,                  !- Vertex 1 Xcoordinate
    17.1874,                  !- Vertex 1 Ycoordinate
    3,                        !- Vertex 1 Zcoordinate
    -1.8427,                  !- Vertex 2 Xcoordinate
    17.1874,                  !- Vertex 2 Ycoordinate
    0,                        !- Vertex 2 Zcoordinate
    -4.9637,                  !- Vertex 3 Xcoordinate
    14.5654,                  !- Vertex 3 Ycoordinate
    0,                        !- Vertex 3 Zcoordinate
    -4.9637,                  !- Vertex 4 Xcoordinate
    14.5654,                  !- Vertex 4 Ycoordinate
    3;                        !- Vertex 4 Zcoordinate

BUILDINGSURFACE:DETAILED,
    Block Build1_Alt0 Storey 0 Wall 0003,    !- Name
    wall,                     !- Surface Type
    Project Wall,             !- Construction Name
    Block Build1_Alt0 Storey 0,    !- Zone Name
    outdoors,                 !- Outside Boundary Condition
    ,                         !- Outside Boundary Condition Object
    SunExposed,               !- Sun Exposure
    WindExposed,              !- Wind Exposure
    autocalculate,            !- View Factor to Ground
    autocalculate,            !- Number of Vertices
    -4.9637,                  !- Vertex 1 Xcoordinate
    14.5654,                  !- Vertex 1 Ycoordinate
    3,                        !- Vertex 1 Zcoordinate
    -4.9637,                  !- Vertex 2 Xcoordinate
    14.5654,                  !- Vertex 2 Ycoordinate
    0,                        !- Vertex 2 Zcoordinate
    -5.9037,                  !- Vertex 3 Xcoordinate
    3.9794,                   !- Vertex 3 Ycoordinate
    0,                        !- Vertex 3 Zcoordinate
    -5.9037,                  !- Vertex 4 Xcoordinate
    3.9794,                   !- Vertex 4 Ycoordinate
    3;                        !- Vertex 4 Zcoordinate

BUILDINGSURFACE:DETAILED,
    Block Build1_Alt0 Storey 0 Roof 0001,    !- Name
    roof,                     !- Surface Type
    Project Flat Roof,        !- Construction Name
    Block Build1_Alt0 Storey 0,    !- Zone Name
    outdoors,                 !- Outside Boundary Condition
    ,                         !- Outside Boundary Condition Object
    SunExposed,               !- Sun Exposure
    WindExposed,              !- Wind Exposure
    autocalculate,            !- View Factor to Ground
    autocalculate,            !- Number of Vertices
    11.5198,                  !- Vertex 1 Xcoordinate
    10.0731,                  !- Vertex 1 Ycoordinate
    3,                        !- Vertex 1 Zcoordinate
    8.6863,                   !- Vertex 2 Xcoordinate
    16.5524,                  !- Vertex 2 Ycoordinate
    3,                        !- Vertex 2 Zcoordinate
    -1.8427,                  !- Vertex 3 Xcoordinate
    17.1874,                  !- Vertex 3 Ycoordinate
    3,                        !- Vertex 3 Zcoordinate
    -4.9637,                  !- Vertex 4 Xcoordinate
    14.5654,                  !- Vertex 4 Ycoordinate
    3,                        !- Vertex 4 Zcoordinate
    -5.9037,                  !- Vertex 5 Xcoordinate
    3.9794,                   !- Vertex 5 Ycoordinate
    3,                        !- Vertex 5 Zcoordinate
    0.634,                    !- Vertex 6 Xcoordinate
    0.0578,                   !- Vertex 6 Ycoordinate
    3;                        !- Vertex 6 Zcoordinate

BUILDINGSURFACE:DETAILED,
    Block Build0_Alt0 Storey -1 Wall 0001_1,    !- Name
    wall,                     !- Surface Type
    Project Partition,        !- Construction Name
    Block Build0_Alt0 Storey -1,    !- Zone Name
    surface,                  !- Outside Boundary Condition
    Block Build1_Alt0 Storey -1 Wall 0006_1,    !- Outside Boundary Condition Object
    NoSun,                    !- Sun Exposure
    NoWind,                   !- Wind Exposure
    autocalculate,            !- View Factor to Ground
    autocalculate,            !- Number of Vertices
    8.686300000031604,        !- Vertex 1 Xcoordinate
    16.55239999992773,        !- Vertex 1 Ycoordinate
    0,                        !- Vertex 1 Zcoordinate
    8.686300000031604,        !- Vertex 2 Xcoordinate
    16.55239999992773,        !- Vertex 2 Ycoordinate
    -5,                       !- Vertex 2 Zcoordinate
    11.519800000136195,       !- Vertex 3 Xcoordinate
    10.073099999688566,       !- Vertex 3 Ycoordinate
    -5,                       !- Vertex 3 Zcoordinate
    11.519800000136195,       !- Vertex 4 Xcoordinate
    10.073099999688566,       !- Vertex 4 Ycoordinate
    0;                        !- Vertex 4 Zcoordinate

BUILDINGSURFACE:DETAILED,
    Block Build1_Alt0 Storey -1 Wall 0006_1,    !- Name
    wall,                     !- Surface Type
    Project Partition,        !- Construction Name
    Block Build1_Alt0 Storey -1,    !- Zone Name
    surface,                  !- Outside Boundary Condition
    Block Build0_Alt0 Storey -1 Wall 0001_1,    !- Outside Boundary Condition Object
    NoSun,                    !- Sun Exposure
    NoWind,                   !- Wind Exposure
    autocalculate,            !- View Factor to Ground
    autocalculate,            !- Number of Vertices
    11.519800000136195,       !- Vertex 1 Xcoordinate
    10.073099999688566,       !- Vertex 1 Ycoordinate
    0,                        !- Vertex 1 Zcoordinate
    11.519800000136195,       !- Vertex 2 Xcoordinate
    10.073099999688566,       !- Vertex 2 Ycoordinate
    -5,                       !- Vertex 2 Zcoordinate
    8.686300000031604,        !- Vertex 3 Xcoordinate
    16.55239999992773,        !- Vertex 3 Ycoordinate
    -5,                       !- Vertex 3 Zcoordinate
    8.686300000031604,        !- Vertex 4 Xcoordinate
    16.55239999992773,        !- Vertex 4 Ycoordinate
    0;                        !- Vertex 4 Zcoordinate

BUILDINGSURFACE:DETAILED,
    Block Build0_Alt0 Storey -1 Wall 0002_1,    !- Name
    wall,                     !- Surface Type
    Project Partition,        !- Construction Name
    Block Build0_Alt0 Storey -1,    !- Zone Name
    surface,                  !- Outside Boundary Condition
    Block Build1_Alt0 Storey -1 Wall 0005_1,    !- Outside Boundary Condition Object
    NoSun,                    !- Sun Exposure
    NoWind,                   !- Wind Exposure
    autocalculate,            !- View Factor to Ground
    autocalculate,            !- Number of Vertices
    11.519799999892712,       !- Vertex 1 Xcoordinate
    10.073099999901292,       !- Vertex 1 Ycoordinate
    0,                        !- Vertex 1 Zcoordinate
    11.519799999892712,       !- Vertex 2 Xcoordinate
    10.073099999901292,       !- Vertex 2 Ycoordinate
    -5,                       !- Vertex 2 Zcoordinate
    0.6339999996125698,       !- Vertex 3 Xcoordinate
    5.780000e-02,             !- Vertex 3 Ycoordinate
    -5,                       !- Vertex 3 Zcoordinate
    0.6339999996125698,       !- Vertex 4 Xcoordinate
    5.780000e-02,             !- Vertex 4 Ycoordinate
    0;                        !- Vertex 4 Zcoordinate

BUILDINGSURFACE:DETAILED,
    Block Build1_Alt0 Storey -1 Wall 0005_1,    !- Name
    wall,                     !- Surface Type
    Project Partition,        !- Construction Name
    Block Build1_Alt0 Storey -1,    !- Zone Name
    surface,                  !- Outside Boundary Condition
    Block Build0_Alt0 Storey -1 Wall 0002_1,    !- Outside Boundary Condition Object
    NoSun,                    !- Sun Exposure
    NoWind,                   !- Wind Exposure
    autocalculate,            !- View Factor to Ground
    autocalculate,            !- Number of Vertices
    0.6339999996125698,       !- Vertex 1 Xcoordinate
    5.780000e-02,             !- Vertex 1 Ycoordinate
    0,                        !- Vertex 1 Zcoordinate
    0.6339999996125698,       !- Vertex 2 Xcoordinate
    5.780000e-02,             !- Vertex 2 Ycoordinate
    -5,                       !- Vertex 2 Zcoordinate
    11.519799999892712,       !- Vertex 3 Xcoordinate
    10.07309999990129,        !- Vertex 3 Ycoordinate
    -5,                       !- Vertex 3 Zcoordinate
    11.519799999892712,       !- Vertex 4 Xcoordinate
    10.07309999990129,        !- Vertex 4 Ycoordinate
    0;                        !- Vertex 4 Zcoordinate

BUILDINGSURFACE:DETAILED,
    Block Build0_Alt0 Storey -1 Wall 0003_1,    !- Name
    wall,                     !- Surface Type
    Project Partition,        !- Construction Name
    Block Build0_Alt0 Storey -1,    !- Zone Name
    surface,                  !- Outside Boundary Condition
    Block Build1_Alt0 Storey -1 Wall 0004_1,    !- Outside Boundary Condition Object
    NoSun,                    !- Sun Exposure
    NoWind,                   !- Wind Exposure
    autocalculate,            !- View Factor to Ground
    autocalculate,            !- Number of Vertices
    0.6339999996125698,       !- Vertex 1 Xcoordinate
    5.780000e-02,             !- Vertex 1 Ycoordinate
    0,                        !- Vertex 1 Zcoordinate
    0.6339999996125698,       !- Vertex 2 Xcoordinate
    5.780000e-02,             !- Vertex 2 Ycoordinate
    -5,                       !- Vertex 2 Zcoordinate
    -5.903699999675155,       !- Vertex 3 Xcoordinate
    3.979399999805144,        !- Vertex 3 Ycoordinate
    -5,                       !- Vertex 3 Zcoordinate
    -5.903699999675155,       !- Vertex 4 Xcoordinate
    3.979399999805144,        !- Vertex 4 Ycoordinate
    0;                        !- Vertex 4 Zcoordinate

BUILDINGSURFACE:DETAILED,
    Block Build1_Alt0 Storey -1 Wall 0004_1,    !- Name
    wall,                     !- Surface Type
    Project Partition,        !- Construction Name
    Block Build1_Alt0 Storey -1,    !- Zone Name
    surface,                  !- Outside Boundary Condition
    Block Build0_Alt0 Storey -1 Wall 0003_1,    !- Outside Boundary Condition Object
    NoSun,                    !- Sun Exposure
    NoWind,                   !- Wind Exposure
    autocalculate,            !- View Factor to Ground
    autocalculate,            !- Number of Vertices
    -5.903699999675155,       !- Vertex 1 Xcoordinate
    3.979399999805144,        !- Vertex 1 Ycoordinate
    0,                        !- Vertex 1 Zcoordinate
    -5.903699999675155,       !- Vertex 2 Xcoordinate
    3.979399999805144,        !- Vertex 2 Ycoordinate
    -5,                       !- Vertex 2 Zcoordinate
    0.6339999996125698,       !- Vertex 3 Xcoordinate
    5.780000e-02,             !- Vertex 3 Ycoordinate
    -5,                       !- Vertex 3 Zcoordinate
    0.6339999996125698,       !- Vertex 4 Xcoordinate
    5.780000e-02,             !- Vertex 4 Ycoordinate
    0;                        !- Vertex 4 Zcoordinate

BUILDINGSURFACE:DETAILED,
    Block Build0_Alt0 Storey -1 Ceiling 0001_1,    !- Name
    ceiling,                  !- Surface Type
    Project Heated1rstFloor Rev,    !- Construction Name
    Block Build0_Alt0 Storey -1,    !- Zone Name
    surface,                  !- Outside Boundary Condition
    Block Build0_Alt0 Storey 0 Floor 0001_1,    !- Outside Boundary Condition Object
    NoSun,                    !- Sun Exposure
    NoWind,                   !- Wind Exposure
    autocalculate,            !- View Factor to Ground
    autocalculate,            !- Number of Vertices
    24.14629999967292,        !- Vertex 1 Xcoordinate
    -1.338600e+00,            !- Vertex 1 Ycoordinate
    0,                        !- Vertex 1 Zcoordinate
    29.217299999669194,       !- Vertex 2 Xcoordinate
    3.0023999996483326,       !- Vertex 2 Ycoordinate
    0,                        !- Vertex 2 Zcoordinate
    26.617299999576062,       !- Vertex 3 Xcoordinate
    6.040399999823421,        !- Vertex 3 Ycoordinate
    0,                        !- Vertex 3 Zcoordinate
    30.768299999646842,       !- Vertex 4 Xcoordinate
    9.593399999663234,        !- Vertex 4 Ycoordinate
    0,                        !- Vertex 4 Zcoordinate
    18.005299999844283,       !- Vertex 5 Xcoordinate
    24.5093999998644,         !- Vertex 5 Ycoordinate
    0,                        !- Vertex 5 Zcoordinate
    8.686299999710172,        !- Vertex 6 Xcoordinate
    16.55239999992773,        !- Vertex 6 Ycoordinate
    0,                        !- Vertex 6 Zcoordinate
    11.519799999892712,       !- Vertex 7 Xcoordinate
    10.073099999688566,       !- Vertex 7 Ycoordinate
    0,                        !- Vertex 7 Zcoordinate
    0.6339999996125698,       !- Vertex 8 Xcoordinate
    5.780000e-02,             !- Vertex 8 Ycoordinate
    0,                        !- Vertex 8 Zcoordinate
    -5.903699999675155,       !- Vertex 9 Xcoordinate
    3.979399999603629,        !- Vertex 9 Ycoordinate
    0,                        !- Vertex 9 Zcoordinate
    -1.343070e+01,            !- Vertex 10 Xcoordinate
    -2.587600e+00,            !- Vertex 10 Ycoordinate
    0,                        !- Vertex 10 Zcoordinate
    -6.993699999991804,       !- Vertex 11 Xcoordinate
    -1.010760e+01,            !- Vertex 11 Ycoordinate
    0,                        !- Vertex 11 Zcoordinate
    -1.003270e+01,            !- Vertex 12 Xcoordinate
    -1.270760e+01,            !- Vertex 12 Ycoordinate
    0,                        !- Vertex 12 Zcoordinate
    -3.801699999719858,       !- Vertex 13 Xcoordinate
    -19.99059999966994,       !- Vertex 13 Ycoordinate
    0,                        !- Vertex 13 Zcoordinate
    4.002299999818206,        !- Vertex 14 Xcoordinate
    -1.331160e+01,            !- Vertex 14 Ycoordinate
    0,                        !- Vertex 14 Zcoordinate
    6.604299999773502,        !- Vertex 15 Xcoordinate
    -1.635060e+01,            !- Vertex 15 Ycoordinate
    0,                        !- Vertex 15 Zcoordinate
    11.702299999538809,       !- Vertex 16 Xcoordinate
    -1.198860e+01,            !- Vertex 16 Ycoordinate
    0,                        !- Vertex 16 Zcoordinate
    9.100299999583513,        !- Vertex 17 Xcoordinate
    -8.948599999770522,       !- Vertex 17 Ycoordinate
    0,                        !- Vertex 17 Zcoordinate
    21.546299999579787,       !- Vertex 18 Xcoordinate
    1.7003999999724329,       !- Vertex 18 Ycoordinate
    0;                        !- Vertex 18 Zcoordinate

BUILDINGSURFACE:DETAILED,
    Block Build0_Alt0 Storey 0 Floor 0001_1,    !- Name
    floor,                    !- Surface Type
    Project Heated1rstFloor,    !- Construction Name
    Block Build0_Alt0 Storey 0,    !- Zone Name
    surface,                  !- Outside Boundary Condition
    Block Build0_Alt0 Storey -1 Ceiling 0001_1,    !- Outside Boundary Condition Object
    NoSun,                    !- Sun Exposure
    NoWind,                   !- Wind Exposure
    autocalculate,            !- View Factor to Ground
    autocalculate,            !- Number of Vertices
    18.005299999844283,       !- Vertex 1 Xcoordinate
    24.5093999998644,         !- Vertex 1 Ycoordinate
    0,                        !- Vertex 1 Zcoordinate
    30.768299999646842,       !- Vertex 2 Xcoordinate
    9.593399999663234,        !- Vertex 2 Ycoordinate
    0,                        !- Vertex 2 Zcoordinate
    26.617299999576062,       !- Vertex 3 Xcoordinate
    6.040399999823421,        !- Vertex 3 Ycoordinate
    0,                        !- Vertex 3 Zcoordinate
    29.217299999669194,       !- Vertex 4 Xcoordinate
    3.0023999996483326,       !- Vertex 4 Ycoordinate
    0,                        !- Vertex 4 Zcoordinate
    24.14629999967292,        !- Vertex 5 Xcoordinate
    -1.338600e+00,            !- Vertex 5 Ycoordinate
    0,                        !- Vertex 5 Zcoordinate
    21.546299999579787,       !- Vertex 6 Xcoordinate
    1.7003999999724329,       !- Vertex 6 Ycoordinate
    0,                        !- Vertex 6 Zcoordinate
    9.100299999583513,        !- Vertex 7 Xcoordinate
    -8.948599999770522,       !- Vertex 7 Ycoordinate
    0,                        !- Vertex 7 Zcoordinate
    11.702299999538809,       !- Vertex 8 Xcoordinate
    -1.198860e+01,            !- Vertex 8 Ycoordinate
    0,                        !- Vertex 8 Zcoordinate
    6.604299999773502,        !- Vertex 9 Xcoordinate
    -1.635060e+01,            !- Vertex 9 Ycoordinate
    0,                        !- Vertex 9 Zcoordinate
    4.002299999818206,        !- Vertex 10 Xcoordinate
    -1.331160e+01,            !- Vertex 10 Ycoordinate
    0,                        !- Vertex 10 Zcoordinate
    -3.801699999719858,       !- Vertex 11 Xcoordinate
    -19.99059999966994,       !- Vertex 11 Ycoordinate
    0,                        !- Vertex 11 Zcoordinate
    -1.003270e+01,            !- Vertex 12 Xcoordinate
    -1.270760e+01,            !- Vertex 12 Ycoordinate
    0,                        !- Vertex 12 Zcoordinate
    -6.993699999991804,       !- Vertex 13 Xcoordinate
    -1.010760e+01,            !- Vertex 13 Ycoordinate
    0,                        !- Vertex 13 Zcoordinate
    -1.343070e+01,            !- Vertex 14 Xcoordinate
    -2.587600e+00,            !- Vertex 14 Ycoordinate
    0,                        !- Vertex 14 Zcoordinate
    -5.903699999675155,       !- Vertex 15 Xcoordinate
    3.979399999603629,        !- Vertex 15 Ycoordinate
    0,                        !- Vertex 15 Zcoordinate
    0.6339999996125698,       !- Vertex 16 Xcoordinate
    5.780000e-02,             !- Vertex 16 Ycoordinate
    0,                        !- Vertex 16 Zcoordinate
    11.519799999892712,       !- Vertex 17 Xcoordinate
    10.073099999688566,       !- Vertex 17 Ycoordinate
    0,                        !- Vertex 17 Zcoordinate
    8.686299999710172,        !- Vertex 18 Xcoordinate
    16.55239999992773,        !- Vertex 18 Ycoordinate
    0;                        !- Vertex 18 Zcoordinate

BUILDINGSURFACE:DETAILED,
    Block Build0_Alt0 Storey 0 Wall 0001_1,    !- Name
    wall,                     !- Surface Type
    Project Partition,        !- Construction Name
    Block Build0_Alt0 Storey 0,    !- Zone Name
    surface,                  !- Outside Boundary Condition
    Block Build1_Alt0 Storey 0 Wall 0006_1,    !- Outside Boundary Condition Object
    NoSun,                    !- Sun Exposure
    NoWind,                   !- Wind Exposure
    autocalculate,            !- View Factor to Ground
    autocalculate,            !- Number of Vertices
    8.686300000031604,        !- Vertex 1 Xcoordinate
    16.55239999992773,        !- Vertex 1 Ycoordinate
    3,                        !- Vertex 1 Zcoordinate
    8.686300000031604,        !- Vertex 2 Xcoordinate
    16.55239999992773,        !- Vertex 2 Ycoordinate
    0,                        !- Vertex 2 Zcoordinate
    11.519800000136195,       !- Vertex 3 Xcoordinate
    10.073099999688566,       !- Vertex 3 Ycoordinate
    0,                        !- Vertex 3 Zcoordinate
    11.519800000136195,       !- Vertex 4 Xcoordinate
    10.073099999688566,       !- Vertex 4 Ycoordinate
    3;                        !- Vertex 4 Zcoordinate

BUILDINGSURFACE:DETAILED,
    Block Build0_Alt0 Storey 0 Wall 0001_2,    !- Name
    wall,                     !- Surface Type
    Project Wall,             !- Construction Name
    Block Build0_Alt0 Storey 0,    !- Zone Name
    outdoors,                 !- Outside Boundary Condition
    ,                         !- Outside Boundary Condition Object
    SunExposed,               !- Sun Exposure
    WindExposed,              !- Wind Exposure
    autocalculate,            !- View Factor to Ground
    autocalculate,            !- Number of Vertices
    8.686300000031604,        !- Vertex 1 Xcoordinate
    16.55239999992773,        !- Vertex 1 Ycoordinate
    15,                       !- Vertex 1 Zcoordinate
    8.686300000031604,        !- Vertex 2 Xcoordinate
    16.55239999992773,        !- Vertex 2 Ycoordinate
    3,                        !- Vertex 2 Zcoordinate
    11.519800000136195,       !- Vertex 3 Xcoordinate
    10.073099999688566,       !- Vertex 3 Ycoordinate
    3,                        !- Vertex 3 Zcoordinate
    11.519800000136195,       !- Vertex 4 Xcoordinate
    10.073099999688566,       !- Vertex 4 Ycoordinate
    15;                       !- Vertex 4 Zcoordinate

BUILDINGSURFACE:DETAILED,
    Block Build1_Alt0 Storey 0 Wall 0006_1,    !- Name
    wall,                     !- Surface Type
    Project Partition,        !- Construction Name
    Block Build1_Alt0 Storey 0,    !- Zone Name
    surface,                  !- Outside Boundary Condition
    Block Build0_Alt0 Storey 0 Wall 0001_1,    !- Outside Boundary Condition Object
    NoSun,                    !- Sun Exposure
    NoWind,                   !- Wind Exposure
    autocalculate,            !- View Factor to Ground
    autocalculate,            !- Number of Vertices
    11.519800000136193,       !- Vertex 1 Xcoordinate
    10.073099999688566,       !- Vertex 1 Ycoordinate
    3,                        !- Vertex 1 Zcoordinate
    11.519800000136193,       !- Vertex 2 Xcoordinate
    10.073099999688566,       !- Vertex 2 Ycoordinate
    0,                        !- Vertex 2 Zcoordinate
    8.686300000031604,        !- Vertex 3 Xcoordinate
    16.55239999992773,        !- Vertex 3 Ycoordinate
    0,                        !- Vertex 3 Zcoordinate
    8.686300000031604,        !- Vertex 4 Xcoordinate
    16.55239999992773,        !- Vertex 4 Ycoordinate
    3;                        !- Vertex 4 Zcoordinate

BUILDINGSURFACE:DETAILED,
    Block Build0_Alt0 Storey 0 Wall 0002_1,    !- Name
    wall,                     !- Surface Type
    Project Partition,        !- Construction Name
    Block Build0_Alt0 Storey 0,    !- Zone Name
    surface,                  !- Outside Boundary Condition
    Block Build1_Alt0 Storey 0 Wall 0005_1,    !- Outside Boundary Condition Object
    NoSun,                    !- Sun Exposure
    NoWind,                   !- Wind Exposure
    autocalculate,            !- View Factor to Ground
    autocalculate,            !- Number of Vertices
    11.519799999892712,       !- Vertex 1 Xcoordinate
    10.073099999901292,       !- Vertex 1 Ycoordinate
    3,                        !- Vertex 1 Zcoordinate
    11.519799999892712,       !- Vertex 2 Xcoordinate
    10.073099999901292,       !- Vertex 2 Ycoordinate
    0,                        !- Vertex 2 Zcoordinate
    0.6339999996125698,       !- Vertex 3 Xcoordinate
    5.780000e-02,             !- Vertex 3 Ycoordinate
    0,                        !- Vertex 3 Zcoordinate
    0.6339999996125698,       !- Vertex 4 Xcoordinate
    5.780000e-02,             !- Vertex 4 Ycoordinate
    3;                        !- Vertex 4 Zcoordinate

BUILDINGSURFACE:DETAILED,
    Block Build0_Alt0 Storey 0 Wall 0002_2,    !- Name
    wall,                     !- Surface Type
    Project Wall,             !- Construction Name
    Block Build0_Alt0 Storey 0,    !- Zone Name
    outdoors,                 !- Outside Boundary Condition
    ,                         !- Outside Boundary Condition Object
    SunExposed,               !- Sun Exposure
    WindExposed,              !- Wind Exposure
    autocalculate,            !- View Factor to Ground
    autocalculate,            !- Number of Vertices
    11.519799999892712,       !- Vertex 1 Xcoordinate
    10.073099999901292,       !- Vertex 1 Ycoordinate
    15,                       !- Vertex 1 Zcoordinate
    11.519799999892712,       !- Vertex 2 Xcoordinate
    10.073099999901292,       !- Vertex 2 Ycoordinate
    3,                        !- Vertex 2 Zcoordinate
    0.6339999996125698,       !- Vertex 3 Xcoordinate
    5.780000e-02,             !- Vertex 3 Ycoordinate
    3,                        !- Vertex 3 Zcoordinate
    0.6339999996125698,       !- Vertex 4 Xcoordinate
    5.780000e-02,             !- Vertex 4 Ycoordinate
    15;                       !- Vertex 4 Zcoordinate

BUILDINGSURFACE:DETAILED,
    Block Build1_Alt0 Storey 0 Wall 0005_1,    !- Name
    wall,                     !- Surface Type
    Project Partition,        !- Construction Name
    Block Build1_Alt0 Storey 0,    !- Zone Name
    surface,                  !- Outside Boundary Condition
    Block Build0_Alt0 Storey 0 Wall 0002_1,    !- Outside Boundary Condition Object
    NoSun,                    !- Sun Exposure
    NoWind,                   !- Wind Exposure
    autocalculate,            !- View Factor to Ground
    autocalculate,            !- Number of Vertices
    0.6339999996125698,       !- Vertex 1 Xcoordinate
    5.780000e-02,             !- Vertex 1 Ycoordinate
    3,                        !- Vertex 1 Zcoordinate
    0.6339999996125698,       !- Vertex 2 Xcoordinate
    5.780000e-02,             !- Vertex 2 Ycoordinate
    0,                        !- Vertex 2 Zcoordinate
    11.519799999892712,       !- Vertex 3 Xcoordinate
    10.073099999901293,       !- Vertex 3 Ycoordinate
    0,                        !- Vertex 3 Zcoordinate
    11.519799999892712,       !- Vertex 4 Xcoordinate
    10.073099999901293,       !- Vertex 4 Ycoordinate
    3;                        !- Vertex 4 Zcoordinate

BUILDINGSURFACE:DETAILED,
    Block Build0_Alt0 Storey 0 Wall 0003_1,    !- Name
    wall,                     !- Surface Type
    Project Partition,        !- Construction Name
    Block Build0_Alt0 Storey 0,    !- Zone Name
    surface,                  !- Outside Boundary Condition
    Block Build1_Alt0 Storey 0 Wall 0004_1,    !- Outside Boundary Condition Object
    NoSun,                    !- Sun Exposure
    NoWind,                   !- Wind Exposure
    autocalculate,            !- View Factor to Ground
    autocalculate,            !- Number of Vertices
    0.6339999996125698,       !- Vertex 1 Xcoordinate
    0.0578000002323977,       !- Vertex 1 Ycoordinate
    3,                        !- Vertex 1 Zcoordinate
    0.6339999996125698,       !- Vertex 2 Xcoordinate
    0.0578000002323977,       !- Vertex 2 Ycoordinate
    0,                        !- Vertex 2 Zcoordinate
    -5.903699999675155,       !- Vertex 3 Xcoordinate
    3.979399999805144,        !- Vertex 3 Ycoordinate
    0,                        !- Vertex 3 Zcoordinate
    -5.903699999675155,       !- Vertex 4 Xcoordinate
    3.979399999805144,        !- Vertex 4 Ycoordinate
    3;                        !- Vertex 4 Zcoordinate

BUILDINGSURFACE:DETAILED,
    Block Build0_Alt0 Storey 0 Wall 0003_2,    !- Name
    wall,                     !- Surface Type
    Project Wall,             !- Construction Name
    Block Build0_Alt0 Storey 0,    !- Zone Name
    outdoors,                 !- Outside Boundary Condition
    ,                         !- Outside Boundary Condition Object
    SunExposed,               !- Sun Exposure
    WindExposed,              !- Wind Exposure
    autocalculate,            !- View Factor to Ground
    autocalculate,            !- Number of Vertices
    0.6339999996125698,       !- Vertex 1 Xcoordinate
    0.0578000002323977,       !- Vertex 1 Ycoordinate
    15,                       !- Vertex 1 Zcoordinate
    0.6339999996125698,       !- Vertex 2 Xcoordinate
    0.0578000002323977,       !- Vertex 2 Ycoordinate
    3,                        !- Vertex 2 Zcoordinate
    -5.903699999675155,       !- Vertex 3 Xcoordinate
    3.979399999805144,        !- Vertex 3 Ycoordinate
    3,                        !- Vertex 3 Zcoordinate
    -5.903699999675155,       !- Vertex 4 Xcoordinate
    3.979399999805144,        !- Vertex 4 Ycoordinate
    15;                       !- Vertex 4 Zcoordinate

BUILDINGSURFACE:DETAILED,
    Block Build1_Alt0 Storey 0 Wall 0004_1,    !- Name
    wall,                     !- Surface Type
    Project Partition,        !- Construction Name
    Block Build1_Alt0 Storey 0,    !- Zone Name
    surface,                  !- Outside Boundary Condition
    Block Build0_Alt0 Storey 0 Wall 0003_1,    !- Outside Boundary Condition Object
    NoSun,                    !- Sun Exposure
    NoWind,                   !- Wind Exposure
    autocalculate,            !- View Factor to Ground
    autocalculate,            !- Number of Vertices
    -5.903699999675155,       !- Vertex 1 Xcoordinate
    3.979399999805144,        !- Vertex 1 Ycoordinate
    3,                        !- Vertex 1 Zcoordinate
    -5.903699999675155,       !- Vertex 2 Xcoordinate
    3.979399999805144,        !- Vertex 2 Ycoordinate
    0,                        !- Vertex 2 Zcoordinate
    0.6339999996125698,       !- Vertex 3 Xcoordinate
    5.780000e-02,             !- Vertex 3 Ycoordinate
    0,                        !- Vertex 3 Zcoordinate
    0.6339999996125698,       !- Vertex 4 Xcoordinate
    5.780000e-02,             !- Vertex 4 Ycoordinate
    3;                        !- Vertex 4 Zcoordinate

BUILDINGSURFACE:DETAILED,
    Block Build1_Alt0 Storey -1 Ceiling 0001_1,    !- Name
    ceiling,                  !- Surface Type
    Project Heated1rstFloor Rev,    !- Construction Name
    Block Build1_Alt0 Storey -1,    !- Zone Name
    surface,                  !- Outside Boundary Condition
    Block Build1_Alt0 Storey 0 Floor 0001_1,    !- Outside Boundary Condition Object
    NoSun,                    !- Sun Exposure
    NoWind,                   !- Wind Exposure
    autocalculate,            !- View Factor to Ground
    autocalculate,            !- Number of Vertices
    11.519799999892712,       !- Vertex 1 Xcoordinate
    10.073099999688566,       !- Vertex 1 Ycoordinate
    0,                        !- Vertex 1 Zcoordinate
    8.686299999710172,        !- Vertex 2 Xcoordinate
    16.55239999992773,        !- Vertex 2 Ycoordinate
    0,                        !- Vertex 2 Zcoordinate
    -1.842700e+00,            !- Vertex 3 Xcoordinate
    17.187399999704212,       !- Vertex 3 Ycoordinate
    0,                        !- Vertex 3 Zcoordinate
    -4.963699999731034,       !- Vertex 4 Xcoordinate
    14.565399999730289,       !- Vertex 4 Ycoordinate
    0,                        !- Vertex 4 Zcoordinate
    -5.903699999675155,       !- Vertex 5 Xcoordinate
    3.979399999603629,        !- Vertex 5 Ycoordinate
    0,                        !- Vertex 5 Zcoordinate
    0.6339999996125698,       !- Vertex 6 Xcoordinate
    5.780000e-02,             !- Vertex 6 Ycoordinate
    0;                        !- Vertex 6 Zcoordinate

BUILDINGSURFACE:DETAILED,
    Block Build1_Alt0 Storey 0 Floor 0001_1,    !- Name
    floor,                    !- Surface Type
    Project Heated1rstFloor,    !- Construction Name
    Block Build1_Alt0 Storey 0,    !- Zone Name
    surface,                  !- Outside Boundary Condition
    Block Build1_Alt0 Storey -1 Ceiling 0001_1,    !- Outside Boundary Condition Object
    NoSun,                    !- Sun Exposure
    NoWind,                   !- Wind Exposure
    autocalculate,            !- View Factor to Ground
    autocalculate,            !- Number of Vertices
    8.686299999710172,        !- Vertex 1 Xcoordinate
    16.55239999992773,        !- Vertex 1 Ycoordinate
    0,                        !- Vertex 1 Zcoordinate
    11.519799999892712,       !- Vertex 2 Xcoordinate
    10.073099999688566,       !- Vertex 2 Ycoordinate
    0,                        !- Vertex 2 Zcoordinate
    0.6339999996125698,       !- Vertex 3 Xcoordinate
    5.780000e-02,             !- Vertex 3 Ycoordinate
    0,                        !- Vertex 3 Zcoordinate
    -5.903699999675155,       !- Vertex 4 Xcoordinate
    3.979399999603629,        !- Vertex 4 Ycoordinate
    0,                        !- Vertex 4 Zcoordinate
    -4.963699999731034,       !- Vertex 5 Xcoordinate
    14.565399999730289,       !- Vertex 5 Ycoordinate
    0,                        !- Vertex 5 Zcoordinate
    -1.842700e+00,            !- Vertex 6 Xcoordinate
    17.187399999704212,       !- Vertex 6 Ycoordinate
    0;                        !- Vertex 6 Zcoordinate

BUILDINGSURFACE:DETAILED,
    Block Build0_Alt0 Storey 0 Roof 0001_0,    !- Name
    roof,                     !- Surface Type
    Project Flat Roof,        !- Construction Name
    Block Build0_Alt0 Storey 0,    !- Zone Name
    outdoors,                 !- Outside Boundary Condition
    ,                         !- Outside Boundary Condition Object
    SunExposed,               !- Sun Exposure
    WindExposed,              !- Wind Exposure
    autocalculate,            !- View Factor to Ground
    autocalculate,            !- Number of Vertices
    9.1003,                   !- Vertex 1 Xcoordinate
    -8.9486,                  !- Vertex 1 Ycoordinate
    15,                       !- Vertex 1 Zcoordinate
    -6.9937,                  !- Vertex 2 Xcoordinate
    -10.1076,                 !- Vertex 2 Ycoordinate
    15,                       !- Vertex 2 Zcoordinate
    4.0023,                   !- Vertex 3 Xcoordinate
    -13.3116,                 !- Vertex 3 Ycoordinate
    15;                       !- Vertex 3 Zcoordinate

BUILDINGSURFACE:DETAILED,
    Block Build0_Alt0 Storey 0 Roof 0001_1,    !- Name
    roof,                     !- Surface Type
    Project Flat Roof,        !- Construction Name
    Block Build0_Alt0 Storey 0,    !- Zone Name
    outdoors,                 !- Outside Boundary Condition
    ,                         !- Outside Boundary Condition Object
    SunExposed,               !- Sun Exposure
    WindExposed,              !- Wind Exposure
    autocalculate,            !- View Factor to Ground
    autocalculate,            !- Number of Vertices
    29.2173,                  !- Vertex 1 Xcoordinate
    3.0024,                   !- Vertex 1 Ycoordinate
    15,                       !- Vertex 1 Zcoordinate
    26.6173,                  !- Vertex 2 Xcoordinate
    6.0404,                   !- Vertex 2 Ycoordinate
    15,                       !- Vertex 2 Zcoordinate
    21.5463,                  !- Vertex 3 Xcoordinate
    1.7004,                   !- Vertex 3 Ycoordinate
    15,                       !- Vertex 3 Zcoordinate
    24.1463,                  !- Vertex 4 Xcoordinate
    -1.3386,                  !- Vertex 4 Ycoordinate
    15;                       !- Vertex 4 Zcoordinate

BUILDINGSURFACE:DETAILED,
    Block Build0_Alt0 Storey 0 Roof 0001_2,    !- Name
    roof,                     !- Surface Type
    Project Flat Roof,        !- Construction Name
    Block Build0_Alt0 Storey 0,    !- Zone Name
    outdoors,                 !- Outside Boundary Condition
    ,                         !- Outside Boundary Condition Object
    SunExposed,               !- Sun Exposure
    WindExposed,              !- Wind Exposure
    autocalculate,            !- View Factor to Ground
    autocalculate,            !- Number of Vertices
    11.7023,                  !- Vertex 1 Xcoordinate
    -11.9886,                 !- Vertex 1 Ycoordinate
    15,                       !- Vertex 1 Zcoordinate
    9.1003,                   !- Vertex 2 Xcoordinate
    -8.9486,                  !- Vertex 2 Ycoordinate
    15,                       !- Vertex 2 Zcoordinate
    4.0023,                   !- Vertex 3 Xcoordinate
    -13.3116,                 !- Vertex 3 Ycoordinate
    15,                       !- Vertex 3 Zcoordinate
    6.6043,                   !- Vertex 4 Xcoordinate
    -16.3506,                 !- Vertex 4 Ycoordinate
    15;                       !- Vertex 4 Zcoordinate

BUILDINGSURFACE:DETAILED,
    Block Build0_Alt0 Storey 0 Roof 0001_3,    !- Name
    roof,                     !- Surface Type
    Project Flat Roof,        !- Construction Name
    Block Build0_Alt0 Storey 0,    !- Zone Name
    outdoors,                 !- Outside Boundary Condition
    ,                         !- Outside Boundary Condition Object
    SunExposed,               !- Sun Exposure
    WindExposed,              !- Wind Exposure
    autocalculate,            !- View Factor to Ground
    autocalculate,            !- Number of Vertices
    4.0023,                   !- Vertex 1 Xcoordinate
    -13.3116,                 !- Vertex 1 Ycoordinate
    15,                       !- Vertex 1 Zcoordinate
    -6.9937,                  !- Vertex 2 Xcoordinate
    -10.1076,                 !- Vertex 2 Ycoordinate
    15,                       !- Vertex 2 Zcoordinate
    -10.0327,                 !- Vertex 3 Xcoordinate
    -12.7076,                 !- Vertex 3 Ycoordinate
    15,                       !- Vertex 3 Zcoordinate
    -3.8017,                  !- Vertex 4 Xcoordinate
    -19.9906,                 !- Vertex 4 Ycoordinate
    15;                       !- Vertex 4 Zcoordinate

BUILDINGSURFACE:DETAILED,
    Block Build0_Alt0 Storey 0 Roof 0001_4,    !- Name
    roof,                     !- Surface Type
    Project Flat Roof,        !- Construction Name
    Block Build0_Alt0 Storey 0,    !- Zone Name
    outdoors,                 !- Outside Boundary Condition
    ,                         !- Outside Boundary Condition Object
    SunExposed,               !- Sun Exposure
    WindExposed,              !- Wind Exposure
    autocalculate,            !- View Factor to Ground
    autocalculate,            !- Number of Vertices
    -6.9937,                  !- Vertex 1 Xcoordinate
    -10.1076,                 !- Vertex 1 Ycoordinate
    15,                       !- Vertex 1 Zcoordinate
    0.634,                    !- Vertex 2 Xcoordinate
    0.0578,                   !- Vertex 2 Ycoordinate
    15,                       !- Vertex 2 Zcoordinate
    -5.9037,                  !- Vertex 3 Xcoordinate
    3.9794,                   !- Vertex 3 Ycoordinate
    15,                       !- Vertex 3 Zcoordinate
    -13.4307,                 !- Vertex 4 Xcoordinate
    -2.5876,                  !- Vertex 4 Ycoordinate
    15;                       !- Vertex 4 Zcoordinate

BUILDINGSURFACE:DETAILED,
    Block Build0_Alt0 Storey 0 Roof 0001_5,    !- Name
    roof,                     !- Surface Type
    Project Flat Roof,        !- Construction Name
    Block Build0_Alt0 Storey 0,    !- Zone Name
    outdoors,                 !- Outside Boundary Condition
    ,                         !- Outside Boundary Condition Object
    SunExposed,               !- Sun Exposure
    WindExposed,              !- Wind Exposure
    autocalculate,            !- View Factor to Ground
    autocalculate,            !- Number of Vertices
    26.6173,                  !- Vertex 1 Xcoordinate
    6.0404,                   !- Vertex 1 Ycoordinate
    15,                       !- Vertex 1 Zcoordinate
    30.7683,                  !- Vertex 2 Xcoordinate
    9.5934,                   !- Vertex 2 Ycoordinate
    15,                       !- Vertex 2 Zcoordinate
    18.0053,                  !- Vertex 3 Xcoordinate
    24.5094,                  !- Vertex 3 Ycoordinate
    15,                       !- Vertex 3 Zcoordinate
    8.6863,                   !- Vertex 4 Xcoordinate
    16.5524,                  !- Vertex 4 Ycoordinate
    15,                       !- Vertex 4 Zcoordinate
    11.5198,                  !- Vertex 5 Xcoordinate
    10.0731,                  !- Vertex 5 Ycoordinate
    15,                       !- Vertex 5 Zcoordinate
    21.5463,                  !- Vertex 6 Xcoordinate
    1.7004,                   !- Vertex 6 Ycoordinate
    15;                       !- Vertex 6 Zcoordinate

BUILDINGSURFACE:DETAILED,
    Block Build0_Alt0 Storey 0 Roof 0001_6,    !- Name
    roof,                     !- Surface Type
    Project Flat Roof,        !- Construction Name
    Block Build0_Alt0 Storey 0,    !- Zone Name
    outdoors,                 !- Outside Boundary Condition
    ,                         !- Outside Boundary Condition Object
    SunExposed,               !- Sun Exposure
    WindExposed,              !- Wind Exposure
    autocalculate,            !- View Factor to Ground
    autocalculate,            !- Number of Vertices
    21.5463,                  !- Vertex 1 Xcoordinate
    1.7004,                   !- Vertex 1 Ycoordinate
    15,                       !- Vertex 1 Zcoordinate
    11.5198,                  !- Vertex 2 Xcoordinate
    10.0731,                  !- Vertex 2 Ycoordinate
    15,                       !- Vertex 2 Zcoordinate
    0.634,                    !- Vertex 3 Xcoordinate
    0.0578,                   !- Vertex 3 Ycoordinate
    15,                       !- Vertex 3 Zcoordinate
    -6.9937,                  !- Vertex 4 Xcoordinate
    -10.1076,                 !- Vertex 4 Ycoordinate
    15,                       !- Vertex 4 Zcoordinate
    9.1003,                   !- Vertex 5 Xcoordinate
    -8.9486,                  !- Vertex 5 Ycoordinate
    15;                       !- Vertex 5 Zcoordinate

FENESTRATIONSURFACE:DETAILED,
    Block Build0_Alt0 Storey 0 Wall 0004 window,    !- Name
    Window,                   !- Surface Type
    Project External Window,    !- Construction Name
    Block Build0_Alt0 Storey 0 Wall 0004,    !- Building Surface Name
    ,                         !- Outside Boundary Condition Object
    autocalculate,            !- View Factor to Ground
    ,                         !- Frame and Divider Name
    1.0,                      !- Multiplier
    autocalculate,            !- Number of Vertices
    -5.907463e+00,            !- Vertex 1 Xcoordinate
    3.9761165,                !- Vertex 1 Ycoordinate
    9.75,                     !- Vertex 1 Zcoordinate
    -5.907463e+00,            !- Vertex 2 Xcoordinate
    3.9761165,                !- Vertex 2 Ycoordinate
    5.25,                     !- Vertex 2 Zcoordinate
    -13.4269365,              !- Vertex 3 Xcoordinate
    -2.5843165,               !- Vertex 3 Ycoordinate
    5.25,                     !- Vertex 3 Zcoordinate
    -13.4269365,              !- Vertex 4 Xcoordinate
    -2.5843165,               !- Vertex 4 Ycoordinate
    9.75;                     !- Vertex 4 Zcoordinate

FENESTRATIONSURFACE:DETAILED,
    Block Build0_Alt0 Storey 0 Wall 0005 window,    !- Name
    Window,                   !- Surface Type
    Project External Window,    !- Construction Name
    Block Build0_Alt0 Storey 0 Wall 0005,    !- Building Surface Name
    ,                         !- Outside Boundary Condition Object
    autocalculate,            !- View Factor to Ground
    ,                         !- Frame and Divider Name
    1.0,                      !- Multiplier
    autocalculate,            !- Number of Vertices
    -1.342748e+01,            !- Vertex 1 Xcoordinate
    -2.591360e+00,            !- Vertex 1 Ycoordinate
    9.75,                     !- Vertex 1 Zcoordinate
    -1.342748e+01,            !- Vertex 2 Xcoordinate
    -2.591360e+00,            !- Vertex 2 Ycoordinate
    5.25,                     !- Vertex 2 Zcoordinate
    -6.9969185,               !- Vertex 3 Xcoordinate
    -10.10384,                !- Vertex 3 Ycoordinate
    5.25,                     !- Vertex 3 Zcoordinate
    -6.9969185,               !- Vertex 4 Xcoordinate
    -10.10384,                !- Vertex 4 Ycoordinate
    9.75;                     !- Vertex 4 Zcoordinate

FENESTRATIONSURFACE:DETAILED,
    Block Build0_Alt0 Storey 0 Wall 0006 window,    !- Name
    Window,                   !- Surface Type
    Project External Window,    !- Construction Name
    Block Build0_Alt0 Storey 0 Wall 0006,    !- Building Surface Name
    ,                         !- Outside Boundary Condition Object
    autocalculate,            !- View Factor to Ground
    ,                         !- Frame and Divider Name
    1.0,                      !- Multiplier
    autocalculate,            !- Number of Vertices
    -6.995219499999999,       !- Vertex 1 Xcoordinate
    -10.1089,                 !- Vertex 1 Ycoordinate
    9.75,                     !- Vertex 1 Zcoordinate
    -6.995219499999999,       !- Vertex 2 Xcoordinate
    -10.1089,                 !- Vertex 2 Ycoordinate
    5.25,                     !- Vertex 2 Zcoordinate
    -10.0311805,              !- Vertex 3 Xcoordinate
    -1.270630e+01,            !- Vertex 3 Ycoordinate
    5.25,                     !- Vertex 3 Zcoordinate
    -10.0311805,              !- Vertex 4 Xcoordinate
    -1.270630e+01,            !- Vertex 4 Ycoordinate
    9.75;                     !- Vertex 4 Zcoordinate

FENESTRATIONSURFACE:DETAILED,
    Block Build0_Alt0 Storey 0 Wall 0007 window,    !- Name
    Window,                   !- Surface Type
    Project External Window,    !- Construction Name
    Block Build0_Alt0 Storey 0 Wall 0007,    !- Building Surface Name
    ,                         !- Outside Boundary Condition Object
    autocalculate,            !- View Factor to Ground
    ,                         !- Frame and Divider Name
    1.0,                      !- Multiplier
    autocalculate,            !- Number of Vertices
    -10.0295845,              !- Vertex 1 Xcoordinate
    -12.7112415,              !- Vertex 1 Ycoordinate
    9.75,                     !- Vertex 1 Zcoordinate
    -10.0295845,              !- Vertex 2 Xcoordinate
    -12.7112415,              !- Vertex 2 Ycoordinate
    5.25,                     !- Vertex 2 Zcoordinate
    -3.804815e+00,            !- Vertex 3 Xcoordinate
    -19.9869585,              !- Vertex 3 Ycoordinate
    5.25,                     !- Vertex 3 Zcoordinate
    -3.804815e+00,            !- Vertex 4 Xcoordinate
    -19.9869585,              !- Vertex 4 Ycoordinate
    9.75;                     !- Vertex 4 Zcoordinate

FENESTRATIONSURFACE:DETAILED,
    Block Build0_Alt0 Storey 0 Wall 0008 window,    !- Name
    Window,                   !- Surface Type
    Project External Window,    !- Construction Name
    Block Build0_Alt0 Storey 0 Wall 0008,    !- Building Surface Name
    ,                         !- Outside Boundary Condition Object
    autocalculate,            !- View Factor to Ground
    ,                         !- Frame and Divider Name
    1.0,                      !- Multiplier
    autocalculate,            !- Number of Vertices
    -3.797798e+00,            !- Vertex 1 Xcoordinate
    -19.9872605,              !- Vertex 1 Ycoordinate
    9.75,                     !- Vertex 1 Zcoordinate
    -3.797798e+00,            !- Vertex 2 Xcoordinate
    -19.9872605,              !- Vertex 2 Ycoordinate
    5.25,                     !- Vertex 2 Zcoordinate
    3.998398,                 !- Vertex 3 Xcoordinate
    -1.331494e+01,            !- Vertex 3 Ycoordinate
    5.25,                     !- Vertex 3 Zcoordinate
    3.998398,                 !- Vertex 4 Xcoordinate
    -1.331494e+01,            !- Vertex 4 Ycoordinate
    9.75;                     !- Vertex 4 Zcoordinate

FENESTRATIONSURFACE:DETAILED,
    Block Build0_Alt0 Storey 0 Wall 0009 window,    !- Name
    Window,                   !- Surface Type
    Project External Window,    !- Construction Name
    Block Build0_Alt0 Storey 0 Wall 0009,    !- Building Surface Name
    ,                         !- Outside Boundary Condition Object
    autocalculate,            !- View Factor to Ground
    ,                         !- Frame and Divider Name
    1.0,                      !- Multiplier
    autocalculate,            !- Number of Vertices
    4.003601,                 !- Vertex 1 Xcoordinate
    -13.3131195,              !- Vertex 1 Ycoordinate
    9.75,                     !- Vertex 1 Zcoordinate
    4.003601,                 !- Vertex 2 Xcoordinate
    -13.3131195,              !- Vertex 2 Ycoordinate
    5.25,                     !- Vertex 2 Zcoordinate
    6.6029990000000005,       !- Vertex 3 Xcoordinate
    -16.3490805,              !- Vertex 3 Ycoordinate
    5.25,                     !- Vertex 3 Zcoordinate
    6.6029990000000005,       !- Vertex 4 Xcoordinate
    -16.3490805,              !- Vertex 4 Ycoordinate
    9.75;                     !- Vertex 4 Zcoordinate

FENESTRATIONSURFACE:DETAILED,
    Block Build0_Alt0 Storey 0 Wall 0010 window,    !- Name
    Window,                   !- Surface Type
    Project External Window,    !- Construction Name
    Block Build0_Alt0 Storey 0 Wall 0010,    !- Building Surface Name
    ,                         !- Outside Boundary Condition Object
    autocalculate,            !- View Factor to Ground
    ,                         !- Frame and Divider Name
    1.0,                      !- Multiplier
    autocalculate,            !- Number of Vertices
    6.606849,                 !- Vertex 1 Xcoordinate
    -16.348419,               !- Vertex 1 Ycoordinate
    9.75,                     !- Vertex 1 Zcoordinate
    6.606849,                 !- Vertex 2 Xcoordinate
    -16.348419,               !- Vertex 2 Ycoordinate
    5.25,                     !- Vertex 2 Zcoordinate
    11.699751,                !- Vertex 3 Xcoordinate
    -11.990781,               !- Vertex 3 Ycoordinate
    5.25,                     !- Vertex 3 Zcoordinate
    11.699751,                !- Vertex 4 Xcoordinate
    -11.990781,               !- Vertex 4 Ycoordinate
    9.75;                     !- Vertex 4 Zcoordinate

FENESTRATIONSURFACE:DETAILED,
    Block Build0_Alt0 Storey 0 Wall 0011 window,    !- Name
    Window,                   !- Surface Type
    Project External Window,    !- Construction Name
    Block Build0_Alt0 Storey 0 Wall 0011,    !- Building Surface Name
    ,                         !- Outside Boundary Condition Object
    autocalculate,            !- View Factor to Ground
    ,                         !- Frame and Divider Name
    1.0,                      !- Multiplier
    autocalculate,            !- Number of Vertices
    11.700999,                !- Vertex 1 Xcoordinate
    -11.98708,                !- Vertex 1 Ycoordinate
    9.75,                     !- Vertex 1 Zcoordinate
    11.700999,                !- Vertex 2 Xcoordinate
    -11.98708,                !- Vertex 2 Ycoordinate
    5.25,                     !- Vertex 2 Zcoordinate
    9.101601,                 !- Vertex 3 Xcoordinate
    -8.95012,                 !- Vertex 3 Ycoordinate
    5.25,                     !- Vertex 3 Zcoordinate
    9.101601,                 !- Vertex 4 Xcoordinate
    -8.95012,                 !- Vertex 4 Ycoordinate
    9.75;                     !- Vertex 4 Zcoordinate

FENESTRATIONSURFACE:DETAILED,
    Block Build0_Alt0 Storey 0 Wall 0012 window,    !- Name
    Window,                   !- Surface Type
    Project External Window,    !- Construction Name
    Block Build0_Alt0 Storey 0 Wall 0012,    !- Building Surface Name
    ,                         !- Outside Boundary Condition Object
    autocalculate,            !- View Factor to Ground
    ,                         !- Frame and Divider Name
    1.0,                      !- Multiplier
    autocalculate,            !- Number of Vertices
    9.106523000000001,        !- Vertex 1 Xcoordinate
    -8.9432755,               !- Vertex 1 Ycoordinate
    9.75,                     !- Vertex 1 Zcoordinate
    9.106523000000001,        !- Vertex 2 Xcoordinate
    -8.9432755,               !- Vertex 2 Ycoordinate
    5.25,                     !- Vertex 2 Zcoordinate
    21.540076999999997,       !- Vertex 3 Xcoordinate
    1.6950754999999993,       !- Vertex 3 Ycoordinate
    5.25,                     !- Vertex 3 Zcoordinate
    21.540076999999997,       !- Vertex 4 Xcoordinate
    1.6950754999999993,       !- Vertex 4 Ycoordinate
    9.75;                     !- Vertex 4 Zcoordinate

FENESTRATIONSURFACE:DETAILED,
    Block Build0_Alt0 Storey 0 Wall 0013 window,    !- Name
    Window,                   !- Surface Type
    Project External Window,    !- Construction Name
    Block Build0_Alt0 Storey 0 Wall 0013,    !- Building Surface Name
    ,                         !- Outside Boundary Condition Object
    autocalculate,            !- View Factor to Ground
    ,                         !- Frame and Divider Name
    1.0,                      !- Multiplier
    autocalculate,            !- Number of Vertices
    21.5476,                  !- Vertex 1 Xcoordinate
    1.6988805,                !- Vertex 1 Ycoordinate
    9.75,                     !- Vertex 1 Zcoordinate
    21.5476,                  !- Vertex 2 Xcoordinate
    1.6988805,                !- Vertex 2 Ycoordinate
    5.25,                     !- Vertex 2 Zcoordinate
    24.145,                   !- Vertex 3 Xcoordinate
    -1.3370805,               !- Vertex 3 Ycoordinate
    5.25,                     !- Vertex 3 Zcoordinate
    24.145,                   !- Vertex 4 Xcoordinate
    -1.3370805,               !- Vertex 4 Ycoordinate
    9.75;                     !- Vertex 4 Zcoordinate

FENESTRATIONSURFACE:DETAILED,
    Block Build0_Alt0 Storey 0 Wall 0014 window,    !- Name
    Window,                   !- Surface Type
    Project External Window,    !- Construction Name
    Block Build0_Alt0 Storey 0 Wall 0014,    !- Building Surface Name
    ,                         !- Outside Boundary Condition Object
    autocalculate,            !- View Factor to Ground
    ,                         !- Frame and Divider Name
    1.0,                      !- Multiplier
    autocalculate,            !- Number of Vertices
    24.1488355,               !- Vertex 1 Xcoordinate
    -1.3364295,               !- Vertex 1 Ycoordinate
    9.75,                     !- Vertex 1 Zcoordinate
    24.1488355,               !- Vertex 2 Xcoordinate
    -1.3364295,               !- Vertex 2 Ycoordinate
    5.25,                     !- Vertex 2 Zcoordinate
    29.2147645,               !- Vertex 3 Xcoordinate
    3.0002295,                !- Vertex 3 Ycoordinate
    5.25,                     !- Vertex 3 Zcoordinate
    29.2147645,               !- Vertex 4 Xcoordinate
    3.0002295,                !- Vertex 4 Ycoordinate
    9.75;                     !- Vertex 4 Zcoordinate

FENESTRATIONSURFACE:DETAILED,
    Block Build0_Alt0 Storey 0 Wall 0015 window,    !- Name
    Window,                   !- Surface Type
    Project External Window,    !- Construction Name
    Block Build0_Alt0 Storey 0 Wall 0015,    !- Building Surface Name
    ,                         !- Outside Boundary Condition Object
    autocalculate,            !- View Factor to Ground
    ,                         !- Frame and Divider Name
    1.0,                      !- Multiplier
    autocalculate,            !- Number of Vertices
    29.216,                   !- Vertex 1 Xcoordinate
    3.0039190000000002,       !- Vertex 1 Ycoordinate
    9.75,                     !- Vertex 1 Zcoordinate
    29.216,                   !- Vertex 2 Xcoordinate
    3.0039190000000002,       !- Vertex 2 Ycoordinate
    5.25,                     !- Vertex 2 Zcoordinate
    26.6186,                  !- Vertex 3 Xcoordinate
    6.038881,                 !- Vertex 3 Ycoordinate
    5.25,                     !- Vertex 3 Zcoordinate
    26.6186,                  !- Vertex 4 Xcoordinate
    6.038881,                 !- Vertex 4 Ycoordinate
    9.75;                     !- Vertex 4 Zcoordinate

FENESTRATIONSURFACE:DETAILED,
    Block Build0_Alt0 Storey 0 Wall 0016 window,    !- Name
    Window,                   !- Surface Type
    Project External Window,    !- Construction Name
    Block Build0_Alt0 Storey 0 Wall 0016,    !- Building Surface Name
    ,                         !- Outside Boundary Condition Object
    autocalculate,            !- View Factor to Ground
    ,                         !- Frame and Divider Name
    1.0,                      !- Multiplier
    autocalculate,            !- Number of Vertices
    26.6193755,               !- Vertex 1 Xcoordinate
    6.0421765,                !- Vertex 1 Ycoordinate
    9.75,                     !- Vertex 1 Zcoordinate
    26.6193755,               !- Vertex 2 Xcoordinate
    6.0421765,                !- Vertex 2 Ycoordinate
    5.25,                     !- Vertex 2 Zcoordinate
    30.7662245,               !- Vertex 3 Xcoordinate
    9.5916235,                !- Vertex 3 Ycoordinate
    5.25,                     !- Vertex 3 Zcoordinate
    30.7662245,               !- Vertex 4 Xcoordinate
    9.5916235,                !- Vertex 4 Ycoordinate
    9.75;                     !- Vertex 4 Zcoordinate

FENESTRATIONSURFACE:DETAILED,
    Block Build0_Alt0 Storey 0 Wall 0017 window,    !- Name
    Window,                   !- Surface Type
    Project External Window,    !- Construction Name
    Block Build0_Alt0 Storey 0 Wall 0017,    !- Building Surface Name
    ,                         !- Outside Boundary Condition Object
    autocalculate,            !- View Factor to Ground
    ,                         !- Frame and Divider Name
    1.0,                      !- Multiplier
    autocalculate,            !- Number of Vertices
    30.7619185,               !- Vertex 1 Xcoordinate
    9.600858,                 !- Vertex 1 Ycoordinate
    9.75,                     !- Vertex 1 Zcoordinate
    30.7619185,               !- Vertex 2 Xcoordinate
    9.600858,                 !- Vertex 2 Ycoordinate
    5.25,                     !- Vertex 2 Zcoordinate
    18.011681499999998,       !- Vertex 3 Xcoordinate
    24.501942,                !- Vertex 3 Ycoordinate
    5.25,                     !- Vertex 3 Zcoordinate
    18.011681499999998,       !- Vertex 4 Xcoordinate
    24.501942,                !- Vertex 4 Ycoordinate
    9.75;                     !- Vertex 4 Zcoordinate

FENESTRATIONSURFACE:DETAILED,
    Block Build0_Alt0 Storey 0 Wall 0018 window,    !- Name
    Window,                   !- Surface Type
    Project External Window,    !- Construction Name
    Block Build0_Alt0 Storey 0 Wall 0018,    !- Building Surface Name
    ,                         !- Outside Boundary Condition Object
    autocalculate,            !- View Factor to Ground
    ,                         !- Frame and Divider Name
    1.0,                      !- Multiplier
    autocalculate,            !- Number of Vertices
    18.0006405,               !- Vertex 1 Xcoordinate
    24.5054215,               !- Vertex 1 Ycoordinate
    9.75,                     !- Vertex 1 Zcoordinate
    18.0006405,               !- Vertex 2 Xcoordinate
    24.5054215,               !- Vertex 2 Ycoordinate
    5.25,                     !- Vertex 2 Zcoordinate
    8.690959499999998,        !- Vertex 3 Xcoordinate
    16.556378499999997,       !- Vertex 3 Ycoordinate
    5.25,                     !- Vertex 3 Zcoordinate
    8.690959499999998,        !- Vertex 4 Xcoordinate
    16.556378499999997,       !- Vertex 4 Ycoordinate
    9.75;                     !- Vertex 4 Zcoordinate

FENESTRATIONSURFACE:DETAILED,
    Block Build1_Alt0 Storey 0 Wall 0001 window,    !- Name
    Window,                   !- Surface Type
    Project External Window,    !- Construction Name
    Block Build1_Alt0 Storey 0 Wall 0001,    !- Building Surface Name
    ,                         !- Outside Boundary Condition Object
    autocalculate,            !- View Factor to Ground
    ,                         !- Frame and Divider Name
    1.0,                      !- Multiplier
    autocalculate,            !- Number of Vertices
    8.6810355,                !- Vertex 1 Xcoordinate
    16.5527175,               !- Vertex 1 Ycoordinate
    1.95,                     !- Vertex 1 Zcoordinate
    8.6810355,                !- Vertex 2 Xcoordinate
    16.5527175,               !- Vertex 2 Ycoordinate
    1.05,                     !- Vertex 2 Zcoordinate
    -1.837435e+00,            !- Vertex 3 Xcoordinate
    17.1870825,               !- Vertex 3 Ycoordinate
    1.05,                     !- Vertex 3 Zcoordinate
    -1.837435e+00,            !- Vertex 4 Xcoordinate
    17.1870825,               !- Vertex 4 Ycoordinate
    1.95;                     !- Vertex 4 Zcoordinate

FENESTRATIONSURFACE:DETAILED,
    Block Build1_Alt0 Storey 0 Wall 0002 window,    !- Name
    Window,                   !- Surface Type
    Project External Window,    !- Construction Name
    Block Build1_Alt0 Storey 0 Wall 0002,    !- Building Surface Name
    ,                         !- Outside Boundary Condition Object
    autocalculate,            !- View Factor to Ground
    ,                         !- Frame and Divider Name
    1.0,                      !- Multiplier
    autocalculate,            !- Number of Vertices
    -1.8442605,               !- Vertex 1 Xcoordinate
    17.186089,                !- Vertex 1 Ycoordinate
    1.95,                     !- Vertex 1 Zcoordinate
    -1.8442605,               !- Vertex 2 Xcoordinate
    17.186089,                !- Vertex 2 Ycoordinate
    1.05,                     !- Vertex 2 Zcoordinate
    -4.9621395,               !- Vertex 3 Xcoordinate
    14.566711,                !- Vertex 3 Ycoordinate
    1.05,                     !- Vertex 3 Zcoordinate
    -4.9621395,               !- Vertex 4 Xcoordinate
    14.566711,                !- Vertex 4 Ycoordinate
    1.95;                     !- Vertex 4 Zcoordinate

FENESTRATIONSURFACE:DETAILED,
    Block Build1_Alt0 Storey 0 Wall 0003 window,    !- Name
    Window,                   !- Surface Type
    Project External Window,    !- Construction Name
    Block Build1_Alt0 Storey 0 Wall 0003,    !- Building Surface Name
    ,                         !- Outside Boundary Condition Object
    autocalculate,            !- View Factor to Ground
    ,                         !- Frame and Divider Name
    1.0,                      !- Multiplier
    autocalculate,            !- Number of Vertices
    -4.96417,                 !- Vertex 1 Xcoordinate
    14.560107,                !- Vertex 1 Ycoordinate
    1.95,                     !- Vertex 1 Zcoordinate
    -4.96417,                 !- Vertex 2 Xcoordinate
    14.560107,                !- Vertex 2 Ycoordinate
    1.05,                     !- Vertex 2 Zcoordinate
    -5.90323,                 !- Vertex 3 Xcoordinate
    3.984693,                 !- Vertex 3 Ycoordinate
    1.05,                     !- Vertex 3 Zcoordinate
    -5.90323,                 !- Vertex 4 Xcoordinate
    3.984693,                 !- Vertex 4 Ycoordinate
    1.95;                     !- Vertex 4 Zcoordinate

FENESTRATIONSURFACE:DETAILED,
    Block Build0_Alt0 Storey 0 Wall 0001_2 window,    !- Name
    Window,                   !- Surface Type
    Project External Window,    !- Construction Name
    Block Build0_Alt0 Storey 0 Wall 0001_2,    !- Building Surface Name
    ,                         !- Outside Boundary Condition Object
    autocalculate,            !- View Factor to Ground
    ,                         !- Frame and Divider Name
    1.0,                      !- Multiplier
    autocalculate,            !- Number of Vertices
    8.687716750031656,        !- Vertex 1 Xcoordinate
    16.54916034992761,        !- Vertex 1 Ycoordinate
    10.8,                     !- Vertex 1 Zcoordinate
    8.687716750031656,        !- Vertex 2 Xcoordinate
    16.54916034992761,        !- Vertex 2 Ycoordinate
    7.2,                      !- Vertex 2 Zcoordinate
    11.518383250136143,       !- Vertex 3 Xcoordinate
    10.076339649688686,       !- Vertex 3 Ycoordinate
    7.2,                      !- Vertex 3 Zcoordinate
    11.518383250136143,       !- Vertex 4 Xcoordinate
    10.076339649688686,       !- Vertex 4 Ycoordinate
    10.8;                     !- Vertex 4 Zcoordinate

FENESTRATIONSURFACE:DETAILED,
    Block Build0_Alt0 Storey 0 Wall 0002_2 window,    !- Name
    Window,                   !- Surface Type
    Project External Window,    !- Construction Name
    Block Build0_Alt0 Storey 0 Wall 0002_2,    !- Building Surface Name
    ,                         !- Outside Boundary Condition Object
    autocalculate,            !- View Factor to Ground
    ,                         !- Frame and Divider Name
    1.0,                      !- Multiplier
    autocalculate,            !- Number of Vertices
    11.514357099892571,       !- Vertex 1 Xcoordinate
    10.068092349901162,       !- Vertex 1 Ycoordinate
    10.8,                     !- Vertex 1 Zcoordinate
    11.514357099892571,       !- Vertex 2 Xcoordinate
    10.068092349901162,       !- Vertex 2 Ycoordinate
    7.2,                      !- Vertex 2 Zcoordinate
    0.6394428996127095,       !- Vertex 3 Xcoordinate
    6.280765e-02,             !- Vertex 3 Ycoordinate
    7.2,                      !- Vertex 3 Zcoordinate
    0.6394428996127095,       !- Vertex 4 Xcoordinate
    6.280765e-02,             !- Vertex 4 Ycoordinate
    10.8;                     !- Vertex 4 Zcoordinate

FENESTRATIONSURFACE:DETAILED,
    Block Build0_Alt0 Storey 0 Wall 0003_2 window,    !- Name
    Window,                   !- Surface Type
    Project External Window,    !- Construction Name
    Block Build0_Alt0 Storey 0 Wall 0003_2,    !- Building Surface Name
    ,                         !- Outside Boundary Condition Object
    autocalculate,            !- View Factor to Ground
    ,                         !- Frame and Divider Name
    1.0,                      !- Multiplier
    autocalculate,            !- Number of Vertices
    0.630731149612926,        !- Vertex 1 Xcoordinate
    5.976080e-02,             !- Vertex 1 Ycoordinate
    10.8,                     !- Vertex 1 Zcoordinate
    0.630731149612926,        !- Vertex 2 Xcoordinate
    5.976080e-02,             !- Vertex 2 Ycoordinate
    7.2,                      !- Vertex 2 Zcoordinate
    -5.90043114967551,        !- Vertex 3 Xcoordinate
    3.9774391998053575,       !- Vertex 3 Ycoordinate
    7.2,                      !- Vertex 3 Zcoordinate
    -5.90043114967551,        !- Vertex 4 Xcoordinate
    3.9774391998053575,       !- Vertex 4 Ycoordinate
    10.8;                     !- Vertex 4 Zcoordinate

INTERNALMASS,
    Block Build0_Alt0 Storey -1IntMass,    !- Name
    NonHeatedZoneIntMassObj,    !- Construction Name
    Block Build0_Alt0 Storey -1,    !- Zone or ZoneList Name
    3145;                     !- Surface Area

INTERNALMASS,
    Block Build1_Alt0 Storey -1IntMass,    !- Name
    NonHeatedZoneIntMassObj,    !- Construction Name
    Block Build1_Alt0 Storey -1,    !- Zone or ZoneList Name
    821;                      !- Surface Area

INTERNALMASS,
    Block Build0_Alt0 Storey 0IntMass,    !- Name
    HeatedZoneIntMassObj,     !- Construction Name
    Block Build0_Alt0 Storey 0,    !- Zone or ZoneList Name
    7861;                     !- Surface Area

INTERNALMASS,
    Block Build1_Alt0 Storey 0IntMass,    !- Name
    HeatedZoneIntMassObj,     !- Construction Name
    Block Build1_Alt0 Storey 0,    !- Zone or ZoneList Name
    411;                      !- Surface Area

SHADING:SITE:DETAILED,
    Shading_V43_1,            !- Name
    ,                         !- Transmittance Schedule Name
    autocalculate,            !- Number of Vertices
    86.3043,                  !- Vertex 1 Xcoordinate
    34.4444,                  !- Vertex 1 Ycoordinate
    23.8,                     !- Vertex 1 Zcoordinate
    86.3043,                  !- Vertex 2 Xcoordinate
    34.4444,                  !- Vertex 2 Ycoordinate
    0,                        !- Vertex 2 Zcoordinate
    78.6463,                  !- Vertex 3 Xcoordinate
    27.8594,                  !- Vertex 3 Ycoordinate
    0,                        !- Vertex 3 Zcoordinate
    78.6463,                  !- Vertex 4 Xcoordinate
    27.8594,                  !- Vertex 4 Ycoordinate
    23.8;                     !- Vertex 4 Zcoordinate

SHADING:SITE:DETAILED,
    Shading_V44_1,            !- Name
    ,                         !- Transmittance Schedule Name
    autocalculate,            !- Number of Vertices
    78.6463,                  !- Vertex 1 Xcoordinate
    27.8594,                  !- Vertex 1 Ycoordinate
    23.8,                     !- Vertex 1 Zcoordinate
    78.6463,                  !- Vertex 2 Xcoordinate
    27.8594,                  !- Vertex 2 Ycoordinate
    0,                        !- Vertex 2 Zcoordinate
    82.4613,                  !- Vertex 3 Xcoordinate
    23.4224,                  !- Vertex 3 Ycoordinate
    0,                        !- Vertex 3 Zcoordinate
    82.4613,                  !- Vertex 4 Xcoordinate
    23.4224,                  !- Vertex 4 Ycoordinate
    23.8;                     !- Vertex 4 Zcoordinate

SHADING:SITE:DETAILED,
    Shading_V45_1,            !- Name
    ,                         !- Transmittance Schedule Name
    autocalculate,            !- Number of Vertices
    82.4613,                  !- Vertex 1 Xcoordinate
    23.4224,                  !- Vertex 1 Ycoordinate
    23.8,                     !- Vertex 1 Zcoordinate
    82.4613,                  !- Vertex 2 Xcoordinate
    23.4224,                  !- Vertex 2 Ycoordinate
    0,                        !- Vertex 2 Zcoordinate
    77.8353,                  !- Vertex 3 Xcoordinate
    19.4454,                  !- Vertex 3 Ycoordinate
    0,                        !- Vertex 3 Zcoordinate
    77.8353,                  !- Vertex 4 Xcoordinate
    19.4454,                  !- Vertex 4 Ycoordinate
    23.8;                     !- Vertex 4 Zcoordinate

SHADING:SITE:DETAILED,
    Shading_V46_1,            !- Name
    ,                         !- Transmittance Schedule Name
    autocalculate,            !- Number of Vertices
    77.8353,                  !- Vertex 1 Xcoordinate
    19.4454,                  !- Vertex 1 Ycoordinate
    23.8,                     !- Vertex 1 Zcoordinate
    77.8353,                  !- Vertex 2 Xcoordinate
    19.4454,                  !- Vertex 2 Ycoordinate
    0,                        !- Vertex 2 Zcoordinate
    80.4423,                  !- Vertex 3 Xcoordinate
    16.4134,                  !- Vertex 3 Ycoordinate
    0,                        !- Vertex 3 Zcoordinate
    80.4423,                  !- Vertex 4 Xcoordinate
    16.4134,                  !- Vertex 4 Ycoordinate
    23.8;                     !- Vertex 4 Zcoordinate

SHADING:SITE:DETAILED,
    Shading_V47_1,            !- Name
    ,                         !- Transmittance Schedule Name
    autocalculate,            !- Number of Vertices
    80.4423,                  !- Vertex 1 Xcoordinate
    16.4134,                  !- Vertex 1 Ycoordinate
    23.8,                     !- Vertex 1 Zcoordinate
    80.4423,                  !- Vertex 2 Xcoordinate
    16.4134,                  !- Vertex 2 Ycoordinate
    0,                        !- Vertex 2 Zcoordinate
    77.4083,                  !- Vertex 3 Xcoordinate
    13.8044,                  !- Vertex 3 Ycoordinate
    0,                        !- Vertex 3 Zcoordinate
    77.4083,                  !- Vertex 4 Xcoordinate
    13.8044,                  !- Vertex 4 Ycoordinate
    23.8;                     !- Vertex 4 Zcoordinate

SHADING:SITE:DETAILED,
    Shading_V123_1,           !- Name
    ,                         !- Transmittance Schedule Name
    autocalculate,            !- Number of Vertices
    46.3233,                  !- Vertex 1 Xcoordinate
    -5.1386,                  !- Vertex 1 Ycoordinate
    15.5,                     !- Vertex 1 Zcoordinate
    46.3233,                  !- Vertex 2 Xcoordinate
    -5.1386,                  !- Vertex 2 Ycoordinate
    0,                        !- Vertex 2 Zcoordinate
    40.5923,                  !- Vertex 3 Xcoordinate
    -10.0566,                 !- Vertex 3 Ycoordinate
    0,                        !- Vertex 3 Zcoordinate
    40.5923,                  !- Vertex 4 Xcoordinate
    -10.0566,                 !- Vertex 4 Ycoordinate
    15.5;                     !- Vertex 4 Zcoordinate

SHADING:SITE:DETAILED,
    Shading_V124_1,           !- Name
    ,                         !- Transmittance Schedule Name
    autocalculate,            !- Number of Vertices
    40.5923,                  !- Vertex 1 Xcoordinate
    -10.0566,                 !- Vertex 1 Ycoordinate
    15.5,                     !- Vertex 1 Zcoordinate
    40.5923,                  !- Vertex 2 Xcoordinate
    -10.0566,                 !- Vertex 2 Ycoordinate
    0,                        !- Vertex 2 Zcoordinate
    37.9003,                  !- Vertex 3 Xcoordinate
    -7.0266,                  !- Vertex 3 Ycoordinate
    0,                        !- Vertex 3 Zcoordinate
    37.9003,                  !- Vertex 4 Xcoordinate
    -7.0266,                  !- Vertex 4 Ycoordinate
    15.5;                     !- Vertex 4 Zcoordinate

SHADING:SITE:DETAILED,
    Shading_V125_1,           !- Name
    ,                         !- Transmittance Schedule Name
    autocalculate,            !- Number of Vertices
    37.9003,                  !- Vertex 1 Xcoordinate
    -7.0266,                  !- Vertex 1 Ycoordinate
    15.5,                     !- Vertex 1 Zcoordinate
    37.9003,                  !- Vertex 2 Xcoordinate
    -7.0266,                  !- Vertex 2 Ycoordinate
    0,                        !- Vertex 2 Zcoordinate
    32.7463,                  !- Vertex 3 Xcoordinate
    -11.4166,                 !- Vertex 3 Ycoordinate
    0,                        !- Vertex 3 Zcoordinate
    32.7463,                  !- Vertex 4 Xcoordinate
    -11.4166,                 !- Vertex 4 Ycoordinate
    15.5;                     !- Vertex 4 Zcoordinate

SHADING:SITE:DETAILED,
    Shading_V325_1,           !- Name
    ,                         !- Transmittance Schedule Name
    autocalculate,            !- Number of Vertices
    58.0513,                  !- Vertex 1 Xcoordinate
    10.2624,                  !- Vertex 1 Ycoordinate
    15.8,                     !- Vertex 1 Zcoordinate
    58.0513,                  !- Vertex 2 Xcoordinate
    10.2624,                  !- Vertex 2 Ycoordinate
    0,                        !- Vertex 2 Zcoordinate
    50.3323,                  !- Vertex 3 Xcoordinate
    3.7164,                   !- Vertex 3 Ycoordinate
    0,                        !- Vertex 3 Zcoordinate
    50.3323,                  !- Vertex 4 Xcoordinate
    3.7164,                   !- Vertex 4 Ycoordinate
    15.8;                     !- Vertex 4 Zcoordinate

SHADING:SITE:DETAILED,
    Shading_V326_1,           !- Name
    ,                         !- Transmittance Schedule Name
    autocalculate,            !- Number of Vertices
    50.3323,                  !- Vertex 1 Xcoordinate
    3.7164,                   !- Vertex 1 Ycoordinate
    15.8,                     !- Vertex 1 Zcoordinate
    50.3323,                  !- Vertex 2 Xcoordinate
    3.7164,                   !- Vertex 2 Ycoordinate
    0,                        !- Vertex 2 Zcoordinate
    72.1603,                  !- Vertex 3 Xcoordinate
    -21.6636,                 !- Vertex 3 Ycoordinate
    0,                        !- Vertex 3 Zcoordinate
    72.1603,                  !- Vertex 4 Xcoordinate
    -21.6636,                 !- Vertex 4 Ycoordinate
    15.8;                     !- Vertex 4 Zcoordinate

SHADING:SITE:DETAILED,
    Shading_V327_1,           !- Name
    ,                         !- Transmittance Schedule Name
    autocalculate,            !- Number of Vertices
    72.1603,                  !- Vertex 1 Xcoordinate
    -21.6636,                 !- Vertex 1 Ycoordinate
    15.8,                     !- Vertex 1 Zcoordinate
    72.1603,                  !- Vertex 2 Xcoordinate
    -21.6636,                 !- Vertex 2 Ycoordinate
    0,                        !- Vertex 2 Zcoordinate
    69.1503,                  !- Vertex 3 Xcoordinate
    -24.2546,                 !- Vertex 3 Ycoordinate
    0,                        !- Vertex 3 Zcoordinate
    69.1503,                  !- Vertex 4 Xcoordinate
    -24.2546,                 !- Vertex 4 Ycoordinate
    15.8;                     !- Vertex 4 Zcoordinate

SHADING:SITE:DETAILED,
    Shading_V127_1,           !- Name
    ,                         !- Transmittance Schedule Name
    autocalculate,            !- Number of Vertices
    35.3853,                  !- Vertex 1 Xcoordinate
    -14.3986,                 !- Vertex 1 Ycoordinate
    15.5,                     !- Vertex 1 Zcoordinate
    35.3853,                  !- Vertex 2 Xcoordinate
    -14.3986,                 !- Vertex 2 Ycoordinate
    0,                        !- Vertex 2 Zcoordinate
    22.9673,                  !- Vertex 3 Xcoordinate
    -25.1806,                 !- Vertex 3 Ycoordinate
    0,                        !- Vertex 3 Zcoordinate
    22.9673,                  !- Vertex 4 Xcoordinate
    -25.1806,                 !- Vertex 4 Ycoordinate
    15.5;                     !- Vertex 4 Zcoordinate

SHADING:SITE:DETAILED,
    Shading_V128_1,           !- Name
    ,                         !- Transmittance Schedule Name
    autocalculate,            !- Number of Vertices
    22.9673,                  !- Vertex 1 Xcoordinate
    -25.1806,                 !- Vertex 1 Ycoordinate
    15.5,                     !- Vertex 1 Zcoordinate
    22.9673,                  !- Vertex 2 Xcoordinate
    -25.1806,                 !- Vertex 2 Ycoordinate
    0,                        !- Vertex 2 Zcoordinate
    20.3703,                  !- Vertex 3 Xcoordinate
    -22.0456,                 !- Vertex 3 Ycoordinate
    0,                        !- Vertex 3 Zcoordinate
    20.3703,                  !- Vertex 4 Xcoordinate
    -22.0456,                 !- Vertex 4 Ycoordinate
    15.5;                     !- Vertex 4 Zcoordinate

SHADING:SITE:DETAILED,
    Shading_V129_1,           !- Name
    ,                         !- Transmittance Schedule Name
    autocalculate,            !- Number of Vertices
    20.3703,                  !- Vertex 1 Xcoordinate
    -22.0456,                 !- Vertex 1 Ycoordinate
    15.5,                     !- Vertex 1 Zcoordinate
    20.3703,                  !- Vertex 2 Xcoordinate
    -22.0456,                 !- Vertex 2 Ycoordinate
    0,                        !- Vertex 2 Zcoordinate
    15.2683,                  !- Vertex 3 Xcoordinate
    -26.4846,                 !- Vertex 3 Ycoordinate
    0,                        !- Vertex 3 Zcoordinate
    15.2683,                  !- Vertex 4 Xcoordinate
    -26.4846,                 !- Vertex 4 Ycoordinate
    15.5;                     !- Vertex 4 Zcoordinate

SHADING:SITE:DETAILED,
    Shading_V289_1,           !- Name
    ,                         !- Transmittance Schedule Name
    autocalculate,            !- Number of Vertices
    -87.7487,                 !- Vertex 1 Xcoordinate
    -134.6026,                !- Vertex 1 Ycoordinate
    7.8,                      !- Vertex 1 Zcoordinate
    -87.7487,                 !- Vertex 2 Xcoordinate
    -134.6026,                !- Vertex 2 Ycoordinate
    0,                        !- Vertex 2 Zcoordinate
    -96.2947,                 !- Vertex 3 Xcoordinate
    -136.6486,                !- Vertex 3 Ycoordinate
    0,                        !- Vertex 3 Zcoordinate
    -96.2947,                 !- Vertex 4 Xcoordinate
    -136.6486,                !- Vertex 4 Ycoordinate
    7.8;                      !- Vertex 4 Zcoordinate

SHADING:SITE:DETAILED,
    Shading_V304_1,           !- Name
    ,                         !- Transmittance Schedule Name
    autocalculate,            !- Number of Vertices
    3.8183,                   !- Vertex 1 Xcoordinate
    -57.2896,                 !- Vertex 1 Ycoordinate
    18.8,                     !- Vertex 1 Zcoordinate
    3.8183,                   !- Vertex 2 Xcoordinate
    -57.2896,                 !- Vertex 2 Ycoordinate
    0,                        !- Vertex 2 Zcoordinate
    -2.2137,                  !- Vertex 3 Xcoordinate
    -50.2906,                 !- Vertex 3 Ycoordinate
    0,                        !- Vertex 3 Zcoordinate
    -2.2137,                  !- Vertex 4 Xcoordinate
    -50.2906,                 !- Vertex 4 Ycoordinate
    18.8;                     !- Vertex 4 Zcoordinate

SHADING:SITE:DETAILED,
    Shading_V305_1,           !- Name
    ,                         !- Transmittance Schedule Name
    autocalculate,            !- Number of Vertices
    -2.2137,                  !- Vertex 1 Xcoordinate
    -50.2906,                 !- Vertex 1 Ycoordinate
    18.8,                     !- Vertex 1 Zcoordinate
    -2.2137,                  !- Vertex 2 Xcoordinate
    -50.2906,                 !- Vertex 2 Ycoordinate
    0,                        !- Vertex 2 Zcoordinate
    -6.3737,                  !- Vertex 3 Xcoordinate
    -53.8756,                 !- Vertex 3 Ycoordinate
    0,                        !- Vertex 3 Zcoordinate
    -6.3737,                  !- Vertex 4 Xcoordinate
    -53.8756,                 !- Vertex 4 Ycoordinate
    18.8;                     !- Vertex 4 Zcoordinate

SHADING:SITE:DETAILED,
    Shading_V306_1,           !- Name
    ,                         !- Transmittance Schedule Name
    autocalculate,            !- Number of Vertices
    -6.3737,                  !- Vertex 1 Xcoordinate
    -53.8756,                 !- Vertex 1 Ycoordinate
    18.8,                     !- Vertex 1 Zcoordinate
    -6.3737,                  !- Vertex 2 Xcoordinate
    -53.8756,                 !- Vertex 2 Ycoordinate
    0,                        !- Vertex 2 Zcoordinate
    -12.1907,                 !- Vertex 3 Xcoordinate
    -47.0496,                 !- Vertex 3 Ycoordinate
    0,                        !- Vertex 3 Zcoordinate
    -12.1907,                 !- Vertex 4 Xcoordinate
    -47.0496,                 !- Vertex 4 Ycoordinate
    18.8;                     !- Vertex 4 Zcoordinate

SHADING:SITE:DETAILED,
    Shading_V307_1,           !- Name
    ,                         !- Transmittance Schedule Name
    autocalculate,            !- Number of Vertices
    -12.1907,                 !- Vertex 1 Xcoordinate
    -47.0496,                 !- Vertex 1 Ycoordinate
    18.8,                     !- Vertex 1 Zcoordinate
    -12.1907,                 !- Vertex 2 Xcoordinate
    -47.0496,                 !- Vertex 2 Ycoordinate
    0,                        !- Vertex 2 Zcoordinate
    -19.8627,                 !- Vertex 3 Xcoordinate
    -53.6536,                 !- Vertex 3 Ycoordinate
    0,                        !- Vertex 3 Zcoordinate
    -19.8627,                 !- Vertex 4 Xcoordinate
    -53.6536,                 !- Vertex 4 Ycoordinate
    18.8;                     !- Vertex 4 Zcoordinate

SHADING:SITE:DETAILED,
    Shading_V452_1,           !- Name
    ,                         !- Transmittance Schedule Name
    autocalculate,            !- Number of Vertices
    -120.7447,                !- Vertex 1 Xcoordinate
    -157.2936,                !- Vertex 1 Ycoordinate
    6.4,                      !- Vertex 1 Zcoordinate
    -120.7447,                !- Vertex 2 Xcoordinate
    -157.2936,                !- Vertex 2 Ycoordinate
    0,                        !- Vertex 2 Zcoordinate
    -127.5737,                !- Vertex 3 Xcoordinate
    -129.1526,                !- Vertex 3 Ycoordinate
    0,                        !- Vertex 3 Zcoordinate
    -127.5737,                !- Vertex 4 Xcoordinate
    -129.1526,                !- Vertex 4 Ycoordinate
    6.4;                      !- Vertex 4 Zcoordinate

SHADING:SITE:DETAILED,
    Shading_V478_1,           !- Name
    ,                         !- Transmittance Schedule Name
    autocalculate,            !- Number of Vertices
    62.6093,                  !- Vertex 1 Xcoordinate
    35.5374,                  !- Vertex 1 Ycoordinate
    12.8,                     !- Vertex 1 Zcoordinate
    62.6093,                  !- Vertex 2 Xcoordinate
    35.5374,                  !- Vertex 2 Ycoordinate
    0,                        !- Vertex 2 Zcoordinate
    66.7813,                  !- Vertex 3 Xcoordinate
    30.6774,                  !- Vertex 3 Ycoordinate
    0,                        !- Vertex 3 Zcoordinate
    66.7813,                  !- Vertex 4 Xcoordinate
    30.6774,                  !- Vertex 4 Ycoordinate
    12.8;                     !- Vertex 4 Zcoordinate

SHADING:SITE:DETAILED,
    Shading_V87_1,            !- Name
    ,                         !- Transmittance Schedule Name
    autocalculate,            !- Number of Vertices
    -78.9663,                 !- Vertex 1 Xcoordinate
    17.0867,                  !- Vertex 1 Ycoordinate
    12,                       !- Vertex 1 Zcoordinate
    -78.9663,                 !- Vertex 2 Xcoordinate
    17.0867,                  !- Vertex 2 Ycoordinate
    0,                        !- Vertex 2 Zcoordinate
    -78.1847,                 !- Vertex 3 Xcoordinate
    27.5604,                  !- Vertex 3 Ycoordinate
    0,                        !- Vertex 3 Zcoordinate
    -78.1847,                 !- Vertex 4 Xcoordinate
    27.5604,                  !- Vertex 4 Ycoordinate
    12;                       !- Vertex 4 Zcoordinate

SHADING:SITE:DETAILED,
    Shading_V88_1,            !- Name
    ,                         !- Transmittance Schedule Name
    autocalculate,            !- Number of Vertices
    -78.1847,                 !- Vertex 1 Xcoordinate
    27.5604,                  !- Vertex 1 Ycoordinate
    12,                       !- Vertex 1 Zcoordinate
    -78.1847,                 !- Vertex 2 Xcoordinate
    27.5604,                  !- Vertex 2 Ycoordinate
    0,                        !- Vertex 2 Zcoordinate
    -74.1967,                 !- Vertex 3 Xcoordinate
    30.9524,                  !- Vertex 3 Ycoordinate
    0,                        !- Vertex 3 Zcoordinate
    -74.1967,                 !- Vertex 4 Xcoordinate
    30.9524,                  !- Vertex 4 Ycoordinate
    12;                       !- Vertex 4 Zcoordinate

SHADING:SITE:DETAILED,
    Shading_V89_1,            !- Name
    ,                         !- Transmittance Schedule Name
    autocalculate,            !- Number of Vertices
    -74.1967,                 !- Vertex 1 Xcoordinate
    30.9524,                  !- Vertex 1 Ycoordinate
    12,                       !- Vertex 1 Zcoordinate
    -74.1967,                 !- Vertex 2 Xcoordinate
    30.9524,                  !- Vertex 2 Ycoordinate
    0,                        !- Vertex 2 Zcoordinate
    -78.8497,                 !- Vertex 3 Xcoordinate
    36.3904,                  !- Vertex 3 Ycoordinate
    0,                        !- Vertex 3 Zcoordinate
    -78.8497,                 !- Vertex 4 Xcoordinate
    36.3904,                  !- Vertex 4 Ycoordinate
    12;                       !- Vertex 4 Zcoordinate

SHADING:SITE:DETAILED,
    Shading_V94_1,            !- Name
    ,                         !- Transmittance Schedule Name
    autocalculate,            !- Number of Vertices
    -45.4178,                 !- Vertex 1 Xcoordinate
    78.0323,                  !- Vertex 1 Ycoordinate
    15.5,                     !- Vertex 1 Zcoordinate
    -45.4178,                 !- Vertex 2 Xcoordinate
    78.0323,                  !- Vertex 2 Ycoordinate
    0,                        !- Vertex 2 Zcoordinate
    -33.5067,                 !- Vertex 3 Xcoordinate
    88.2784,                  !- Vertex 3 Ycoordinate
    0,                        !- Vertex 3 Zcoordinate
    -33.5067,                 !- Vertex 4 Xcoordinate
    88.2784,                  !- Vertex 4 Ycoordinate
    15.5;                     !- Vertex 4 Zcoordinate

SHADING:SITE:DETAILED,
    Shading_V108_1,           !- Name
    ,                         !- Transmittance Schedule Name
    autocalculate,            !- Number of Vertices
    -66.6797,                 !- Vertex 1 Xcoordinate
    59.6374,                  !- Vertex 1 Ycoordinate
    15.5,                     !- Vertex 1 Zcoordinate
    -66.6797,                 !- Vertex 2 Xcoordinate
    59.6374,                  !- Vertex 2 Ycoordinate
    0,                        !- Vertex 2 Zcoordinate
    -58.4257,                 !- Vertex 3 Xcoordinate
    66.7184,                  !- Vertex 3 Ycoordinate
    0,                        !- Vertex 3 Zcoordinate
    -58.4257,                 !- Vertex 4 Xcoordinate
    66.7184,                  !- Vertex 4 Ycoordinate
    15.5;                     !- Vertex 4 Zcoordinate

SHADING:SITE:DETAILED,
    Shading_V219_1,           !- Name
    ,                         !- Transmittance Schedule Name
    autocalculate,            !- Number of Vertices
    -42.8847,                 !- Vertex 1 Xcoordinate
    112.6084,                 !- Vertex 1 Ycoordinate
    14.3,                     !- Vertex 1 Zcoordinate
    -42.8847,                 !- Vertex 2 Xcoordinate
    112.6084,                 !- Vertex 2 Ycoordinate
    0,                        !- Vertex 2 Zcoordinate
    -20.5197,                 !- Vertex 3 Xcoordinate
    86.4454,                  !- Vertex 3 Ycoordinate
    0,                        !- Vertex 3 Zcoordinate
    -20.5197,                 !- Vertex 4 Xcoordinate
    86.4454,                  !- Vertex 4 Ycoordinate
    14.3;                     !- Vertex 4 Zcoordinate

SHADING:SITE:DETAILED,
    Shading_V221_1,           !- Name
    ,                         !- Transmittance Schedule Name
    autocalculate,            !- Number of Vertices
    -23.5587,                 !- Vertex 1 Xcoordinate
    83.8444,                  !- Vertex 1 Ycoordinate
    14.3,                     !- Vertex 1 Zcoordinate
    -23.5587,                 !- Vertex 2 Xcoordinate
    83.8444,                  !- Vertex 2 Ycoordinate
    0,                        !- Vertex 2 Zcoordinate
    -19.7427,                 !- Vertex 3 Xcoordinate
    79.3854,                  !- Vertex 3 Ycoordinate
    0,                        !- Vertex 3 Zcoordinate
    -19.7427,                 !- Vertex 4 Xcoordinate
    79.3854,                  !- Vertex 4 Ycoordinate
    14.3;                     !- Vertex 4 Zcoordinate

SHADING:SITE:DETAILED,
    Shading_V222_1,           !- Name
    ,                         !- Transmittance Schedule Name
    autocalculate,            !- Number of Vertices
    -19.7427,                 !- Vertex 1 Xcoordinate
    79.3854,                  !- Vertex 1 Ycoordinate
    14.3,                     !- Vertex 1 Zcoordinate
    -19.7427,                 !- Vertex 2 Xcoordinate
    79.3854,                  !- Vertex 2 Ycoordinate
    0,                        !- Vertex 2 Zcoordinate
    -16.7027,                 !- Vertex 3 Xcoordinate
    81.9854,                  !- Vertex 3 Ycoordinate
    0,                        !- Vertex 3 Zcoordinate
    -16.7027,                 !- Vertex 4 Xcoordinate
    81.9854,                  !- Vertex 4 Ycoordinate
    14.3;                     !- Vertex 4 Zcoordinate

SHADING:SITE:DETAILED,
    Shading_V223_1,           !- Name
    ,                         !- Transmittance Schedule Name
    autocalculate,            !- Number of Vertices
    -16.7027,                 !- Vertex 1 Xcoordinate
    81.9854,                  !- Vertex 1 Ycoordinate
    14.3,                     !- Vertex 1 Zcoordinate
    -16.7027,                 !- Vertex 2 Xcoordinate
    81.9854,                  !- Vertex 2 Ycoordinate
    0,                        !- Vertex 2 Zcoordinate
    5.1523,                   !- Vertex 3 Xcoordinate
    80.2874,                  !- Vertex 3 Ycoordinate
    0,                        !- Vertex 3 Zcoordinate
    5.1523,                   !- Vertex 4 Xcoordinate
    80.2874,                  !- Vertex 4 Ycoordinate
    14.3;                     !- Vertex 4 Zcoordinate

SHADING:SITE:DETAILED,
    Shading_V224_1,           !- Name
    ,                         !- Transmittance Schedule Name
    autocalculate,            !- Number of Vertices
    5.1523,                   !- Vertex 1 Xcoordinate
    80.2874,                  !- Vertex 1 Ycoordinate
    14.3,                     !- Vertex 1 Zcoordinate
    5.1523,                   !- Vertex 2 Xcoordinate
    80.2874,                  !- Vertex 2 Ycoordinate
    0,                        !- Vertex 2 Zcoordinate
    8.7283,                   !- Vertex 3 Xcoordinate
    76.1084,                  !- Vertex 3 Ycoordinate
    0,                        !- Vertex 3 Zcoordinate
    8.7283,                   !- Vertex 4 Xcoordinate
    76.1084,                  !- Vertex 4 Ycoordinate
    14.3;                     !- Vertex 4 Zcoordinate

SHADING:SITE:DETAILED,
    Shading_V225_1,           !- Name
    ,                         !- Transmittance Schedule Name
    autocalculate,            !- Number of Vertices
    8.7283,                   !- Vertex 1 Xcoordinate
    76.1084,                  !- Vertex 1 Ycoordinate
    14.3,                     !- Vertex 1 Zcoordinate
    8.7283,                   !- Vertex 2 Xcoordinate
    76.1084,                  !- Vertex 2 Ycoordinate
    0,                        !- Vertex 2 Zcoordinate
    16.3253,                  !- Vertex 3 Xcoordinate
    82.6094,                  !- Vertex 3 Ycoordinate
    0,                        !- Vertex 3 Zcoordinate
    16.3253,                  !- Vertex 4 Xcoordinate
    82.6094,                  !- Vertex 4 Ycoordinate
    14.3;                     !- Vertex 4 Zcoordinate

SHADING:SITE:DETAILED,
    Shading_V284_1,           !- Name
    ,                         !- Transmittance Schedule Name
    autocalculate,            !- Number of Vertices
    -110.6947,                !- Vertex 1 Xcoordinate
    67.3164,                  !- Vertex 1 Ycoordinate
    18.7,                     !- Vertex 1 Zcoordinate
    -110.6947,                !- Vertex 2 Xcoordinate
    67.3164,                  !- Vertex 2 Ycoordinate
    0,                        !- Vertex 2 Zcoordinate
    -116.5217,                !- Vertex 3 Xcoordinate
    74.0824,                  !- Vertex 3 Ycoordinate
    0,                        !- Vertex 3 Zcoordinate
    -116.5217,                !- Vertex 4 Xcoordinate
    74.0824,                  !- Vertex 4 Ycoordinate
    18.7;                     !- Vertex 4 Zcoordinate

SHADING:SITE:DETAILED,
    Shading_V285_1,           !- Name
    ,                         !- Transmittance Schedule Name
    autocalculate,            !- Number of Vertices
    -116.5217,                !- Vertex 1 Xcoordinate
    74.0824,                  !- Vertex 1 Ycoordinate
    18.7,                     !- Vertex 1 Zcoordinate
    -116.5217,                !- Vertex 2 Xcoordinate
    74.0824,                  !- Vertex 2 Ycoordinate
    0,                        !- Vertex 2 Zcoordinate
    -111.2547,                !- Vertex 3 Xcoordinate
    78.6954,                  !- Vertex 3 Ycoordinate
    0,                        !- Vertex 3 Zcoordinate
    -111.2547,                !- Vertex 4 Xcoordinate
    78.6954,                  !- Vertex 4 Ycoordinate
    18.7;                     !- Vertex 4 Zcoordinate

SHADING:SITE:DETAILED,
    Shading_V286_1,           !- Name
    ,                         !- Transmittance Schedule Name
    autocalculate,            !- Number of Vertices
    -111.2547,                !- Vertex 1 Xcoordinate
    78.6954,                  !- Vertex 1 Ycoordinate
    18.7,                     !- Vertex 1 Zcoordinate
    -111.2547,                !- Vertex 2 Xcoordinate
    78.6954,                  !- Vertex 2 Ycoordinate
    0,                        !- Vertex 2 Zcoordinate
    -117.7977,                !- Vertex 3 Xcoordinate
    86.3004,                  !- Vertex 3 Ycoordinate
    0,                        !- Vertex 3 Zcoordinate
    -117.7977,                !- Vertex 4 Xcoordinate
    86.3004,                  !- Vertex 4 Ycoordinate
    18.7;                     !- Vertex 4 Zcoordinate

SHADING:SITE:DETAILED,
    Shading_V354_1,           !- Name
    ,                         !- Transmittance Schedule Name
    autocalculate,            !- Number of Vertices
    -58.4257,                 !- Vertex 1 Xcoordinate
    66.7184,                  !- Vertex 1 Ycoordinate
    3.7,                      !- Vertex 1 Zcoordinate
    -58.4257,                 !- Vertex 2 Xcoordinate
    66.7184,                  !- Vertex 2 Ycoordinate
    0,                        !- Vertex 2 Zcoordinate
    -50.4107,                 !- Vertex 3 Xcoordinate
    66.1304,                  !- Vertex 3 Ycoordinate
    0,                        !- Vertex 3 Zcoordinate
    -50.4107,                 !- Vertex 4 Xcoordinate
    66.1304,                  !- Vertex 4 Ycoordinate
    3.7;                      !- Vertex 4 Zcoordinate

SHADING:SITE:DETAILED,
    Shading_V355_1,           !- Name
    ,                         !- Transmittance Schedule Name
    autocalculate,            !- Number of Vertices
    -50.4107,                 !- Vertex 1 Xcoordinate
    66.1304,                  !- Vertex 1 Ycoordinate
    3.7,                      !- Vertex 1 Zcoordinate
    -50.4107,                 !- Vertex 2 Xcoordinate
    66.1304,                  !- Vertex 2 Ycoordinate
    0,                        !- Vertex 2 Zcoordinate
    -46.0007,                 !- Vertex 3 Xcoordinate
    69.9044,                  !- Vertex 3 Ycoordinate
    0,                        !- Vertex 3 Zcoordinate
    -46.0007,                 !- Vertex 4 Xcoordinate
    69.9044,                  !- Vertex 4 Ycoordinate
    3.7;                      !- Vertex 4 Zcoordinate

SHADING:SITE:DETAILED,
    Shading_V356_1,           !- Name
    ,                         !- Transmittance Schedule Name
    autocalculate,            !- Number of Vertices
    -46.0007,                 !- Vertex 1 Xcoordinate
    69.9044,                  !- Vertex 1 Ycoordinate
    3.7,                      !- Vertex 1 Zcoordinate
    -46.0007,                 !- Vertex 2 Xcoordinate
    69.9044,                  !- Vertex 2 Ycoordinate
    0,                        !- Vertex 2 Zcoordinate
    -45.4178,                 !- Vertex 3 Xcoordinate
    78.0323,                  !- Vertex 3 Ycoordinate
    0,                        !- Vertex 3 Zcoordinate
    -45.4178,                 !- Vertex 4 Xcoordinate
    78.0323,                  !- Vertex 4 Ycoordinate
    3.7;                      !- Vertex 4 Zcoordinate

SHADING:SITE:DETAILED,
    Shading_V375_1,           !- Name
    ,                         !- Transmittance Schedule Name
    autocalculate,            !- Number of Vertices
    12.9983,                  !- Vertex 1 Xcoordinate
    42.8814,                  !- Vertex 1 Ycoordinate
    14.2,                     !- Vertex 1 Zcoordinate
    12.9983,                  !- Vertex 2 Xcoordinate
    42.8814,                  !- Vertex 2 Ycoordinate
    0,                        !- Vertex 2 Zcoordinate
    19.3323,                  !- Vertex 3 Xcoordinate
    35.2664,                  !- Vertex 3 Ycoordinate
    0,                        !- Vertex 3 Zcoordinate
    19.3323,                  !- Vertex 4 Xcoordinate
    35.2664,                  !- Vertex 4 Ycoordinate
    14.2;                     !- Vertex 4 Zcoordinate

SHADING:SITE:DETAILED,
    Shading_V376_1,           !- Name
    ,                         !- Transmittance Schedule Name
    autocalculate,            !- Number of Vertices
    19.3323,                  !- Vertex 1 Xcoordinate
    35.2664,                  !- Vertex 1 Ycoordinate
    14.2,                     !- Vertex 1 Zcoordinate
    19.3323,                  !- Vertex 2 Xcoordinate
    35.2664,                  !- Vertex 2 Ycoordinate
    0,                        !- Vertex 2 Zcoordinate
    22.3283,                  !- Vertex 3 Xcoordinate
    37.9194,                  !- Vertex 3 Ycoordinate
    0,                        !- Vertex 3 Zcoordinate
    22.3283,                  !- Vertex 4 Xcoordinate
    37.9194,                  !- Vertex 4 Ycoordinate
    14.2;                     !- Vertex 4 Zcoordinate

SHADING:SITE:DETAILED,
    Shading_V506_1,           !- Name
    ,                         !- Transmittance Schedule Name
    autocalculate,            !- Number of Vertices
    -85.8624,                 !- Vertex 1 Xcoordinate
    38.5082,                  !- Vertex 1 Ycoordinate
    19,                       !- Vertex 1 Zcoordinate
    -85.8624,                 !- Vertex 2 Xcoordinate
    38.5082,                  !- Vertex 2 Ycoordinate
    0,                        !- Vertex 2 Zcoordinate
    -92.4047,                 !- Vertex 3 Xcoordinate
    46.0914,                  !- Vertex 3 Ycoordinate
    0,                        !- Vertex 3 Zcoordinate
    -92.4047,                 !- Vertex 4 Xcoordinate
    46.0914,                  !- Vertex 4 Ycoordinate
    19;                       !- Vertex 4 Zcoordinate

SHADING:SITE:DETAILED,
    Shading_V507_1,           !- Name
    ,                         !- Transmittance Schedule Name
    autocalculate,            !- Number of Vertices
    -92.4047,                 !- Vertex 1 Xcoordinate
    46.0914,                  !- Vertex 1 Ycoordinate
    19,                       !- Vertex 1 Zcoordinate
    -92.4047,                 !- Vertex 2 Xcoordinate
    46.0914,                  !- Vertex 2 Ycoordinate
    0,                        !- Vertex 2 Zcoordinate
    -86.3717,                 !- Vertex 3 Xcoordinate
    51.3304,                  !- Vertex 3 Ycoordinate
    0,                        !- Vertex 3 Zcoordinate
    -86.3717,                 !- Vertex 4 Xcoordinate
    51.3304,                  !- Vertex 4 Ycoordinate
    19;                       !- Vertex 4 Zcoordinate

SHADING:SITE:DETAILED,
    Shading_V508_1,           !- Name
    ,                         !- Transmittance Schedule Name
    autocalculate,            !- Number of Vertices
    -86.3717,                 !- Vertex 1 Xcoordinate
    51.3304,                  !- Vertex 1 Ycoordinate
    19,                       !- Vertex 1 Zcoordinate
    -86.3717,                 !- Vertex 2 Xcoordinate
    51.3304,                  !- Vertex 2 Ycoordinate
    0,                        !- Vertex 2 Zcoordinate
    -92.9397,                 !- Vertex 3 Xcoordinate
    59.0034,                  !- Vertex 3 Ycoordinate
    0,                        !- Vertex 3 Zcoordinate
    -92.9397,                 !- Vertex 4 Xcoordinate
    59.0034,                  !- Vertex 4 Ycoordinate
    19;                       !- Vertex 4 Zcoordinate

SHADING:SITE:DETAILED,
    Shading_V6_1,             !- Name
    ,                         !- Transmittance Schedule Name
    autocalculate,            !- Number of Vertices
    -73.9057,                 !- Vertex 1 Xcoordinate
    0.7914,                   !- Vertex 1 Ycoordinate
    15.8,                     !- Vertex 1 Zcoordinate
    -73.9057,                 !- Vertex 2 Xcoordinate
    0.7914,                   !- Vertex 2 Ycoordinate
    0,                        !- Vertex 2 Zcoordinate
    -79.6787,                 !- Vertex 3 Xcoordinate
    7.5404,                   !- Vertex 3 Ycoordinate
    0,                        !- Vertex 3 Zcoordinate
    -79.6787,                 !- Vertex 4 Xcoordinate
    7.5404,                   !- Vertex 4 Ycoordinate
    15.8;                     !- Vertex 4 Zcoordinate

SHADING:SITE:DETAILED,
    Shading_V7_1,             !- Name
    ,                         !- Transmittance Schedule Name
    autocalculate,            !- Number of Vertices
    -79.6787,                 !- Vertex 1 Xcoordinate
    7.5404,                   !- Vertex 1 Ycoordinate
    15.8,                     !- Vertex 1 Zcoordinate
    -79.6787,                 !- Vertex 2 Xcoordinate
    7.5404,                   !- Vertex 2 Ycoordinate
    0,                        !- Vertex 2 Zcoordinate
    -78.9663,                 !- Vertex 3 Xcoordinate
    17.0867,                  !- Vertex 3 Ycoordinate
    0,                        !- Vertex 3 Zcoordinate
    -78.9663,                 !- Vertex 4 Xcoordinate
    17.0867,                  !- Vertex 4 Ycoordinate
    15.8;                     !- Vertex 4 Zcoordinate

SHADING:SITE:DETAILED,
    Shading_V106_1,           !- Name
    ,                         !- Transmittance Schedule Name
    autocalculate,            !- Number of Vertices
    -76.1187,                 !- Vertex 1 Xcoordinate
    64.5144,                  !- Vertex 1 Ycoordinate
    15.5,                     !- Vertex 1 Zcoordinate
    -76.1187,                 !- Vertex 2 Xcoordinate
    64.5144,                  !- Vertex 2 Ycoordinate
    0,                        !- Vertex 2 Zcoordinate
    -73.1117,                 !- Vertex 3 Xcoordinate
    67.1524,                  !- Vertex 3 Ycoordinate
    0,                        !- Vertex 3 Zcoordinate
    -73.1117,                 !- Vertex 4 Xcoordinate
    67.1524,                  !- Vertex 4 Ycoordinate
    15.5;                     !- Vertex 4 Zcoordinate

SHADING:SITE:DETAILED,
    Shading_V107_1,           !- Name
    ,                         !- Transmittance Schedule Name
    autocalculate,            !- Number of Vertices
    -73.1117,                 !- Vertex 1 Xcoordinate
    67.1524,                  !- Vertex 1 Ycoordinate
    15.5,                     !- Vertex 1 Zcoordinate
    -73.1117,                 !- Vertex 2 Xcoordinate
    67.1524,                  !- Vertex 2 Ycoordinate
    0,                        !- Vertex 2 Zcoordinate
    -66.6797,                 !- Vertex 3 Xcoordinate
    59.6374,                  !- Vertex 3 Ycoordinate
    0,                        !- Vertex 3 Zcoordinate
    -66.6797,                 !- Vertex 4 Xcoordinate
    59.6374,                  !- Vertex 4 Ycoordinate
    15.5;                     !- Vertex 4 Zcoordinate

SHADING:SITE:DETAILED,
    Shading_V182_1,           !- Name
    ,                         !- Transmittance Schedule Name
    autocalculate,            !- Number of Vertices
    -30.4817,                 !- Vertex 1 Xcoordinate
    -25.8676,                 !- Vertex 1 Ycoordinate
    19.2,                     !- Vertex 1 Zcoordinate
    -30.4817,                 !- Vertex 2 Xcoordinate
    -25.8676,                 !- Vertex 2 Ycoordinate
    0,                        !- Vertex 2 Zcoordinate
    -36.6045,                 !- Vertex 3 Xcoordinate
    -18.7432,                 !- Vertex 3 Ycoordinate
    0,                        !- Vertex 3 Zcoordinate
    -36.6045,                 !- Vertex 4 Xcoordinate
    -18.7432,                 !- Vertex 4 Ycoordinate
    19.2;                     !- Vertex 4 Zcoordinate

SHADING:SITE:DETAILED,
    Shading_V349_1,           !- Name
    ,                         !- Transmittance Schedule Name
    autocalculate,            !- Number of Vertices
    -36.6045,                 !- Vertex 1 Xcoordinate
    -18.7432,                 !- Vertex 1 Ycoordinate
    12.2,                     !- Vertex 1 Zcoordinate
    -36.6045,                 !- Vertex 2 Xcoordinate
    -18.7432,                 !- Vertex 2 Ycoordinate
    0,                        !- Vertex 2 Zcoordinate
    -40.3307,                 !- Vertex 3 Xcoordinate
    -14.4076,                 !- Vertex 3 Ycoordinate
    0,                        !- Vertex 3 Zcoordinate
    -40.3307,                 !- Vertex 4 Xcoordinate
    -14.4076,                 !- Vertex 4 Ycoordinate
    12.2;                     !- Vertex 4 Zcoordinate

SHADING:SITE:DETAILED,
    Shading_V350_1,           !- Name
    ,                         !- Transmittance Schedule Name
    autocalculate,            !- Number of Vertices
    -40.3307,                 !- Vertex 1 Xcoordinate
    -14.4076,                 !- Vertex 1 Ycoordinate
    12.2,                     !- Vertex 1 Zcoordinate
    -40.3307,                 !- Vertex 2 Xcoordinate
    -14.4076,                 !- Vertex 2 Ycoordinate
    0,                        !- Vertex 2 Zcoordinate
    -37.4007,                 !- Vertex 3 Xcoordinate
    -11.8906,                 !- Vertex 3 Ycoordinate
    0,                        !- Vertex 3 Zcoordinate
    -37.4007,                 !- Vertex 4 Xcoordinate
    -11.8906,                 !- Vertex 4 Ycoordinate
    12.2;                     !- Vertex 4 Zcoordinate

SHADING:SITE:DETAILED,
    Shading_V351_1,           !- Name
    ,                         !- Transmittance Schedule Name
    autocalculate,            !- Number of Vertices
    -37.4007,                 !- Vertex 1 Xcoordinate
    -11.8906,                 !- Vertex 1 Ycoordinate
    12.2,                     !- Vertex 1 Zcoordinate
    -37.4007,                 !- Vertex 2 Xcoordinate
    -11.8906,                 !- Vertex 2 Ycoordinate
    0,                        !- Vertex 2 Zcoordinate
    -43.7757,                 !- Vertex 3 Xcoordinate
    -4.3636,                  !- Vertex 3 Ycoordinate
    0,                        !- Vertex 3 Zcoordinate
    -43.7757,                 !- Vertex 4 Xcoordinate
    -4.3636,                  !- Vertex 4 Ycoordinate
    12.2;                     !- Vertex 4 Zcoordinate

SHADING:SITE:DETAILED,
    Shading_V5_1,             !- Name
    ,                         !- Transmittance Schedule Name
    autocalculate,            !- Number of Vertices
    -80.6977,                 !- Vertex 1 Xcoordinate
    -5.0216,                  !- Vertex 1 Ycoordinate
    15.8,                     !- Vertex 1 Zcoordinate
    -80.6977,                 !- Vertex 2 Xcoordinate
    -5.0216,                  !- Vertex 2 Ycoordinate
    0,                        !- Vertex 2 Zcoordinate
    -73.9057,                 !- Vertex 3 Xcoordinate
    0.7914,                   !- Vertex 3 Ycoordinate
    0,                        !- Vertex 3 Zcoordinate
    -73.9057,                 !- Vertex 4 Xcoordinate
    0.7914,                   !- Vertex 4 Ycoordinate
    15.8;                     !- Vertex 4 Zcoordinate

SHADING:SITE:DETAILED,
    Shading_V8_1,             !- Name
    ,                         !- Transmittance Schedule Name
    autocalculate,            !- Number of Vertices
    -57.1703,                 !- Vertex 1 Xcoordinate
    -7.0736,                  !- Vertex 1 Ycoordinate
    16.1,                     !- Vertex 1 Zcoordinate
    -57.1703,                 !- Vertex 2 Xcoordinate
    -7.0736,                  !- Vertex 2 Ycoordinate
    0,                        !- Vertex 2 Zcoordinate
    -67.8857,                 !- Vertex 3 Xcoordinate
    -6.2406,                  !- Vertex 3 Ycoordinate
    0,                        !- Vertex 3 Zcoordinate
    -67.8857,                 !- Vertex 4 Xcoordinate
    -6.2406,                  !- Vertex 4 Ycoordinate
    16.1;                     !- Vertex 4 Zcoordinate

SHADING:SITE:DETAILED,
    Shading_V9_1,             !- Name
    ,                         !- Transmittance Schedule Name
    autocalculate,            !- Number of Vertices
    -67.8857,                 !- Vertex 1 Xcoordinate
    -6.2406,                  !- Vertex 1 Ycoordinate
    16.1,                     !- Vertex 1 Zcoordinate
    -67.8857,                 !- Vertex 2 Xcoordinate
    -6.2406,                  !- Vertex 2 Ycoordinate
    0,                        !- Vertex 2 Zcoordinate
    -71.3767,                 !- Vertex 3 Xcoordinate
    -2.1616,                  !- Vertex 3 Ycoordinate
    0,                        !- Vertex 3 Zcoordinate
    -71.3767,                 !- Vertex 4 Xcoordinate
    -2.1616,                  !- Vertex 4 Ycoordinate
    16.1;                     !- Vertex 4 Zcoordinate

SHADING:SITE:DETAILED,
    Shading_V323_1,           !- Name
    ,                         !- Transmittance Schedule Name
    autocalculate,            !- Number of Vertices
    66.5793,                  !- Vertex 1 Xcoordinate
    12.2514,                  !- Vertex 1 Ycoordinate
    15.8,                     !- Vertex 1 Zcoordinate
    66.5793,                  !- Vertex 2 Xcoordinate
    12.2514,                  !- Vertex 2 Ycoordinate
    0,                        !- Vertex 2 Zcoordinate
    60.6303,                  !- Vertex 3 Xcoordinate
    7.2044,                   !- Vertex 3 Ycoordinate
    0,                        !- Vertex 3 Zcoordinate
    60.6303,                  !- Vertex 4 Xcoordinate
    7.2044,                   !- Vertex 4 Ycoordinate
    15.8;                     !- Vertex 4 Zcoordinate

SHADING:SITE:DETAILED,
    Shading_V328_1,           !- Name
    ,                         !- Transmittance Schedule Name
    autocalculate,            !- Number of Vertices
    69.1503,                  !- Vertex 1 Xcoordinate
    -24.2546,                 !- Vertex 1 Ycoordinate
    15.8,                     !- Vertex 1 Zcoordinate
    69.1503,                  !- Vertex 2 Xcoordinate
    -24.2546,                 !- Vertex 2 Ycoordinate
    0,                        !- Vertex 2 Zcoordinate
    73.5053,                  !- Vertex 3 Xcoordinate
    -29.3586,                 !- Vertex 3 Ycoordinate
    0,                        !- Vertex 3 Zcoordinate
    73.5053,                  !- Vertex 4 Xcoordinate
    -29.3586,                 !- Vertex 4 Ycoordinate
    15.8;                     !- Vertex 4 Zcoordinate

SHADING:SITE:DETAILED,
    Shading_V377_1,           !- Name
    ,                         !- Transmittance Schedule Name
    autocalculate,            !- Number of Vertices
    22.3283,                  !- Vertex 1 Xcoordinate
    37.9194,                  !- Vertex 1 Ycoordinate
    14.2,                     !- Vertex 1 Zcoordinate
    22.3283,                  !- Vertex 2 Xcoordinate
    37.9194,                  !- Vertex 2 Ycoordinate
    0,                        !- Vertex 2 Zcoordinate
    42.4873,                  !- Vertex 3 Xcoordinate
    14.3544,                  !- Vertex 3 Ycoordinate
    0,                        !- Vertex 3 Zcoordinate
    42.4873,                  !- Vertex 4 Xcoordinate
    14.3544,                  !- Vertex 4 Ycoordinate
    14.2;                     !- Vertex 4 Zcoordinate

SHADING:SITE:DETAILED,
    Shading_V424_1,           !- Name
    ,                         !- Transmittance Schedule Name
    autocalculate,            !- Number of Vertices
    -80.6617,                 !- Vertex 1 Xcoordinate
    149.8124,                 !- Vertex 1 Ycoordinate
    15.9,                     !- Vertex 1 Zcoordinate
    -80.6617,                 !- Vertex 2 Xcoordinate
    149.8124,                 !- Vertex 2 Ycoordinate
    0,                        !- Vertex 2 Zcoordinate
    -76.0097,                 !- Vertex 3 Xcoordinate
    144.3944,                 !- Vertex 3 Ycoordinate
    0,                        !- Vertex 3 Zcoordinate
    -76.0097,                 !- Vertex 4 Xcoordinate
    144.3944,                 !- Vertex 4 Ycoordinate
    15.9;                     !- Vertex 4 Zcoordinate

SHADING:SITE:DETAILED,
    Shading_V425_1,           !- Name
    ,                         !- Transmittance Schedule Name
    autocalculate,            !- Number of Vertices
    -76.0097,                 !- Vertex 1 Xcoordinate
    144.3944,                 !- Vertex 1 Ycoordinate
    15.9,                     !- Vertex 1 Zcoordinate
    -76.0097,                 !- Vertex 2 Xcoordinate
    144.3944,                 !- Vertex 2 Ycoordinate
    0,                        !- Vertex 2 Zcoordinate
    -72.9657,                 !- Vertex 3 Xcoordinate
    146.9924,                 !- Vertex 3 Ycoordinate
    0,                        !- Vertex 3 Zcoordinate
    -72.9657,                 !- Vertex 4 Xcoordinate
    146.9924,                 !- Vertex 4 Ycoordinate
    15.9;                     !- Vertex 4 Zcoordinate

SHADING:SITE:DETAILED,
    Shading_V426_1,           !- Name
    ,                         !- Transmittance Schedule Name
    autocalculate,            !- Number of Vertices
    -72.9657,                 !- Vertex 1 Xcoordinate
    146.9924,                 !- Vertex 1 Ycoordinate
    15.9,                     !- Vertex 1 Zcoordinate
    -72.9657,                 !- Vertex 2 Xcoordinate
    146.9924,                 !- Vertex 2 Ycoordinate
    0,                        !- Vertex 2 Zcoordinate
    -50.1027,                 !- Vertex 3 Xcoordinate
    120.3564,                 !- Vertex 3 Ycoordinate
    0,                        !- Vertex 3 Zcoordinate
    -50.1027,                 !- Vertex 4 Xcoordinate
    120.3564,                 !- Vertex 4 Ycoordinate
    15.9;                     !- Vertex 4 Zcoordinate

SHADING:SITE:DETAILED,
    Shading_V59_1,            !- Name
    ,                         !- Transmittance Schedule Name
    autocalculate,            !- Number of Vertices
    18.1483,                  !- Vertex 1 Xcoordinate
    -77.0266,                 !- Vertex 1 Ycoordinate
    11.6,                     !- Vertex 1 Zcoordinate
    18.1483,                  !- Vertex 2 Xcoordinate
    -77.0266,                 !- Vertex 2 Ycoordinate
    0,                        !- Vertex 2 Zcoordinate
    13.1963,                  !- Vertex 3 Xcoordinate
    -76.5876,                 !- Vertex 3 Ycoordinate
    0,                        !- Vertex 3 Zcoordinate
    13.1963,                  !- Vertex 4 Xcoordinate
    -76.5876,                 !- Vertex 4 Ycoordinate
    11.6;                     !- Vertex 4 Zcoordinate

SHADING:SITE:DETAILED,
    Shading_V60_1,            !- Name
    ,                         !- Transmittance Schedule Name
    autocalculate,            !- Number of Vertices
    13.1963,                  !- Vertex 1 Xcoordinate
    -76.5876,                 !- Vertex 1 Ycoordinate
    11.6,                     !- Vertex 1 Zcoordinate
    13.1963,                  !- Vertex 2 Xcoordinate
    -76.5876,                 !- Vertex 2 Ycoordinate
    0,                        !- Vertex 2 Zcoordinate
    6.5967,                   !- Vertex 3 Xcoordinate
    -68.9282,                 !- Vertex 3 Ycoordinate
    0,                        !- Vertex 3 Zcoordinate
    6.5967,                   !- Vertex 4 Xcoordinate
    -68.9282,                 !- Vertex 4 Ycoordinate
    11.6;                     !- Vertex 4 Zcoordinate

SHADING:SITE:DETAILED,
    Shading_V130_1,           !- Name
    ,                         !- Transmittance Schedule Name
    autocalculate,            !- Number of Vertices
    15.2683,                  !- Vertex 1 Xcoordinate
    -26.4846,                 !- Vertex 1 Ycoordinate
    15.5,                     !- Vertex 1 Zcoordinate
    15.2683,                  !- Vertex 2 Xcoordinate
    -26.4846,                 !- Vertex 2 Ycoordinate
    0,                        !- Vertex 2 Zcoordinate
    17.8083,                  !- Vertex 3 Xcoordinate
    -29.4716,                 !- Vertex 3 Ycoordinate
    0,                        !- Vertex 3 Zcoordinate
    17.8083,                  !- Vertex 4 Xcoordinate
    -29.4716,                 !- Vertex 4 Ycoordinate
    15.5;                     !- Vertex 4 Zcoordinate

SHADING:SITE:DETAILED,
    Shading_V131_1,           !- Name
    ,                         !- Transmittance Schedule Name
    autocalculate,            !- Number of Vertices
    17.8083,                  !- Vertex 1 Xcoordinate
    -29.4716,                 !- Vertex 1 Ycoordinate
    15.5,                     !- Vertex 1 Zcoordinate
    17.8083,                  !- Vertex 2 Xcoordinate
    -29.4716,                 !- Vertex 2 Ycoordinate
    0,                        !- Vertex 2 Zcoordinate
    10.0603,                  !- Vertex 3 Xcoordinate
    -36.2336,                 !- Vertex 3 Ycoordinate
    0,                        !- Vertex 3 Zcoordinate
    10.0603,                  !- Vertex 4 Xcoordinate
    -36.2336,                 !- Vertex 4 Ycoordinate
    15.5;                     !- Vertex 4 Zcoordinate

SHADING:SITE:DETAILED,
    Shading_V178_1,           !- Name
    ,                         !- Transmittance Schedule Name
    autocalculate,            !- Number of Vertices
    -18.7027,                 !- Vertex 1 Xcoordinate
    -39.5196,                 !- Vertex 1 Ycoordinate
    19.2,                     !- Vertex 1 Zcoordinate
    -18.7027,                 !- Vertex 2 Xcoordinate
    -39.5196,                 !- Vertex 2 Ycoordinate
    0,                        !- Vertex 2 Zcoordinate
    -23.9007,                 !- Vertex 3 Xcoordinate
    -33.4966,                 !- Vertex 3 Ycoordinate
    0,                        !- Vertex 3 Zcoordinate
    -23.9007,                 !- Vertex 4 Xcoordinate
    -33.4966,                 !- Vertex 4 Ycoordinate
    19.2;                     !- Vertex 4 Zcoordinate

SHADING:SITE:DETAILED,
    Shading_V292_1,           !- Name
    ,                         !- Transmittance Schedule Name
    autocalculate,            !- Number of Vertices
    -83.7327,                 !- Vertex 1 Xcoordinate
    -151.5636,                !- Vertex 1 Ycoordinate
    7.8,                      !- Vertex 1 Zcoordinate
    -83.7327,                 !- Vertex 2 Xcoordinate
    -151.5636,                !- Vertex 2 Ycoordinate
    0,                        !- Vertex 2 Zcoordinate
    -87.7487,                 !- Vertex 3 Xcoordinate
    -134.6026,                !- Vertex 3 Ycoordinate
    0,                        !- Vertex 3 Zcoordinate
    -87.7487,                 !- Vertex 4 Xcoordinate
    -134.6026,                !- Vertex 4 Ycoordinate
    7.8;                      !- Vertex 4 Zcoordinate

SHADING:SITE:DETAILED,
    Shading_V372_1,           !- Name
    ,                         !- Transmittance Schedule Name
    autocalculate,            !- Number of Vertices
    13.2793,                  !- Vertex 1 Xcoordinate
    70.7904,                  !- Vertex 1 Ycoordinate
    14.2,                     !- Vertex 1 Zcoordinate
    13.2793,                  !- Vertex 2 Xcoordinate
    70.7904,                  !- Vertex 2 Ycoordinate
    0,                        !- Vertex 2 Zcoordinate
    20.5323,                  !- Vertex 3 Xcoordinate
    62.3134,                  !- Vertex 3 Ycoordinate
    0,                        !- Vertex 3 Zcoordinate
    20.5323,                  !- Vertex 4 Xcoordinate
    62.3134,                  !- Vertex 4 Ycoordinate
    14.2;                     !- Vertex 4 Zcoordinate

SHADING:SITE:DETAILED,
    Shading_V180_1,           !- Name
    ,                         !- Transmittance Schedule Name
    autocalculate,            !- Number of Vertices
    -17.8447,                 !- Vertex 1 Xcoordinate
    -28.2976,                 !- Vertex 1 Ycoordinate
    19.2,                     !- Vertex 1 Zcoordinate
    -17.8447,                 !- Vertex 2 Xcoordinate
    -28.2976,                 !- Vertex 2 Ycoordinate
    0,                        !- Vertex 2 Zcoordinate
    -24.4227,                 !- Vertex 3 Xcoordinate
    -20.6426,                 !- Vertex 3 Ycoordinate
    0,                        !- Vertex 3 Zcoordinate
    -24.4227,                 !- Vertex 4 Xcoordinate
    -20.6426,                 !- Vertex 4 Ycoordinate
    19.2;                     !- Vertex 4 Zcoordinate

SHADING:SITE:DETAILED,
    Shading_V181_1,           !- Name
    ,                         !- Transmittance Schedule Name
    autocalculate,            !- Number of Vertices
    -24.4227,                 !- Vertex 1 Xcoordinate
    -20.6426,                 !- Vertex 1 Ycoordinate
    19.2,                     !- Vertex 1 Zcoordinate
    -24.4227,                 !- Vertex 2 Xcoordinate
    -20.6426,                 !- Vertex 2 Ycoordinate
    0,                        !- Vertex 2 Zcoordinate
    -30.4817,                 !- Vertex 3 Xcoordinate
    -25.8676,                 !- Vertex 3 Ycoordinate
    0,                        !- Vertex 3 Zcoordinate
    -30.4817,                 !- Vertex 4 Xcoordinate
    -25.8676,                 !- Vertex 4 Ycoordinate
    19.2;                     !- Vertex 4 Zcoordinate

SHADING:SITE:DETAILED,
    Shading_V126_1,           !- Name
    ,                         !- Transmittance Schedule Name
    autocalculate,            !- Number of Vertices
    32.7463,                  !- Vertex 1 Xcoordinate
    -11.4166,                 !- Vertex 1 Ycoordinate
    15.5,                     !- Vertex 1 Zcoordinate
    32.7463,                  !- Vertex 2 Xcoordinate
    -11.4166,                 !- Vertex 2 Ycoordinate
    0,                        !- Vertex 2 Zcoordinate
    35.3853,                  !- Vertex 3 Xcoordinate
    -14.3986,                 !- Vertex 3 Ycoordinate
    0,                        !- Vertex 3 Zcoordinate
    35.3853,                  !- Vertex 4 Xcoordinate
    -14.3986,                 !- Vertex 4 Ycoordinate
    15.5;                     !- Vertex 4 Zcoordinate

SHADING:SITE:DETAILED,
    Shading_V302_1,           !- Name
    ,                         !- Transmittance Schedule Name
    autocalculate,            !- Number of Vertices
    6.5967,                   !- Vertex 1 Xcoordinate
    -68.9282,                 !- Vertex 1 Ycoordinate
    18.8,                     !- Vertex 1 Zcoordinate
    6.5967,                   !- Vertex 2 Xcoordinate
    -68.9282,                 !- Vertex 2 Ycoordinate
    0,                        !- Vertex 2 Zcoordinate
    -0.3427,                  !- Vertex 3 Xcoordinate
    -60.8746,                 !- Vertex 3 Ycoordinate
    0,                        !- Vertex 3 Zcoordinate
    -0.3427,                  !- Vertex 4 Xcoordinate
    -60.8746,                 !- Vertex 4 Ycoordinate
    18.8;                     !- Vertex 4 Zcoordinate

SHADING:SITE:DETAILED,
    Shading_V179_1,           !- Name
    ,                         !- Transmittance Schedule Name
    autocalculate,            !- Number of Vertices
    -23.9007,                 !- Vertex 1 Xcoordinate
    -33.4966,                 !- Vertex 1 Ycoordinate
    19.2,                     !- Vertex 1 Zcoordinate
    -23.9007,                 !- Vertex 2 Xcoordinate
    -33.4966,                 !- Vertex 2 Ycoordinate
    0,                        !- Vertex 2 Zcoordinate
    -17.8447,                 !- Vertex 3 Xcoordinate
    -28.2976,                 !- Vertex 3 Ycoordinate
    0,                        !- Vertex 3 Zcoordinate
    -17.8447,                 !- Vertex 4 Xcoordinate
    -28.2976,                 !- Vertex 4 Ycoordinate
    19.2;                     !- Vertex 4 Zcoordinate

SHADING:SITE:DETAILED,
    Shading_V353_1,           !- Name
    ,                         !- Transmittance Schedule Name
    autocalculate,            !- Number of Vertices
    -47.7937,                 !- Vertex 1 Xcoordinate
    -7.8026,                  !- Vertex 1 Ycoordinate
    12.2,                     !- Vertex 1 Zcoordinate
    -47.7937,                 !- Vertex 2 Xcoordinate
    -7.8026,                  !- Vertex 2 Ycoordinate
    0,                        !- Vertex 2 Zcoordinate
    -57.1703,                 !- Vertex 3 Xcoordinate
    -7.0736,                  !- Vertex 3 Ycoordinate
    0,                        !- Vertex 3 Zcoordinate
    -57.1703,                 !- Vertex 4 Xcoordinate
    -7.0736,                  !- Vertex 4 Ycoordinate
    12.2;                     !- Vertex 4 Zcoordinate

SHADING:SITE:DETAILED,
    Shading_V373_1,           !- Name
    ,                         !- Transmittance Schedule Name
    autocalculate,            !- Number of Vertices
    20.5323,                  !- Vertex 1 Xcoordinate
    62.3134,                  !- Vertex 1 Ycoordinate
    14.2,                     !- Vertex 1 Zcoordinate
    20.5323,                  !- Vertex 2 Xcoordinate
    62.3134,                  !- Vertex 2 Ycoordinate
    0,                        !- Vertex 2 Zcoordinate
    19.4883,                  !- Vertex 3 Xcoordinate
    48.4614,                  !- Vertex 3 Ycoordinate
    0,                        !- Vertex 3 Zcoordinate
    19.4883,                  !- Vertex 4 Xcoordinate
    48.4614,                  !- Vertex 4 Ycoordinate
    14.2;                     !- Vertex 4 Zcoordinate

ELECTRICEQUIPMENT,
    Block Build0_Alt0 Storey 0Load,    !- Name
    Block Build0_Alt0 Storey 0,    !- Zone or ZoneList Name
    LoadSchedule,             !- Schedule Name
    Watts/Area,               !- Design Level Calculation Method
    ,                         !- Design Level
    0.05,                     !- Watts per Zone Floor Area
    ,                         !- Watts per Person
    0,                        !- Fraction Latent
    0,                        !- Fraction Radiant
    0,                        !- Fraction Lost
    General;                  !- EndUse Subcategory

ELECTRICEQUIPMENT,
    Block Build1_Alt0 Storey 0Load,    !- Name
    Block Build1_Alt0 Storey 0,    !- Zone or ZoneList Name
    LoadSchedule,             !- Schedule Name
    Watts/Area,               !- Design Level Calculation Method
    ,                         !- Design Level
    0.01,                     !- Watts per Zone Floor Area
    ,                         !- Watts per Person
    0,                        !- Fraction Latent
    0,                        !- Fraction Radiant
    0,                        !- Fraction Lost
    General;                  !- EndUse Subcategory

ZONEINFILTRATION:DESIGNFLOWRATE,
    Block Build0_Alt0 Storey -1Leak,    !- Name
    Block Build0_Alt0 Storey -1,    !- Zone or ZoneList Name
    AlwaysON,                 !- Schedule Name
    AirChanges/Hour,          !- Design Flow Rate Calculation Method
    ,                         !- Design Flow Rate
    ,                         !- Flow per Zone Floor Area
    ,                         !- Flow per Exterior Surface Area
    1,                        !- Air Changes per Hour
    1,                        !- Constant Term Coefficient
    0,                        !- Temperature Term Coefficient
    0,                        !- Velocity Term Coefficient
    0;                        !- Velocity Squared Term Coefficient

ZONEINFILTRATION:DESIGNFLOWRATE,
    Block Build1_Alt0 Storey -1Leak,    !- Name
    Block Build1_Alt0 Storey -1,    !- Zone or ZoneList Name
    AlwaysON,                 !- Schedule Name
    AirChanges/Hour,          !- Design Flow Rate Calculation Method
    ,                         !- Design Flow Rate
    ,                         !- Flow per Zone Floor Area
    ,                         !- Flow per Exterior Surface Area
    1,                        !- Air Changes per Hour
    1,                        !- Constant Term Coefficient
    0,                        !- Temperature Term Coefficient
    0,                        !- Velocity Term Coefficient
    0;                        !- Velocity Squared Term Coefficient

ZONEINFILTRATION:FLOWCOEFFICIENT,
    Block Build0_Alt0 Storey 0Leak,    !- Name
    Block Build0_Alt0 Storey 0,    !- Zone Name
    AlwaysON,                 !- Schedule Name
    2.239069e-01,             !- Flow Coefficient
    0.107,                    !- Stack Coefficient
    0.667,                    !- Pressure Exponent
    0.167,                    !- Wind Coefficient
    0.61;                     !- Shelter Factor

ZONEINFILTRATION:FLOWCOEFFICIENT,
    Block Build1_Alt0 Storey 0Leak,    !- Name
    Block Build1_Alt0 Storey 0,    !- Zone Name
    AlwaysON,                 !- Schedule Name
    2.067939e-02,             !- Flow Coefficient
    0.107,                    !- Stack Coefficient
    0.667,                    !- Pressure Exponent
    0.167,                    !- Wind Coefficient
    0.61;                     !- Shelter Factor

ZONEVENTILATION:DESIGNFLOWRATE,
    Block Build0_Alt0 Storey 0FreeCool,    !- Name
    Block Build0_Alt0 Storey 0,    !- Zone or ZoneList Name
    AlwaysON,                 !- Schedule Name
    AirChanges/Hour,          !- Design Flow Rate Calculation Method
    ,                         !- Design Flow Rate
    ,                         !- Flow Rate per Zone Floor Area
    ,                         !- Flow Rate per Person
    4,                        !- Air Changes per Hour
    Natural,                  !- Ventilation Type
    0,                        !- Fan Pressure Rise
    1,                        !- Fan Total Efficiency
    1,                        !- Constant Term Coefficient
    0,                        !- Temperature Term Coefficient
    0,                        !- Velocity Term Coefficient
    0,                        !- Velocity Squared Term Coefficient
    26,                       !- Minimum Indoor Temperature
    ,                         !- Minimum Indoor Temperature Schedule Name
    100,                      !- Maximum Indoor Temperature
    ,                         !- Maximum Indoor Temperature Schedule Name
    1,                        !- Delta Temperature
    ,                         !- Delta Temperature Schedule Name
    -100,                     !- Minimum Outdoor Temperature
    ,                         !- Minimum Outdoor Temperature Schedule Name
    100,                      !- Maximum Outdoor Temperature
    ,                         !- Maximum Outdoor Temperature Schedule Name
    40;                       !- Maximum Wind Speed

ZONEVENTILATION:DESIGNFLOWRATE,
    Block Build1_Alt0 Storey 0FreeCool,    !- Name
    Block Build1_Alt0 Storey 0,    !- Zone or ZoneList Name
    AlwaysON,                 !- Schedule Name
    AirChanges/Hour,          !- Design Flow Rate Calculation Method
    ,                         !- Design Flow Rate
    ,                         !- Flow Rate per Zone Floor Area
    ,                         !- Flow Rate per Person
    4,                        !- Air Changes per Hour
    Natural,                  !- Ventilation Type
    0,                        !- Fan Pressure Rise
    1,                        !- Fan Total Efficiency
    1,                        !- Constant Term Coefficient
    0,                        !- Temperature Term Coefficient
    0,                        !- Velocity Term Coefficient
    0,                        !- Velocity Squared Term Coefficient
    26,                       !- Minimum Indoor Temperature
    ,                         !- Minimum Indoor Temperature Schedule Name
    100,                      !- Maximum Indoor Temperature
    ,                         !- Maximum Indoor Temperature Schedule Name
    1,                        !- Delta Temperature
    ,                         !- Delta Temperature Schedule Name
    -100,                     !- Minimum Outdoor Temperature
    ,                         !- Minimum Outdoor Temperature Schedule Name
    100,                      !- Maximum Outdoor Temperature
    ,                         !- Maximum Outdoor Temperature Schedule Name
    40;                       !- Maximum Wind Speed

HVACTEMPLATE:THERMOSTAT,
    ResidZone,                !- Name
    ,                         !- Heating Setpoint Schedule Name
    21,                       !- Constant Heating Setpoint
    ,                         !- Cooling Setpoint Schedule Name
    50;                       !- Constant Cooling Setpoint

HVACTEMPLATE:ZONE:IDEALLOADSAIRSYSTEM,
    Block Build0_Alt0 Storey 0,    !- Zone Name
    ResidZone,                !- Template Thermostat Name
    ,                         !- System Availability Schedule Name
    50,                       !- Maximum Heating Supply Air Temperature
    13,                       !- Minimum Cooling Supply Air Temperature
    0.0156,                   !- Maximum Heating Supply Air Humidity Ratio
    0.0077,                   !- Minimum Cooling Supply Air Humidity Ratio
    NoLimit,                  !- Heating Limit
    ,                         !- Maximum Heating Air Flow Rate
    98266.21539700386,        !- Maximum Sensible Heating Capacity
    NoLimit,                  !- Cooling Limit
    ,                         !- Maximum Cooling Air Flow Rate
    ,                         !- Maximum Total Cooling Capacity
    ,                         !- Heating Availability Schedule Name
    ,                         !- Cooling Availability Schedule Name
    ConstantSensibleHeatRatio,    !- Dehumidification Control Type
    0.7,                      !- Cooling Sensible Heat Ratio
    60,                       !- Dehumidification Setpoint
    None,                     !- Humidification Control Type
    30,                       !- Humidification Setpoint
    Flow/Area,                !- Outdoor Air Method
    0.007,                    !- Outdoor Air Flow Rate per Person
    1.750000e-03,             !- Outdoor Air Flow Rate per Zone Floor Area
    0,                        !- Outdoor Air Flow Rate per Zone
    ,                         !- Design Specification Outdoor Air Object Name
    None,                     !- Demand Controlled Ventilation Type
    NoEconomizer,             !- Outdoor Air Economizer Type
    Sensible,                 !- Heat Recovery Type
    0.65,                     !- Sensible Heat Recovery Effectiveness
    0;                        !- Latent Heat Recovery Effectiveness

HVACTEMPLATE:ZONE:IDEALLOADSAIRSYSTEM,
    Block Build1_Alt0 Storey 0,    !- Zone Name
    ResidZone,                !- Template Thermostat Name
    ,                         !- System Availability Schedule Name
    50,                       !- Maximum Heating Supply Air Temperature
    13,                       !- Minimum Cooling Supply Air Temperature
    0.0156,                   !- Maximum Heating Supply Air Humidity Ratio
    0.0077,                   !- Minimum Cooling Supply Air Humidity Ratio
    NoLimit,                  !- Heating Limit
    ,                         !- Maximum Heating Air Flow Rate
    5131.816944761819,        !- Maximum Sensible Heating Capacity
    NoLimit,                  !- Cooling Limit
    ,                         !- Maximum Cooling Air Flow Rate
    ,                         !- Maximum Total Cooling Capacity
    ,                         !- Heating Availability Schedule Name
    ,                         !- Cooling Availability Schedule Name
    ConstantSensibleHeatRatio,    !- Dehumidification Control Type
    0.7,                      !- Cooling Sensible Heat Ratio
    60,                       !- Dehumidification Setpoint
    None,                     !- Humidification Control Type
    30,                       !- Humidification Setpoint
    Flow/Area,                !- Outdoor Air Method
    0.007,                    !- Outdoor Air Flow Rate per Person
    3.500000e-04,             !- Outdoor Air Flow Rate per Zone Floor Area
    0,                        !- Outdoor Air Flow Rate per Zone
    ,                         !- Design Specification Outdoor Air Object Name
    None,                     !- Demand Controlled Ventilation Type
    NoEconomizer,             !- Outdoor Air Economizer Type
    Sensible,                 !- Heat Recovery Type
    0.65,                     !- Sensible Heat Recovery Effectiveness
    0;                        !- Latent Heat Recovery Effectiveness

OUTDOORAIR:NODE,
    Block Build0_Alt0 Storey 0 IDEAL LOADS OUTDOOR AIR INLET,    !- Name
    -1,                       !- Height Above Ground
    ,                         !- Drybulb Temperature Schedule Name
    ,                         !- Wetbulb Temperature Schedule Name
    ,                         !- Wind Speed Schedule Name
    ,                         !- Wind Direction Schedule Name
    ,                         !- Wind Pressure Coefficient Curve Name
    No,                       !- Symmetric Wind Pressure Coefficient Curve
    Absolute;                 !- Wind Angle Type

OUTDOORAIR:NODE,
    Block Build1_Alt0 Storey 0 IDEAL LOADS OUTDOOR AIR INLET,    !- Name
    -1,                       !- Height Above Ground
    ,                         !- Drybulb Temperature Schedule Name
    ,                         !- Wetbulb Temperature Schedule Name
    ,                         !- Wind Speed Schedule Name
    ,                         !- Wind Direction Schedule Name
    ,                         !- Wind Pressure Coefficient Curve Name
    No,                       !- Symmetric Wind Pressure Coefficient Curve
    Absolute;                 !- Wind Angle Type

ENERGYMANAGEMENTSYSTEM:SENSOR,
    T0,                       !- Name
    Block Build0_Alt0 Storey 0,    !- OutputVariable or OutputMeter Index Key Name
    Zone Mean Air Temperature;    !- OutputVariable or OutputMeter Name

ENERGYMANAGEMENTSYSTEM:SENSOR,
    T1,                       !- Name
    Block Build1_Alt0 Storey 0,    !- OutputVariable or OutputMeter Index Key Name
    Zone Mean Air Temperature;    !- OutputVariable or OutputMeter Name

ENERGYMANAGEMENTSYSTEM:SENSOR,
    Pow0,                     !- Name
    Block Build0_Alt0 Storey 0 IDEAL LOADS AIR SYSTEM,    !- OutputVariable or OutputMeter Index Key Name
    Zone Ideal Loads Supply Air Total Heating Rate;    !- OutputVariable or OutputMeter Name

ENERGYMANAGEMENTSYSTEM:SENSOR,
    Pow1,                     !- Name
    Block Build1_Alt0 Storey 0 IDEAL LOADS AIR SYSTEM,    !- OutputVariable or OutputMeter Index Key Name
    Zone Ideal Loads Supply Air Total Heating Rate;    !- OutputVariable or OutputMeter Name

ENERGYMANAGEMENTSYSTEM:SENSOR,
    DHWPow,                   !- Name
    DHW,                      !- OutputVariable or OutputMeter Index Key Name
    Water Use Equipment Heating Rate;    !- OutputVariable or OutputMeter Name

ENERGYMANAGEMENTSYSTEM:PROGRAMCALLINGMANAGER,
    Average Building Temperature,    !- Name
    EndOfZoneTimestepBeforeZoneReporting,    !- EnergyPlus Model Calling Point
    AverageZoneTemps;         !- Program Name 1

ENERGYMANAGEMENTSYSTEM:PROGRAMCALLINGMANAGER,
    Compute Total Building Heat Pow,    !- Name
    EndOfZoneTimestepBeforeZoneReporting,    !- EnergyPlus Model Calling Point
    TotZonePow;               !- Program Name 1

ENERGYMANAGEMENTSYSTEM:PROGRAMCALLINGMANAGER,
    Compute Total DHW Heat Pow,    !- Name
    EndOfZoneTimestepBeforeZoneReporting,    !- EnergyPlus Model Calling Point
    prgmDHWPow;               !- Program Name 1

ENERGYMANAGEMENTSYSTEM:PROGRAM,
    AverageZoneTemps,         !- Name
    SET SumNumerator = T0*Vol0+T1*Vol1,    !- Program Line 1
    SET SumDenominator  = Vol0+Vol1,    !- Program Line 2
    SET AverageBuildingTemp  = SumNumerator / SumDenominator;    !- Program Line 3

ENERGYMANAGEMENTSYSTEM:PROGRAM,
    TotZonePow,               !- Name
    SET TotBuildPow = Pow0+Pow1;    !- Program Line 1

ENERGYMANAGEMENTSYSTEM:PROGRAM,
    prgmDHWPow,               !- Name
    SET TotDHWPow = DHWPow;    !- Program Line 1

ENERGYMANAGEMENTSYSTEM:GLOBALVARIABLE,
    AverageBuildingTemp;      !- Erl Variable 1 Name

ENERGYMANAGEMENTSYSTEM:GLOBALVARIABLE,
    TotBuildPow;              !- Erl Variable 1 Name

ENERGYMANAGEMENTSYSTEM:GLOBALVARIABLE,
    TotDHWPow;                !- Erl Variable 1 Name

ENERGYMANAGEMENTSYSTEM:OUTPUTVARIABLE,
    Mean Heated Zones Air Temperature,    !- Name
    AverageBuildingTemp,      !- EMS Variable Name
    Averaged,                 !- Type of Data in Variable
    ZoneTimeStep;             !- Update Frequency

ENERGYMANAGEMENTSYSTEM:OUTPUTVARIABLE,
    Total Building Heating Power,    !- Name
    TotBuildPow,              !- EMS Variable Name
    Averaged,                 !- Type of Data in Variable
    ZoneTimeStep;             !- Update Frequency

ENERGYMANAGEMENTSYSTEM:OUTPUTVARIABLE,
    Total DHW Heating Power,    !- Name
    TotDHWPow,                !- EMS Variable Name
    Averaged,                 !- Type of Data in Variable
    ZoneTimeStep;             !- Update Frequency

ENERGYMANAGEMENTSYSTEM:INTERNALVARIABLE,
    Vol0,                     !- Name
    Block Build0_Alt0 Storey 0,    !- Internal Data Index Key Name
    Zone Air Volume;          !- Internal Data Type

ENERGYMANAGEMENTSYSTEM:INTERNALVARIABLE,
    Vol1,                     !- Name
    Block Build1_Alt0 Storey 0,    !- Internal Data Index Key Name
    Zone Air Volume;          !- Internal Data Type

WATERUSE:EQUIPMENT,
    DHW,                      !- Name
    General,                  !- EndUse Subcategory
    1.159419e-08,             !- Peak Flow Rate
    WaterTaps,                !- Flow Rate Fraction Schedule Name
    TargetWaterTemp,          !- Target Temperature Schedule Name
    HotWaterTemp,             !- Hot Water Supply Temperature Schedule Name
    ColdWaterTemp;            !- Cold Water Supply Temperature Schedule Name

Output:VariableDictionary,
    Regular;                  !- Key Field

OUTPUT:ENERGYMANAGEMENTSYSTEM,
    Verbose,                  !- Actuator Availability Dictionary Reporting
    Verbose,                  !- Internal Variable Availability Dictionary Reporting
    Verbose;                  !- EMS Runtime Language Debug Output Level

Output:Table:SummaryReports,
    AllSummary;               !- Report 1 Name

OutputControl:Table:Style,
    HTML;                     !- Column Separator

OUTPUT:VARIABLE,
    *,                        !- Key Value
    Site Outdoor Air Drybulb Temperature,    !- Variable Name
    Hourly;                   !- Reporting Frequency

OUTPUT:VARIABLE,
    *,                        !- Key Value
    Site Outdoor Air Relative Humidity,    !- Variable Name
    Hourly;                   !- Reporting Frequency

OUTPUT:VARIABLE,
    *,                        !- Key Value
    Site Outdoor Air Barometric Pressure,    !- Variable Name
    Hourly;                   !- Reporting Frequency

OUTPUT:VARIABLE,
    *,                        !- Key Value
    Site Wind Speed,          !- Variable Name
    Hourly;                   !- Reporting Frequency

OUTPUT:VARIABLE,
    *,                        !- Key Value
    Site Diffuse Solar Radiation Rate per Area,    !- Variable Name
    Hourly;                   !- Reporting Frequency

OUTPUT:VARIABLE,
    *,                        !- Key Value
    Site Direct Solar Radiation Rate per Area,    !- Variable Name
    Hourly;                   !- Reporting Frequency

OUTPUT:VARIABLE,
    *,                        !- Key Value
    Zone Electric Equipment Electric Power,    !- Variable Name
    Hourly;                   !- Reporting Frequency

OUTPUT:VARIABLE,
    *,                        !- Key Value
    Zone Electric Equipment Total Heating Rate,    !- Variable Name
    Hourly;                   !- Reporting Frequency

OUTPUT:VARIABLE,
    *,                        !- Key Value
    Surface Outside Face Incident Solar Radiation Rate per Area,    !- Variable Name
    Hourly;                   !- Reporting Frequency

OUTPUT:VARIABLE,
    *,                        !- Key Value
    Surface Outside Face Incident Beam Solar Radiation Rate per Area,    !- Variable Name
    Hourly;                   !- Reporting Frequency

OUTPUT:VARIABLE,
    *,                        !- Key Value
    Zone Ideal Loads Supply Air Total Heating Rate,    !- Variable Name
    Hourly;                   !- Reporting Frequency

OUTPUT:VARIABLE,
    *,                        !- Key Value
    Water Use Equipment Hot Water Mass Flow Rate,    !- Variable Name
    Hourly;                   !- Reporting Frequency

OUTPUT:VARIABLE,
    *,                        !- Key Value
    Water Use Equipment Cold Water Mass Flow Rate,    !- Variable Name
    Hourly;                   !- Reporting Frequency

OUTPUT:VARIABLE,
    *,                        !- Key Value
    Water Use Equipment Hot Water Temperature,    !- Variable Name
    Hourly;                   !- Reporting Frequency

OUTPUT:VARIABLE,
    *,                        !- Key Value
    Water Use Equipment Cold Water Temperature,    !- Variable Name
    Hourly;                   !- Reporting Frequency

OUTPUT:VARIABLE,
    *,                        !- Key Value
    Water Use Equipment Heating Rate,    !- Variable Name
    Hourly;                   !- Reporting Frequency

OUTPUT:VARIABLE,
    *,                        !- Key Value
    Mean Heated Zones Air Temperature,    !- Variable Name
    Hourly;                   !- Reporting Frequency

OUTPUT:VARIABLE,
    *,                        !- Key Value
    Total Building Heating Power,    !- Variable Name
    Hourly;                   !- Reporting Frequency

OUTPUT:VARIABLE,
    *,                        !- Key Value
    Total DHW Heating Power,    !- Variable Name
    Hourly;                   !- Reporting Frequency

OUTPUT:DIAGNOSTICS,
    DISPLAYEXTRAWARNINGS,     !- Key 1
    DisplayAdvancedReportVariables;    !- Key 2