!- Darwin Line endings 

Version,
    9.5;                      !- Version Identifier

SimulationControl,
    No,                       !- Do Zone Sizing Calculation
    No,                       !- Do System Sizing Calculation
    No,                       !- Do Plant Sizing Calculation
    No,                       !- Run Simulation for Sizing Periods
    Yes,                      !- Run Simulation for Weather File Run Periods
    No,                       !- Do HVAC Sizing Simulation for Sizing Periods
    1;                        !- Maximum Number of HVAC Sizing Simulation Passes

Building,
    None,                     !- Name
    0,                        !- North Axis
    Suburbs,                  !- Terrain
    0.04,                     !- Loads Convergence Tolerance Value
    0.4,                      !- Temperature Convergence Tolerance Value
    FullExterior,             !- Solar Distribution
    25,                       !- Maximum Number of Warmup Days
    6;                        !- Minimum Number of Warmup Days

SHADOWCALCULATION,
    PolygonClipping,          !- Shading Calculation Method
    Periodic,                 !- Shading Calculation Update Frequency Method
    20,                       !- Shading Calculation Update Frequency
    25000,                    !- Maximum Figures in Shadow Overlap Calculations
    SutherlandHodgman,        !- Polygon Clipping Algorithm
    512,                      !- Pixel Counting Resolution
    SimpleSkyDiffuseModeling,    !- Sky Diffuse Modeling Algorithm
    No,                       !- Output External Shading Calculation Results
    No,                       !- Disable SelfShading Within Shading Zone Groups
    No;                       !- Disable SelfShading From Shading Zone Groups to Other Zones

Timestep,
    4;                        !- Number of Timesteps per Hour

Site:Location,
    WeatherData/USA_CA_San.Francisco.Intl.AP.724940_TMY3.epw,    !- Name
    37.62,                    !- Latitude
    -122.4,                   !- Longitude
    -8,                       !- Time Zone
    2;                        !- Elevation

SizingPeriod:DesignDay,
    DENVER_STAPLETON Ann Htg 99.6% Condns DB,    !- Name
    12,                       !- Month
    21,                       !- Day of Month
    WinterDesignDay,          !- Day Type
    -20,                      !- Maximum DryBulb Temperature
    0,                        !- Daily DryBulb Temperature Range
    ,                         !- DryBulb Temperature Range Modifier Type
    ,                         !- DryBulb Temperature Range Modifier Day Schedule Name
    Wetbulb,                  !- Humidity Condition Type
    -20,                      !- Wetbulb or DewPoint at Maximum DryBulb
    ,                         !- Humidity Condition Day Schedule Name
    ,                         !- Humidity Ratio at Maximum DryBulb
    ,                         !- Enthalpy at Maximum DryBulb
    ,                         !- Daily WetBulb Temperature Range
    100594,                   !- Barometric Pressure
    2.3,                      !- Wind Speed
    180,                      !- Wind Direction
    No,                       !- Rain Indicator
    No,                       !- Snow Indicator
    No,                       !- Daylight Saving Time Indicator
    ASHRAEClearSky,           !- Solar Model Indicator
    ,                         !- Beam Solar Day Schedule Name
    ,                         !- Diffuse Solar Day Schedule Name
    ,                         !- ASHRAE Clear Sky Optical Depth for Beam Irradiance taub
    ,                         !- ASHRAE Clear Sky Optical Depth for Diffuse Irradiance taud
    0;                        !- Sky Clearness

SizingPeriod:DesignDay,
    DENVER_STAPLETON Ann Clg .4% Condns DB=>MWB,    !- Name
    7,                        !- Month
    21,                       !- Day of Month
    SummerDesignDay,          !- Day Type
    34.1,                     !- Maximum DryBulb Temperature
    15.2,                     !- Daily DryBulb Temperature Range
    ,                         !- DryBulb Temperature Range Modifier Type
    ,                         !- DryBulb Temperature Range Modifier Day Schedule Name
    Wetbulb,                  !- Humidity Condition Type
    15.8,                     !- Wetbulb or DewPoint at Maximum DryBulb
    ,                         !- Humidity Condition Day Schedule Name
    ,                         !- Humidity Ratio at Maximum DryBulb
    ,                         !- Enthalpy at Maximum DryBulb
    ,                         !- Daily WetBulb Temperature Range
    100594,                   !- Barometric Pressure
    4,                        !- Wind Speed
    120,                      !- Wind Direction
    No,                       !- Rain Indicator
    No,                       !- Snow Indicator
    No,                       !- Daylight Saving Time Indicator
    ASHRAEClearSky,           !- Solar Model Indicator
    ,                         !- Beam Solar Day Schedule Name
    ,                         !- Diffuse Solar Day Schedule Name
    ,                         !- ASHRAE Clear Sky Optical Depth for Beam Irradiance taub
    ,                         !- ASHRAE Clear Sky Optical Depth for Diffuse Irradiance taud
    1;                        !- Sky Clearness

RunPeriod,
    Run Period 1,             !- Name
    1,                        !- Begin Month
    1,                        !- Begin Day of Month
    ,                         !- Begin Year
    12,                       !- End Month
    31,                       !- End Day of Month
    ,                         !- End Year
    Tuesday,                  !- Day of Week for Start Day
    Yes,                      !- Use Weather File Holidays and Special Days
    Yes,                      !- Use Weather File Daylight Saving Period
    No,                       !- Apply Weekend Holiday Rule
    Yes,                      !- Use Weather File Rain Indicators
    Yes;                      !- Use Weather File Snow Indicators

SITE:GROUNDTEMPERATURE:BUILDINGSURFACE,
    15,                       !- January Ground Temperature
    15,                       !- February Ground Temperature
    15,                       !- March Ground Temperature
    15,                       !- April Ground Temperature
    15,                       !- May Ground Temperature
    15,                       !- June Ground Temperature
    15,                       !- July Ground Temperature
    15,                       !- August Ground Temperature
    15,                       !- September Ground Temperature
    15,                       !- October Ground Temperature
    15,                       !- November Ground Temperature
    15;                       !- December Ground Temperature

SCHEDULETYPELIMITS,
    Any Number,               !- Name
    ,                         !- Lower Limit Value
    ,                         !- Upper Limit Value
    ,                         !- Numeric Type
    Dimensionless;            !- Unit Type

SCHEDULE:COMPACT,
    AlwaysON,                 !- Name
    Any Number,               !- Schedule Type Limits Name
    Through: 12/31,           !- Field 1
    For: AllDays,             !- Field 2
    Until: 24:00,             !- Field 3
    1;                        !- Field 4

SCHEDULE:COMPACT,
    OccupActivity,            !- Name
    Any Number,               !- Schedule Type Limits Name
    Through: 12/31,           !- Field 1
    For: AllDays,             !- Field 2
    Until: 24:00,             !- Field 3
    70;                       !- Field 4

SCHEDULE:COMPACT,
    HotWaterTemp,             !- Name
    Any Number,               !- Schedule Type Limits Name
    Through: 12/31,           !- Field 1
    For: AllDays,             !- Field 2
    Until: 24:00,             !- Field 3
    55;                       !- Field 4

SCHEDULE:COMPACT,
    TargetWaterTemp,          !- Name
    Any Number,               !- Schedule Type Limits Name
    Through: 12/31,           !- Field 1
    For: AllDays,             !- Field 2
    Until: 24:00,             !- Field 3
    37;                       !- Field 4

SCHEDULE:FILE,
    LoadSchedule,             !- Name
    Any Number,               !- Schedule Type Limits Name
    /Users/alizad/PycharmProjects/mubes-ubem/examples/ForTest/InputFiles/Building28_winter.txt,    !- File Name
    1,                        !- Column Number
    0,                        !- Rows to Skip at Top
    8760,                     !- Number of Hours of Data
    Comma,                    !- Column Separator
    No;                       !- Interpolate to Timestep

SCHEDULE:FILE,
    Watertaps,                !- Name
    Any Number,               !- Schedule Type Limits Name
    /Users/alizad/PycharmProjects/mubes-ubem/examples/ForTest/InputFiles/domestic_hot_water_40_apartments.txt,    !- File Name
    1,                        !- Column Number
    0,                        !- Rows to Skip at Top
    8760,                     !- Number of Hours of Data
    Comma,                    !- Column Separator
    No;                       !- Interpolate to Timestep

SCHEDULE:FILE,
    ColdWaterTemp,            !- Name
    Any Number,               !- Schedule Type Limits Name
    /Users/alizad/PycharmProjects/mubes-ubem/examples/ForTest/InputFiles/cold_water_temperature_stockholm.txt,    !- File Name
    1,                        !- Column Number
    0,                        !- Rows to Skip at Top
    8760,                     !- Number of Hours of Data
    Comma,                    !- Column Separator
    No;                       !- Interpolate to Timestep

MATERIAL,
    DefaultMaterial,          !- Name
    Rough,                    !- Roughness
    0.1,                      !- Thickness
    0.1,                      !- Conductivity
    1000,                     !- Density
    1000,                     !- Specific Heat
    0.9,                      !- Thermal Absorptance
    0.7,                      !- Solar Absorptance
    0.7;                      !- Visible Absorptance

MATERIAL,
    Basement Floor,           !- Name
    Rough,                    !- Roughness
    0.1,                      !- Thickness
    0.9,                      !- Conductivity
    2300,                     !- Density
    1000,                     !- Specific Heat
    0.9,                      !- Thermal Absorptance
    0.7,                      !- Solar Absorptance
    0.7;                      !- Visible Absorptance

MATERIAL,
    Heated1rstFloor Inertia,    !- Name
    Rough,                    !- Roughness
    0.1,                      !- Thickness
    0.9,                      !- Conductivity
    2300,                     !- Density
    1000,                     !- Specific Heat
    0.9,                      !- Thermal Absorptance
    0.7,                      !- Solar Absorptance
    0.7;                      !- Visible Absorptance

MATERIAL,
    Heated1rstFloor Insulation,    !- Name
    Rough,                    !- Roughness
    0.15,                     !- Thickness
    0.035,                    !- Conductivity
    150,                      !- Density
    1000,                     !- Specific Heat
    0.9,                      !- Thermal Absorptance
    0.7,                      !- Solar Absorptance
    0.7;                      !- Visible Absorptance

MATERIAL,
    Roof Insulation,          !- Name
    Rough,                    !- Roughness
    0.3,                      !- Thickness
    0.03,                     !- Conductivity
    150,                      !- Density
    1000,                     !- Specific Heat
    0.9,                      !- Thermal Absorptance
    0.7,                      !- Solar Absorptance
    0.7;                      !- Visible Absorptance

MATERIAL,
    Wall Inertia,             !- Name
    Rough,                    !- Roughness
    0.2,                      !- Thickness
    0.9,                      !- Conductivity
    2300,                     !- Density
    1000,                     !- Specific Heat
    0.9,                      !- Thermal Absorptance
    0.7,                      !- Solar Absorptance
    0.7;                      !- Visible Absorptance

MATERIAL,
    Wall Insulation,          !- Name
    Rough,                    !- Roughness
    0.2,                      !- Thickness
    0.03,                     !- Conductivity
    150,                      !- Density
    1000,                     !- Specific Heat
    0.9,                      !- Thermal Absorptance
    0.7,                      !- Solar Absorptance
    0.7;                      !- Visible Absorptance

MATERIAL,
    HeatedZoneIntMass,        !- Name
    Rough,                    !- Roughness
    0.1,                      !- Thickness
    0.3,                      !- Conductivity
    600,                      !- Density
    1400,                     !- Specific Heat
    0.9,                      !- Thermal Absorptance
    0.7,                      !- Solar Absorptance
    0.7;                      !- Visible Absorptance

MATERIAL,
    AirWallMaterial,          !- Name
    MediumSmooth,             !- Roughness
    0.01,                     !- Thickness
    0.6,                      !- Conductivity
    800,                      !- Density
    1000,                     !- Specific Heat
    0.95,                     !- Thermal Absorptance
    0.7,                      !- Solar Absorptance
    0.7;                      !- Visible Absorptance

WINDOWMATERIAL:SIMPLEGLAZINGSYSTEM,
    DefaultGlazing,           !- Name
    2.7,                      !- UFactor
    0.763,                    !- Solar Heat Gain Coefficient
    0.8;                      !- Visible Transmittance

WINDOWMATERIAL:SIMPLEGLAZINGSYSTEM,
    Window,                   !- Name
    1.9,                      !- UFactor
    0.7,                      !- Solar Heat Gain Coefficient
    0.8;                      !- Visible Transmittance

CONSTRUCTION,
    Project Wall,             !- Name
    Wall Inertia,             !- Outside Layer
    Wall Insulation;          !- Layer 2

CONSTRUCTION,
    Project Flat Roof,        !- Name
    Roof Insulation;          !- Outside Layer

CONSTRUCTION,
    Project External Window,    !- Name
    Window;                   !- Outside Layer

CONSTRUCTION,
    Project Heated1rstFloor,    !- Name
    Heated1rstFloor Inertia,    !- Outside Layer
    Heated1rstFloor Insulation;    !- Layer 2

CONSTRUCTION,
    HeatedZoneIntMassObj,     !- Name
    HeatedZoneIntMass;        !- Outside Layer

GlobalGeometryRules,
    UpperLeftCorner,          !- Starting Vertex Position
    CounterClockWise,         !- Vertex Entry Direction
    World;                    !- Coordinate System

ZONE,
    Block Build0_Alt0 Storey 0,    !- Name
    0,                        !- Direction of Relative North
    0,                        !- X Origin
    0,                        !- Y Origin
    0,                        !- Z Origin
    1,                        !- Type
    1,                        !- Multiplier
    autocalculate,            !- Ceiling Height
    autocalculate,            !- Volume
    autocalculate,            !- Floor Area
    ,                         !- Zone Inside Convection Algorithm
    ,                         !- Zone Outside Convection Algorithm
    Yes;                      !- Part of Total Floor Area

BUILDINGSURFACE:DETAILED,
    Block Build0_Alt0 Storey 0 Wall 0001,    !- Name
    wall,                     !- Surface Type
    Project Wall,             !- Construction Name
    Block Build0_Alt0 Storey 0,    !- Zone Name
    outdoors,                 !- Outside Boundary Condition
    ,                         !- Outside Boundary Condition Object
    SunExposed,               !- Sun Exposure
    WindExposed,              !- Wind Exposure
    autocalculate,            !- View Factor to Ground
    autocalculate,            !- Number of Vertices
    -5.3623,                  !- Vertex 1 Xcoordinate
    15.944,                   !- Vertex 1 Ycoordinate
    6,                        !- Vertex 1 Zcoordinate
    -5.3623,                  !- Vertex 2 Xcoordinate
    15.944,                   !- Vertex 2 Ycoordinate
    0,                        !- Vertex 2 Zcoordinate
    1.4467,                   !- Vertex 3 Xcoordinate
    -12.24,                   !- Vertex 3 Ycoordinate
    0,                        !- Vertex 3 Zcoordinate
    1.4467,                   !- Vertex 4 Xcoordinate
    -12.24,                   !- Vertex 4 Ycoordinate
    6;                        !- Vertex 4 Zcoordinate

BUILDINGSURFACE:DETAILED,
    Block Build0_Alt0 Storey 0 Wall 0002,    !- Name
    wall,                     !- Surface Type
    Project Wall,             !- Construction Name
    Block Build0_Alt0 Storey 0,    !- Zone Name
    outdoors,                 !- Outside Boundary Condition
    ,                         !- Outside Boundary Condition Object
    SunExposed,               !- Sun Exposure
    WindExposed,              !- Wind Exposure
    autocalculate,            !- View Factor to Ground
    autocalculate,            !- Number of Vertices
    1.4467,                   !- Vertex 1 Xcoordinate
    -12.24,                   !- Vertex 1 Ycoordinate
    6,                        !- Vertex 1 Zcoordinate
    1.4467,                   !- Vertex 2 Xcoordinate
    -12.24,                   !- Vertex 2 Ycoordinate
    0,                        !- Vertex 2 Zcoordinate
    11.4837,                  !- Vertex 3 Xcoordinate
    -9.796,                   !- Vertex 3 Ycoordinate
    0,                        !- Vertex 3 Zcoordinate
    11.4837,                  !- Vertex 4 Xcoordinate
    -9.796,                   !- Vertex 4 Ycoordinate
    6;                        !- Vertex 4 Zcoordinate

BUILDINGSURFACE:DETAILED,
    Block Build0_Alt0 Storey 0 Wall 0003,    !- Name
    wall,                     !- Surface Type
    Project Wall,             !- Construction Name
    Block Build0_Alt0 Storey 0,    !- Zone Name
    outdoors,                 !- Outside Boundary Condition
    ,                         !- Outside Boundary Condition Object
    SunExposed,               !- Sun Exposure
    WindExposed,              !- Wind Exposure
    autocalculate,            !- View Factor to Ground
    autocalculate,            !- Number of Vertices
    11.4837,                  !- Vertex 1 Xcoordinate
    -9.796,                   !- Vertex 1 Ycoordinate
    6,                        !- Vertex 1 Zcoordinate
    11.4837,                  !- Vertex 2 Xcoordinate
    -9.796,                   !- Vertex 2 Ycoordinate
    0,                        !- Vertex 2 Zcoordinate
    4.6547,                   !- Vertex 3 Xcoordinate
    18.345,                   !- Vertex 3 Ycoordinate
    0,                        !- Vertex 3 Zcoordinate
    4.6547,                   !- Vertex 4 Xcoordinate
    18.345,                   !- Vertex 4 Ycoordinate
    6;                        !- Vertex 4 Zcoordinate

BUILDINGSURFACE:DETAILED,
    Block Build0_Alt0 Storey 0 Wall 0004,    !- Name
    wall,                     !- Surface Type
    Project Wall,             !- Construction Name
    Block Build0_Alt0 Storey 0,    !- Zone Name
    outdoors,                 !- Outside Boundary Condition
    ,                         !- Outside Boundary Condition Object
    SunExposed,               !- Sun Exposure
    WindExposed,              !- Wind Exposure
    autocalculate,            !- View Factor to Ground
    autocalculate,            !- Number of Vertices
    4.6547,                   !- Vertex 1 Xcoordinate
    18.345,                   !- Vertex 1 Ycoordinate
    6,                        !- Vertex 1 Zcoordinate
    4.6547,                   !- Vertex 2 Xcoordinate
    18.345,                   !- Vertex 2 Ycoordinate
    0,                        !- Vertex 2 Zcoordinate
    -5.3623,                  !- Vertex 3 Xcoordinate
    15.944,                   !- Vertex 3 Ycoordinate
    0,                        !- Vertex 3 Zcoordinate
    -5.3623,                  !- Vertex 4 Xcoordinate
    15.944,                   !- Vertex 4 Ycoordinate
    6;                        !- Vertex 4 Zcoordinate

BUILDINGSURFACE:DETAILED,
    Block Build0_Alt0 Storey 0 Floor 0001,    !- Name
    floor,                    !- Surface Type
    Project Heated1rstFloor,    !- Construction Name
    Block Build0_Alt0 Storey 0,    !- Zone Name
    ground,                   !- Outside Boundary Condition
    ,                         !- Outside Boundary Condition Object
    NoSun,                    !- Sun Exposure
    NoWind,                   !- Wind Exposure
    autocalculate,            !- View Factor to Ground
    autocalculate,            !- Number of Vertices
    4.6547,                   !- Vertex 1 Xcoordinate
    18.345,                   !- Vertex 1 Ycoordinate
    0,                        !- Vertex 1 Zcoordinate
    11.4837,                  !- Vertex 2 Xcoordinate
    -9.796,                   !- Vertex 2 Ycoordinate
    0,                        !- Vertex 2 Zcoordinate
    1.4467,                   !- Vertex 3 Xcoordinate
    -12.24,                   !- Vertex 3 Ycoordinate
    0,                        !- Vertex 3 Zcoordinate
    -5.3623,                  !- Vertex 4 Xcoordinate
    15.944,                   !- Vertex 4 Ycoordinate
    0;                        !- Vertex 4 Zcoordinate

BUILDINGSURFACE:DETAILED,
    Block Build0_Alt0 Storey 0 Roof 0001,    !- Name
    roof,                     !- Surface Type
    Project Flat Roof,        !- Construction Name
    Block Build0_Alt0 Storey 0,    !- Zone Name
    outdoors,                 !- Outside Boundary Condition
    ,                         !- Outside Boundary Condition Object
    SunExposed,               !- Sun Exposure
    WindExposed,              !- Wind Exposure
    autocalculate,            !- View Factor to Ground
    autocalculate,            !- Number of Vertices
    11.4837,                  !- Vertex 1 Xcoordinate
    -9.796,                   !- Vertex 1 Ycoordinate
    6,                        !- Vertex 1 Zcoordinate
    4.6547,                   !- Vertex 2 Xcoordinate
    18.345,                   !- Vertex 2 Ycoordinate
    6,                        !- Vertex 2 Zcoordinate
    -5.3623,                  !- Vertex 3 Xcoordinate
    15.944,                   !- Vertex 3 Ycoordinate
    6,                        !- Vertex 3 Zcoordinate
    1.4467,                   !- Vertex 4 Xcoordinate
    -12.24,                   !- Vertex 4 Ycoordinate
    6;                        !- Vertex 4 Zcoordinate

FENESTRATIONSURFACE:DETAILED,
    Block Build0_Alt0 Storey 0 Wall 0001 window,    !- Name
    Window,                   !- Surface Type
    Project External Window,    !- Construction Name
    Block Build0_Alt0 Storey 0 Wall 0001,    !- Building Surface Name
    ,                         !- Outside Boundary Condition Object
    autocalculate,            !- View Factor to Ground
    ,                         !- Frame and Divider Name
    1.0,                      !- Multiplier
    autocalculate,            !- Number of Vertices
    -5.358895500000001,       !- Vertex 1 Xcoordinate
    15.929908000000001,       !- Vertex 1 Ycoordinate
    3.9,                      !- Vertex 1 Zcoordinate
    -5.358895500000001,       !- Vertex 2 Xcoordinate
    15.929908000000001,       !- Vertex 2 Ycoordinate
    2.1,                      !- Vertex 2 Zcoordinate
    1.4432955000000005,       !- Vertex 3 Xcoordinate
    -12.225908,               !- Vertex 3 Ycoordinate
    2.1,                      !- Vertex 3 Zcoordinate
    1.4432955000000005,       !- Vertex 4 Xcoordinate
    -12.225908,               !- Vertex 4 Ycoordinate
    3.9;                      !- Vertex 4 Zcoordinate

FENESTRATIONSURFACE:DETAILED,
    Block Build0_Alt0 Storey 0 Wall 0002 window,    !- Name
    Window,                   !- Surface Type
    Project External Window,    !- Construction Name
    Block Build0_Alt0 Storey 0 Wall 0002,    !- Building Surface Name
    ,                         !- Outside Boundary Condition Object
    autocalculate,            !- View Factor to Ground
    ,                         !- Frame and Divider Name
    1.0,                      !- Multiplier
    autocalculate,            !- Number of Vertices
    1.4517185000000001,       !- Vertex 1 Xcoordinate
    -12.238778,               !- Vertex 1 Ycoordinate
    3.9,                      !- Vertex 1 Zcoordinate
    1.4517185000000001,       !- Vertex 2 Xcoordinate
    -12.238778,               !- Vertex 2 Ycoordinate
    2.1,                      !- Vertex 2 Zcoordinate
    11.4786815,               !- Vertex 3 Xcoordinate
    -9.797222,                !- Vertex 3 Ycoordinate
    2.1,                      !- Vertex 3 Zcoordinate
    11.4786815,               !- Vertex 4 Xcoordinate
    -9.797222,                !- Vertex 4 Ycoordinate
    3.9;                      !- Vertex 4 Zcoordinate

FENESTRATIONSURFACE:DETAILED,
    Block Build0_Alt0 Storey 0 Wall 0003 window,    !- Name
    Window,                   !- Surface Type
    Project External Window,    !- Construction Name
    Block Build0_Alt0 Storey 0 Wall 0003,    !- Building Surface Name
    ,                         !- Outside Boundary Condition Object
    autocalculate,            !- View Factor to Ground
    ,                         !- Frame and Divider Name
    1.0,                      !- Multiplier
    autocalculate,            !- Number of Vertices
    11.4802855,               !- Vertex 1 Xcoordinate
    -9.781929499999999,       !- Vertex 1 Ycoordinate
    3.9,                      !- Vertex 1 Zcoordinate
    11.4802855,               !- Vertex 2 Xcoordinate
    -9.781929499999999,       !- Vertex 2 Ycoordinate
    2.1,                      !- Vertex 2 Zcoordinate
    4.6581145,                !- Vertex 3 Xcoordinate
    18.330929499999996,       !- Vertex 3 Ycoordinate
    2.1,                      !- Vertex 3 Zcoordinate
    4.6581145,                !- Vertex 4 Xcoordinate
    18.330929499999996,       !- Vertex 4 Ycoordinate
    3.9;                      !- Vertex 4 Zcoordinate

FENESTRATIONSURFACE:DETAILED,
    Block Build0_Alt0 Storey 0 Wall 0004 window,    !- Name
    Window,                   !- Surface Type
    Project External Window,    !- Construction Name
    Block Build0_Alt0 Storey 0 Wall 0004,    !- Building Surface Name
    ,                         !- Outside Boundary Condition Object
    autocalculate,            !- View Factor to Ground
    ,                         !- Frame and Divider Name
    1.0,                      !- Multiplier
    autocalculate,            !- Number of Vertices
    4.649691499999999,        !- Vertex 1 Xcoordinate
    18.3437995,               !- Vertex 1 Ycoordinate
    3.9,                      !- Vertex 1 Zcoordinate
    4.649691499999999,        !- Vertex 2 Xcoordinate
    18.3437995,               !- Vertex 2 Ycoordinate
    2.1,                      !- Vertex 2 Zcoordinate
    -5.357292e+00,            !- Vertex 3 Xcoordinate
    15.9452005,               !- Vertex 3 Ycoordinate
    2.1,                      !- Vertex 3 Zcoordinate
    -5.357292e+00,            !- Vertex 4 Xcoordinate
    15.9452005,               !- Vertex 4 Ycoordinate
    3.9;                      !- Vertex 4 Zcoordinate

INTERNALMASS,
    Block Build0_Alt0 Storey 0IntMass,    !- Name
    HeatedZoneIntMassObj,     !- Construction Name
    Block Build0_Alt0 Storey 0,    !- Zone or ZoneList Name
    1196;                     !- Surface Area

SHADING:SITE:DETAILED,
    Shading_V21_1,            !- Name
    ,                         !- Transmittance Schedule Name
    autocalculate,            !- Number of Vertices
    -30.5023,                 !- Vertex 1 Xcoordinate
    50.969,                   !- Vertex 1 Ycoordinate
    6.9,                      !- Vertex 1 Zcoordinate
    -30.5023,                 !- Vertex 2 Xcoordinate
    50.969,                   !- Vertex 2 Ycoordinate
    0,                        !- Vertex 2 Zcoordinate
    -25.7213,                 !- Vertex 3 Xcoordinate
    59.98,                    !- Vertex 3 Ycoordinate
    0,                        !- Vertex 3 Zcoordinate
    -25.7213,                 !- Vertex 4 Xcoordinate
    59.98,                    !- Vertex 4 Ycoordinate
    6.9;                      !- Vertex 4 Zcoordinate

SHADING:SITE:DETAILED,
    Shading_V24_1,            !- Name
    ,                         !- Transmittance Schedule Name
    autocalculate,            !- Number of Vertices
    -53.1323,                 !- Vertex 1 Xcoordinate
    62.938,                   !- Vertex 1 Ycoordinate
    6.9,                      !- Vertex 1 Zcoordinate
    -53.1323,                 !- Vertex 2 Xcoordinate
    62.938,                   !- Vertex 2 Ycoordinate
    0,                        !- Vertex 2 Zcoordinate
    -30.5023,                 !- Vertex 3 Xcoordinate
    50.969,                   !- Vertex 3 Ycoordinate
    0,                        !- Vertex 3 Zcoordinate
    -30.5023,                 !- Vertex 4 Xcoordinate
    50.969,                   !- Vertex 4 Ycoordinate
    6.9;                      !- Vertex 4 Zcoordinate

SHADING:SITE:DETAILED,
    Shading_V380_1,           !- Name
    ,                         !- Transmittance Schedule Name
    autocalculate,            !- Number of Vertices
    -35.8003,                 !- Vertex 1 Xcoordinate
    81.235,                   !- Vertex 1 Ycoordinate
    8.6,                      !- Vertex 1 Zcoordinate
    -35.8003,                 !- Vertex 2 Xcoordinate
    81.235,                   !- Vertex 2 Ycoordinate
    0,                        !- Vertex 2 Zcoordinate
    -27.6073,                 !- Vertex 3 Xcoordinate
    87.52,                    !- Vertex 3 Ycoordinate
    0,                        !- Vertex 3 Zcoordinate
    -27.6073,                 !- Vertex 4 Xcoordinate
    87.52,                    !- Vertex 4 Ycoordinate
    8.6;                      !- Vertex 4 Zcoordinate

SHADING:SITE:DETAILED,
    Shading_V4_1,             !- Name
    ,                         !- Transmittance Schedule Name
    autocalculate,            !- Number of Vertices
    47.8257,                  !- Vertex 1 Xcoordinate
    146.804,                  !- Vertex 1 Ycoordinate
    15.8,                     !- Vertex 1 Zcoordinate
    47.8257,                  !- Vertex 2 Xcoordinate
    146.804,                  !- Vertex 2 Ycoordinate
    0,                        !- Vertex 2 Zcoordinate
    51.5307,                  !- Vertex 3 Xcoordinate
    142.476,                  !- Vertex 3 Ycoordinate
    0,                        !- Vertex 3 Zcoordinate
    51.5307,                  !- Vertex 4 Xcoordinate
    142.476,                  !- Vertex 4 Ycoordinate
    15.8;                     !- Vertex 4 Zcoordinate

SHADING:SITE:DETAILED,
    Shading_V13_1,            !- Name
    ,                         !- Transmittance Schedule Name
    autocalculate,            !- Number of Vertices
    49.0827,                  !- Vertex 1 Xcoordinate
    130.093,                  !- Vertex 1 Ycoordinate
    16.1,                     !- Vertex 1 Zcoordinate
    49.0827,                  !- Vertex 2 Xcoordinate
    130.093,                  !- Vertex 2 Ycoordinate
    0,                        !- Vertex 2 Zcoordinate
    55.8407,                  !- Vertex 3 Xcoordinate
    122.548,                  !- Vertex 3 Ycoordinate
    0,                        !- Vertex 3 Zcoordinate
    55.8407,                  !- Vertex 4 Xcoordinate
    122.548,                  !- Vertex 4 Ycoordinate
    16.1;                     !- Vertex 4 Zcoordinate

SHADING:SITE:DETAILED,
    Shading_V14_1,            !- Name
    ,                         !- Transmittance Schedule Name
    autocalculate,            !- Number of Vertices
    55.8407,                  !- Vertex 1 Xcoordinate
    122.548,                  !- Vertex 1 Ycoordinate
    16.1,                     !- Vertex 1 Zcoordinate
    55.8407,                  !- Vertex 2 Xcoordinate
    122.548,                  !- Vertex 2 Ycoordinate
    0,                        !- Vertex 2 Zcoordinate
    64.4477,                  !- Vertex 3 Xcoordinate
    129.915,                  !- Vertex 3 Ycoordinate
    0,                        !- Vertex 3 Zcoordinate
    64.4477,                  !- Vertex 4 Xcoordinate
    129.915,                  !- Vertex 4 Ycoordinate
    16.1;                     !- Vertex 4 Zcoordinate

SHADING:SITE:DETAILED,
    Shading_V15_1,            !- Name
    ,                         !- Transmittance Schedule Name
    autocalculate,            !- Number of Vertices
    64.4477,                  !- Vertex 1 Xcoordinate
    129.915,                  !- Vertex 1 Ycoordinate
    16.1,                     !- Vertex 1 Zcoordinate
    64.4477,                  !- Vertex 2 Xcoordinate
    129.915,                  !- Vertex 2 Ycoordinate
    0,                        !- Vertex 2 Zcoordinate
    74.2658,                  !- Vertex 3 Xcoordinate
    129.1761,                 !- Vertex 3 Ycoordinate
    0,                        !- Vertex 3 Zcoordinate
    74.2658,                  !- Vertex 4 Xcoordinate
    129.1761,                 !- Vertex 4 Ycoordinate
    16.1;                     !- Vertex 4 Zcoordinate

SHADING:SITE:DETAILED,
    Shading_V25_1,            !- Name
    ,                         !- Transmittance Schedule Name
    autocalculate,            !- Number of Vertices
    4.5207,                   !- Vertex 1 Xcoordinate
    127.365,                  !- Vertex 1 Ycoordinate
    9,                        !- Vertex 1 Zcoordinate
    4.5207,                   !- Vertex 2 Xcoordinate
    127.365,                  !- Vertex 2 Ycoordinate
    0,                        !- Vertex 2 Zcoordinate
    13.2537,                  !- Vertex 3 Xcoordinate
    132.781,                  !- Vertex 3 Ycoordinate
    0,                        !- Vertex 3 Zcoordinate
    13.2537,                  !- Vertex 4 Xcoordinate
    132.781,                  !- Vertex 4 Ycoordinate
    9;                        !- Vertex 4 Zcoordinate

SHADING:SITE:DETAILED,
    Shading_V28_1,            !- Name
    ,                         !- Transmittance Schedule Name
    autocalculate,            !- Number of Vertices
    -4.6453,                  !- Vertex 1 Xcoordinate
    142.181,                  !- Vertex 1 Ycoordinate
    9,                        !- Vertex 1 Zcoordinate
    -4.6453,                  !- Vertex 2 Xcoordinate
    142.181,                  !- Vertex 2 Ycoordinate
    0,                        !- Vertex 2 Zcoordinate
    4.5207,                   !- Vertex 3 Xcoordinate
    127.365,                  !- Vertex 3 Ycoordinate
    0,                        !- Vertex 3 Zcoordinate
    4.5207,                   !- Vertex 4 Xcoordinate
    127.365,                  !- Vertex 4 Ycoordinate
    9;                        !- Vertex 4 Zcoordinate

SHADING:SITE:DETAILED,
    Shading_V61_1,            !- Name
    ,                         !- Transmittance Schedule Name
    autocalculate,            !- Number of Vertices
    131.3811,                 !- Vertex 1 Xcoordinate
    71.6795,                  !- Vertex 1 Ycoordinate
    11.6,                     !- Vertex 1 Zcoordinate
    131.3811,                 !- Vertex 2 Xcoordinate
    71.6795,                  !- Vertex 2 Ycoordinate
    0,                        !- Vertex 2 Zcoordinate
    136.3647,                 !- Vertex 3 Xcoordinate
    65.933,                   !- Vertex 3 Ycoordinate
    0,                        !- Vertex 3 Zcoordinate
    136.3647,                 !- Vertex 4 Xcoordinate
    65.933,                   !- Vertex 4 Ycoordinate
    11.6;                     !- Vertex 4 Zcoordinate

SHADING:SITE:DETAILED,
    Shading_V62_1,            !- Name
    ,                         !- Transmittance Schedule Name
    autocalculate,            !- Number of Vertices
    136.3647,                 !- Vertex 1 Xcoordinate
    65.933,                   !- Vertex 1 Ycoordinate
    11.6,                     !- Vertex 1 Zcoordinate
    136.3647,                 !- Vertex 2 Xcoordinate
    65.933,                   !- Vertex 2 Ycoordinate
    0,                        !- Vertex 2 Zcoordinate
    135.5479,                 !- Vertex 3 Xcoordinate
    55.2209,                  !- Vertex 3 Ycoordinate
    0,                        !- Vertex 3 Zcoordinate
    135.5479,                 !- Vertex 4 Xcoordinate
    55.2209,                  !- Vertex 4 Ycoordinate
    11.6;                     !- Vertex 4 Zcoordinate

SHADING:SITE:DETAILED,
    Shading_V85_1,            !- Name
    ,                         !- Transmittance Schedule Name
    autocalculate,            !- Number of Vertices
    10.9777,                  !- Vertex 1 Xcoordinate
    89.634,                   !- Vertex 1 Ycoordinate
    8,                        !- Vertex 1 Zcoordinate
    10.9777,                  !- Vertex 2 Xcoordinate
    89.634,                   !- Vertex 2 Ycoordinate
    0,                        !- Vertex 2 Zcoordinate
    17.7197,                  !- Vertex 3 Xcoordinate
    80.286,                   !- Vertex 3 Ycoordinate
    0,                        !- Vertex 3 Zcoordinate
    17.7197,                  !- Vertex 4 Xcoordinate
    80.286,                   !- Vertex 4 Ycoordinate
    8;                        !- Vertex 4 Zcoordinate

SHADING:SITE:DETAILED,
    Shading_V86_1,            !- Name
    ,                         !- Transmittance Schedule Name
    autocalculate,            !- Number of Vertices
    17.7197,                  !- Vertex 1 Xcoordinate
    80.286,                   !- Vertex 1 Ycoordinate
    8,                        !- Vertex 1 Zcoordinate
    17.7197,                  !- Vertex 2 Xcoordinate
    80.286,                   !- Vertex 2 Ycoordinate
    0,                        !- Vertex 2 Zcoordinate
    26.3007,                  !- Vertex 3 Xcoordinate
    86.471,                   !- Vertex 3 Ycoordinate
    0,                        !- Vertex 3 Zcoordinate
    26.3007,                  !- Vertex 4 Xcoordinate
    86.471,                   !- Vertex 4 Ycoordinate
    8;                        !- Vertex 4 Zcoordinate

SHADING:SITE:DETAILED,
    Shading_V145_1,           !- Name
    ,                         !- Transmittance Schedule Name
    autocalculate,            !- Number of Vertices
    138.8327,                 !- Vertex 1 Xcoordinate
    131.147,                  !- Vertex 1 Ycoordinate
    15.5,                     !- Vertex 1 Zcoordinate
    138.8327,                 !- Vertex 2 Xcoordinate
    131.147,                  !- Vertex 2 Ycoordinate
    0,                        !- Vertex 2 Zcoordinate
    143.9307,                 !- Vertex 3 Xcoordinate
    135.509,                  !- Vertex 3 Ycoordinate
    0,                        !- Vertex 3 Zcoordinate
    143.9307,                 !- Vertex 4 Xcoordinate
    135.509,                  !- Vertex 4 Ycoordinate
    15.5;                     !- Vertex 4 Zcoordinate

SHADING:SITE:DETAILED,
    Shading_V170_1,           !- Name
    ,                         !- Transmittance Schedule Name
    autocalculate,            !- Number of Vertices
    29.4117,                  !- Vertex 1 Xcoordinate
    112.755,                  !- Vertex 1 Ycoordinate
    9,                        !- Vertex 1 Zcoordinate
    29.4117,                  !- Vertex 2 Xcoordinate
    112.755,                  !- Vertex 2 Ycoordinate
    0,                        !- Vertex 2 Zcoordinate
    37.9177,                  !- Vertex 3 Xcoordinate
    117.996,                  !- Vertex 3 Ycoordinate
    0,                        !- Vertex 3 Zcoordinate
    37.9177,                  !- Vertex 4 Xcoordinate
    117.996,                  !- Vertex 4 Ycoordinate
    9;                        !- Vertex 4 Zcoordinate

SHADING:SITE:DETAILED,
    Shading_V174_1,           !- Name
    ,                         !- Transmittance Schedule Name
    autocalculate,            !- Number of Vertices
    86.0877,                  !- Vertex 1 Xcoordinate
    109.883,                  !- Vertex 1 Ycoordinate
    19.2,                     !- Vertex 1 Zcoordinate
    86.0877,                  !- Vertex 2 Xcoordinate
    109.883,                  !- Vertex 2 Ycoordinate
    0,                        !- Vertex 2 Zcoordinate
    94.3907,                  !- Vertex 3 Xcoordinate
    100.256,                  !- Vertex 3 Ycoordinate
    0,                        !- Vertex 3 Zcoordinate
    94.3907,                  !- Vertex 4 Xcoordinate
    100.256,                  !- Vertex 4 Ycoordinate
    19.2;                     !- Vertex 4 Zcoordinate

SHADING:SITE:DETAILED,
    Shading_V175_1,           !- Name
    ,                         !- Transmittance Schedule Name
    autocalculate,            !- Number of Vertices
    94.3907,                  !- Vertex 1 Xcoordinate
    100.256,                  !- Vertex 1 Ycoordinate
    19.2,                     !- Vertex 1 Zcoordinate
    94.3907,                  !- Vertex 2 Xcoordinate
    100.256,                  !- Vertex 2 Ycoordinate
    0,                        !- Vertex 2 Zcoordinate
    101.5467,                 !- Vertex 3 Xcoordinate
    106.458,                  !- Vertex 3 Ycoordinate
    0,                        !- Vertex 3 Zcoordinate
    101.5467,                 !- Vertex 4 Xcoordinate
    106.458,                  !- Vertex 4 Ycoordinate
    19.2;                     !- Vertex 4 Zcoordinate

SHADING:SITE:DETAILED,
    Shading_V176_1,           !- Name
    ,                         !- Transmittance Schedule Name
    autocalculate,            !- Number of Vertices
    101.5467,                 !- Vertex 1 Xcoordinate
    106.458,                  !- Vertex 1 Ycoordinate
    19.2,                     !- Vertex 1 Zcoordinate
    101.5467,                 !- Vertex 2 Xcoordinate
    106.458,                  !- Vertex 2 Ycoordinate
    0,                        !- Vertex 2 Zcoordinate
    105.8867,                 !- Vertex 3 Xcoordinate
    101.385,                  !- Vertex 3 Ycoordinate
    0,                        !- Vertex 3 Zcoordinate
    105.8867,                 !- Vertex 4 Xcoordinate
    101.385,                  !- Vertex 4 Ycoordinate
    19.2;                     !- Vertex 4 Zcoordinate

SHADING:SITE:DETAILED,
    Shading_V177_1,           !- Name
    ,                         !- Transmittance Schedule Name
    autocalculate,            !- Number of Vertices
    105.8867,                 !- Vertex 1 Xcoordinate
    101.385,                  !- Vertex 1 Ycoordinate
    19.2,                     !- Vertex 1 Zcoordinate
    105.8867,                 !- Vertex 2 Xcoordinate
    101.385,                  !- Vertex 2 Ycoordinate
    0,                        !- Vertex 2 Zcoordinate
    113.5257,                 !- Vertex 3 Xcoordinate
    107.978,                  !- Vertex 3 Ycoordinate
    0,                        !- Vertex 3 Zcoordinate
    113.5257,                 !- Vertex 4 Xcoordinate
    107.978,                  !- Vertex 4 Ycoordinate
    19.2;                     !- Vertex 4 Zcoordinate

SHADING:SITE:DETAILED,
    Shading_V289_1,           !- Name
    ,                         !- Transmittance Schedule Name
    autocalculate,            !- Number of Vertices
    44.4797,                  !- Vertex 1 Xcoordinate
    12.895,                   !- Vertex 1 Ycoordinate
    7.8,                      !- Vertex 1 Zcoordinate
    44.4797,                  !- Vertex 2 Xcoordinate
    12.895,                   !- Vertex 2 Ycoordinate
    0,                        !- Vertex 2 Zcoordinate
    35.9337,                  !- Vertex 3 Xcoordinate
    10.849,                   !- Vertex 3 Ycoordinate
    0,                        !- Vertex 3 Zcoordinate
    35.9337,                  !- Vertex 4 Xcoordinate
    10.849,                   !- Vertex 4 Ycoordinate
    7.8;                      !- Vertex 4 Zcoordinate

SHADING:SITE:DETAILED,
    Shading_V290_1,           !- Name
    ,                         !- Transmittance Schedule Name
    autocalculate,            !- Number of Vertices
    35.9337,                  !- Vertex 1 Xcoordinate
    10.849,                   !- Vertex 1 Ycoordinate
    7.8,                      !- Vertex 1 Zcoordinate
    35.9337,                  !- Vertex 2 Xcoordinate
    10.849,                   !- Vertex 2 Ycoordinate
    0,                        !- Vertex 2 Zcoordinate
    40.0037,                  !- Vertex 3 Xcoordinate
    -6.14,                    !- Vertex 3 Ycoordinate
    0,                        !- Vertex 3 Zcoordinate
    40.0037,                  !- Vertex 4 Xcoordinate
    -6.14,                    !- Vertex 4 Ycoordinate
    7.8;                      !- Vertex 4 Zcoordinate

SHADING:SITE:DETAILED,
    Shading_V307_1,           !- Name
    ,                         !- Transmittance Schedule Name
    autocalculate,            !- Number of Vertices
    120.0377,                 !- Vertex 1 Xcoordinate
    100.448,                  !- Vertex 1 Ycoordinate
    18.8,                     !- Vertex 1 Zcoordinate
    120.0377,                 !- Vertex 2 Xcoordinate
    100.448,                  !- Vertex 2 Ycoordinate
    0,                        !- Vertex 2 Zcoordinate
    112.3657,                 !- Vertex 3 Xcoordinate
    93.844,                   !- Vertex 3 Ycoordinate
    0,                        !- Vertex 3 Zcoordinate
    112.3657,                 !- Vertex 4 Xcoordinate
    93.844,                   !- Vertex 4 Ycoordinate
    18.8;                     !- Vertex 4 Zcoordinate

SHADING:SITE:DETAILED,
    Shading_V308_1,           !- Name
    ,                         !- Transmittance Schedule Name
    autocalculate,            !- Number of Vertices
    112.3657,                 !- Vertex 1 Xcoordinate
    93.844,                   !- Vertex 1 Ycoordinate
    18.8,                     !- Vertex 1 Zcoordinate
    112.3657,                 !- Vertex 2 Xcoordinate
    93.844,                   !- Vertex 2 Ycoordinate
    0,                        !- Vertex 2 Zcoordinate
    117.3747,                 !- Vertex 3 Xcoordinate
    88.076,                   !- Vertex 3 Ycoordinate
    0,                        !- Vertex 3 Zcoordinate
    117.3747,                 !- Vertex 4 Xcoordinate
    88.076,                   !- Vertex 4 Ycoordinate
    18.8;                     !- Vertex 4 Zcoordinate

SHADING:SITE:DETAILED,
    Shading_V309_1,           !- Name
    ,                         !- Transmittance Schedule Name
    autocalculate,            !- Number of Vertices
    117.3747,                 !- Vertex 1 Xcoordinate
    88.076,                   !- Vertex 1 Ycoordinate
    18.8,                     !- Vertex 1 Zcoordinate
    117.3747,                 !- Vertex 2 Xcoordinate
    88.076,                   !- Vertex 2 Ycoordinate
    0,                        !- Vertex 2 Zcoordinate
    110.1497,                 !- Vertex 3 Xcoordinate
    81.882,                   !- Vertex 3 Ycoordinate
    0,                        !- Vertex 3 Zcoordinate
    110.1497,                 !- Vertex 4 Xcoordinate
    81.882,                   !- Vertex 4 Ycoordinate
    18.8;                     !- Vertex 4 Zcoordinate

SHADING:SITE:DETAILED,
    Shading_V310_1,           !- Name
    ,                         !- Transmittance Schedule Name
    autocalculate,            !- Number of Vertices
    110.1497,                 !- Vertex 1 Xcoordinate
    81.882,                   !- Vertex 1 Ycoordinate
    18.8,                     !- Vertex 1 Zcoordinate
    110.1497,                 !- Vertex 2 Xcoordinate
    81.882,                   !- Vertex 2 Ycoordinate
    0,                        !- Vertex 2 Zcoordinate
    118.4647,                 !- Vertex 3 Xcoordinate
    72.212,                   !- Vertex 3 Ycoordinate
    0,                        !- Vertex 3 Zcoordinate
    118.4647,                 !- Vertex 4 Xcoordinate
    72.212,                   !- Vertex 4 Ycoordinate
    18.8;                     !- Vertex 4 Zcoordinate

SHADING:SITE:DETAILED,
    Shading_V312_1,           !- Name
    ,                         !- Transmittance Schedule Name
    autocalculate,            !- Number of Vertices
    125.5997,                 !- Vertex 1 Xcoordinate
    78.346,                   !- Vertex 1 Ycoordinate
    18.8,                     !- Vertex 1 Zcoordinate
    125.5997,                 !- Vertex 2 Xcoordinate
    78.346,                   !- Vertex 2 Ycoordinate
    0,                        !- Vertex 2 Zcoordinate
    131.3811,                 !- Vertex 3 Xcoordinate
    71.6795,                  !- Vertex 3 Ycoordinate
    0,                        !- Vertex 3 Zcoordinate
    131.3811,                 !- Vertex 4 Xcoordinate
    71.6795,                  !- Vertex 4 Ycoordinate
    18.8;                     !- Vertex 4 Zcoordinate

SHADING:SITE:DETAILED,
    Shading_V347_1,           !- Name
    ,                         !- Transmittance Schedule Name
    autocalculate,            !- Number of Vertices
    74.2658,                  !- Vertex 1 Xcoordinate
    129.1761,                 !- Vertex 1 Ycoordinate
    12.2,                     !- Vertex 1 Zcoordinate
    74.2658,                  !- Vertex 2 Xcoordinate
    129.1761,                 !- Vertex 2 Ycoordinate
    0,                        !- Vertex 2 Zcoordinate
    82.4767,                  !- Vertex 3 Xcoordinate
    128.558,                  !- Vertex 3 Ycoordinate
    0,                        !- Vertex 3 Zcoordinate
    82.4767,                  !- Vertex 4 Xcoordinate
    128.558,                  !- Vertex 4 Ycoordinate
    12.2;                     !- Vertex 4 Zcoordinate

SHADING:SITE:DETAILED,
    Shading_V455_1,           !- Name
    ,                         !- Transmittance Schedule Name
    autocalculate,            !- Number of Vertices
    125.5317,                 !- Vertex 1 Xcoordinate
    48.077,                   !- Vertex 1 Ycoordinate
    18.8,                     !- Vertex 1 Zcoordinate
    125.5317,                 !- Vertex 2 Xcoordinate
    48.077,                   !- Vertex 2 Ycoordinate
    0,                        !- Vertex 2 Zcoordinate
    124.5867,                 !- Vertex 3 Xcoordinate
    35.452,                   !- Vertex 3 Ycoordinate
    0,                        !- Vertex 3 Zcoordinate
    124.5867,                 !- Vertex 4 Xcoordinate
    35.452,                   !- Vertex 4 Ycoordinate
    18.8;                     !- Vertex 4 Zcoordinate

SHADING:SITE:DETAILED,
    Shading_V456_1,           !- Name
    ,                         !- Transmittance Schedule Name
    autocalculate,            !- Number of Vertices
    124.5867,                 !- Vertex 1 Xcoordinate
    35.452,                   !- Vertex 1 Ycoordinate
    18.8,                     !- Vertex 1 Zcoordinate
    124.5867,                 !- Vertex 2 Xcoordinate
    35.452,                   !- Vertex 2 Ycoordinate
    0,                        !- Vertex 2 Zcoordinate
    133.9787,                 !- Vertex 3 Xcoordinate
    34.738,                   !- Vertex 3 Ycoordinate
    0,                        !- Vertex 3 Zcoordinate
    133.9787,                 !- Vertex 4 Xcoordinate
    34.738,                   !- Vertex 4 Ycoordinate
    18.8;                     !- Vertex 4 Zcoordinate

SHADING:SITE:DETAILED,
    Shading_V502_1,           !- Name
    ,                         !- Transmittance Schedule Name
    autocalculate,            !- Number of Vertices
    60.7947,                  !- Vertex 1 Xcoordinate
    72.843,                   !- Vertex 1 Ycoordinate
    8.3,                      !- Vertex 1 Zcoordinate
    60.7947,                  !- Vertex 2 Xcoordinate
    72.843,                   !- Vertex 2 Ycoordinate
    0,                        !- Vertex 2 Zcoordinate
    68.2097,                  !- Vertex 3 Xcoordinate
    80.29,                    !- Vertex 3 Ycoordinate
    0,                        !- Vertex 3 Zcoordinate
    68.2097,                  !- Vertex 4 Xcoordinate
    80.29,                    !- Vertex 4 Ycoordinate
    8.3;                      !- Vertex 4 Zcoordinate

SHADING:SITE:DETAILED,
    Shading_V505_1,           !- Name
    ,                         !- Transmittance Schedule Name
    autocalculate,            !- Number of Vertices
    52.6737,                  !- Vertex 1 Xcoordinate
    81.017,                   !- Vertex 1 Ycoordinate
    8.3,                      !- Vertex 1 Zcoordinate
    52.6737,                  !- Vertex 2 Xcoordinate
    81.017,                   !- Vertex 2 Ycoordinate
    0,                        !- Vertex 2 Zcoordinate
    60.7947,                  !- Vertex 3 Xcoordinate
    72.843,                   !- Vertex 3 Ycoordinate
    0,                        !- Vertex 3 Zcoordinate
    60.7947,                  !- Vertex 4 Xcoordinate
    72.843,                   !- Vertex 4 Ycoordinate
    8.3;                      !- Vertex 4 Zcoordinate

SHADING:SITE:DETAILED,
    Shading_V5_1,             !- Name
    ,                         !- Transmittance Schedule Name
    autocalculate,            !- Number of Vertices
    51.5307,                  !- Vertex 1 Xcoordinate
    142.476,                  !- Vertex 1 Ycoordinate
    15.8,                     !- Vertex 1 Zcoordinate
    51.5307,                  !- Vertex 2 Xcoordinate
    142.476,                  !- Vertex 2 Ycoordinate
    0,                        !- Vertex 2 Zcoordinate
    58.3227,                  !- Vertex 3 Xcoordinate
    148.289,                  !- Vertex 3 Ycoordinate
    0,                        !- Vertex 3 Zcoordinate
    58.3227,                  !- Vertex 4 Xcoordinate
    148.289,                  !- Vertex 4 Ycoordinate
    15.8;                     !- Vertex 4 Zcoordinate

SHADING:SITE:DETAILED,
    Shading_V129_1,           !- Name
    ,                         !- Transmittance Schedule Name
    autocalculate,            !- Number of Vertices
    152.5987,                 !- Vertex 1 Xcoordinate
    125.452,                  !- Vertex 1 Ycoordinate
    15.5,                     !- Vertex 1 Zcoordinate
    152.5987,                 !- Vertex 2 Xcoordinate
    125.452,                  !- Vertex 2 Ycoordinate
    0,                        !- Vertex 2 Zcoordinate
    147.4967,                 !- Vertex 3 Xcoordinate
    121.013,                  !- Vertex 3 Ycoordinate
    0,                        !- Vertex 3 Zcoordinate
    147.4967,                 !- Vertex 4 Xcoordinate
    121.013,                  !- Vertex 4 Ycoordinate
    15.5;                     !- Vertex 4 Zcoordinate

SHADING:SITE:DETAILED,
    Shading_V348_1,           !- Name
    ,                         !- Transmittance Schedule Name
    autocalculate,            !- Number of Vertices
    82.4767,                  !- Vertex 1 Xcoordinate
    128.558,                  !- Vertex 1 Ycoordinate
    12.2,                     !- Vertex 1 Zcoordinate
    82.4767,                  !- Vertex 2 Xcoordinate
    128.558,                  !- Vertex 2 Ycoordinate
    0,                        !- Vertex 2 Zcoordinate
    88.0901,                  !- Vertex 3 Xcoordinate
    122.0246,                 !- Vertex 3 Ycoordinate
    0,                        !- Vertex 3 Zcoordinate
    88.0901,                  !- Vertex 4 Xcoordinate
    122.0246,                 !- Vertex 4 Ycoordinate
    12.2;                     !- Vertex 4 Zcoordinate

SHADING:SITE:DETAILED,
    Shading_V379_1,           !- Name
    ,                         !- Transmittance Schedule Name
    autocalculate,            !- Number of Vertices
    -49.7143,                 !- Vertex 1 Xcoordinate
    99.504,                   !- Vertex 1 Ycoordinate
    8.6,                      !- Vertex 1 Zcoordinate
    -49.7143,                 !- Vertex 2 Xcoordinate
    99.504,                   !- Vertex 2 Ycoordinate
    0,                        !- Vertex 2 Zcoordinate
    -35.8003,                 !- Vertex 3 Xcoordinate
    81.235,                   !- Vertex 3 Ycoordinate
    0,                        !- Vertex 3 Zcoordinate
    -35.8003,                 !- Vertex 4 Xcoordinate
    81.235,                   !- Vertex 4 Ycoordinate
    8.6;                      !- Vertex 4 Zcoordinate

SHADING:SITE:DETAILED,
    Shading_V453_1,           !- Name
    ,                         !- Transmittance Schedule Name
    autocalculate,            !- Number of Vertices
    135.5479,                 !- Vertex 1 Xcoordinate
    55.2209,                  !- Vertex 1 Ycoordinate
    18.8,                     !- Vertex 1 Zcoordinate
    135.5479,                 !- Vertex 2 Xcoordinate
    55.2209,                  !- Vertex 2 Ycoordinate
    0,                        !- Vertex 2 Zcoordinate
    134.9497,                 !- Vertex 3 Xcoordinate
    47.376,                   !- Vertex 3 Ycoordinate
    0,                        !- Vertex 3 Zcoordinate
    134.9497,                 !- Vertex 4 Xcoordinate
    47.376,                   !- Vertex 4 Ycoordinate
    18.8;                     !- Vertex 4 Zcoordinate

SHADING:SITE:DETAILED,
    Shading_V514_1,           !- Name
    ,                         !- Transmittance Schedule Name
    autocalculate,            !- Number of Vertices
    17.5647,                  !- Vertex 1 Xcoordinate
    189.502,                  !- Vertex 1 Ycoordinate
    19,                       !- Vertex 1 Zcoordinate
    17.5647,                  !- Vertex 2 Xcoordinate
    189.502,                  !- Vertex 2 Ycoordinate
    0,                        !- Vertex 2 Zcoordinate
    25.8727,                  !- Vertex 3 Xcoordinate
    179.894,                  !- Vertex 3 Ycoordinate
    0,                        !- Vertex 3 Zcoordinate
    25.8727,                  !- Vertex 4 Xcoordinate
    179.894,                  !- Vertex 4 Ycoordinate
    19;                       !- Vertex 4 Zcoordinate

ELECTRICEQUIPMENT,
    Block Build0_Alt0 Storey 0Load,    !- Name
    Block Build0_Alt0 Storey 0,    !- Zone or ZoneList Name
    LoadSchedule,             !- Schedule Name
    Watts/Area,               !- Design Level Calculation Method
    ,                         !- Design Level
    0.02,                     !- Watts per Zone Floor Area
    ,                         !- Watts per Person
    0,                        !- Fraction Latent
    0,                        !- Fraction Radiant
    0,                        !- Fraction Lost
    General;                  !- EndUse Subcategory

ZONEINFILTRATION:FLOWCOEFFICIENT,
    Block Build0_Alt0 Storey 0Leak,    !- Name
    Block Build0_Alt0 Storey 0,    !- Zone Name
    AlwaysON,                 !- Schedule Name
    5.669002e-02,             !- Flow Coefficient
    0.078,                    !- Stack Coefficient
    0.667,                    !- Pressure Exponent
    0.17,                     !- Wind Coefficient
    0.5;                      !- Shelter Factor

ZONEVENTILATION:DESIGNFLOWRATE,
    Block Build0_Alt0 Storey 0FreeCool,    !- Name
    Block Build0_Alt0 Storey 0,    !- Zone or ZoneList Name
    AlwaysON,                 !- Schedule Name
    AirChanges/Hour,          !- Design Flow Rate Calculation Method
    ,                         !- Design Flow Rate
    ,                         !- Flow Rate per Zone Floor Area
    ,                         !- Flow Rate per Person
    4,                        !- Air Changes per Hour
    Natural,                  !- Ventilation Type
    0,                        !- Fan Pressure Rise
    1,                        !- Fan Total Efficiency
    1,                        !- Constant Term Coefficient
    0,                        !- Temperature Term Coefficient
    0,                        !- Velocity Term Coefficient
    0,                        !- Velocity Squared Term Coefficient
    26,                       !- Minimum Indoor Temperature
    ,                         !- Minimum Indoor Temperature Schedule Name
    100,                      !- Maximum Indoor Temperature
    ,                         !- Maximum Indoor Temperature Schedule Name
    1,                        !- Delta Temperature
    ,                         !- Delta Temperature Schedule Name
    -100,                     !- Minimum Outdoor Temperature
    ,                         !- Minimum Outdoor Temperature Schedule Name
    100,                      !- Maximum Outdoor Temperature
    ,                         !- Maximum Outdoor Temperature Schedule Name
    40;                       !- Maximum Wind Speed

HVACTEMPLATE:THERMOSTAT,
    ResidZone,                !- Name
    ,                         !- Heating Setpoint Schedule Name
    21,                       !- Constant Heating Setpoint
    ,                         !- Cooling Setpoint Schedule Name
    50;                       !- Constant Cooling Setpoint

HVACTEMPLATE:ZONE:IDEALLOADSAIRSYSTEM,
    Block Build0_Alt0 Storey 0,    !- Zone Name
    ResidZone,                !- Template Thermostat Name
    ,                         !- System Availability Schedule Name
    50,                       !- Maximum Heating Supply Air Temperature
    13,                       !- Minimum Cooling Supply Air Temperature
    0.0156,                   !- Maximum Heating Supply Air Humidity Ratio
    0.0077,                   !- Minimum Cooling Supply Air Humidity Ratio
    NoLimit,                  !- Heating Limit
    ,                         !- Maximum Heating Air Flow Rate
    14945.220750000002,       !- Maximum Sensible Heating Capacity
    NoLimit,                  !- Cooling Limit
    ,                         !- Maximum Cooling Air Flow Rate
    ,                         !- Maximum Total Cooling Capacity
    ,                         !- Heating Availability Schedule Name
    ,                         !- Cooling Availability Schedule Name
    ConstantSensibleHeatRatio,    !- Dehumidification Control Type
    0.7,                      !- Cooling Sensible Heat Ratio
    60,                       !- Dehumidification Setpoint
    None,                     !- Humidification Control Type
    30,                       !- Humidification Setpoint
    Flow/Area,                !- Outdoor Air Method
    0.007,                    !- Outdoor Air Flow Rate per Person
    0.0007,                   !- Outdoor Air Flow Rate per Zone Floor Area
    0,                        !- Outdoor Air Flow Rate per Zone
    ,                         !- Design Specification Outdoor Air Object Name
    None,                     !- Demand Controlled Ventilation Type
    NoEconomizer,             !- Outdoor Air Economizer Type
    None,                     !- Heat Recovery Type
    0,                        !- Sensible Heat Recovery Effectiveness
    0;                        !- Latent Heat Recovery Effectiveness

OUTDOORAIR:NODE,
    Block Build0_Alt0 Storey 0 IDEAL LOADS OUTDOOR AIR INLET,    !- Name
    -1,                       !- Height Above Ground
    ,                         !- Drybulb Temperature Schedule Name
    ,                         !- Wetbulb Temperature Schedule Name
    ,                         !- Wind Speed Schedule Name
    ,                         !- Wind Direction Schedule Name
    ,                         !- Wind Pressure Coefficient Curve Name
    No,                       !- Symmetric Wind Pressure Coefficient Curve
    Absolute;                 !- Wind Angle Type

ENERGYMANAGEMENTSYSTEM:SENSOR,
    T0,                       !- Name
    Block Build0_Alt0 Storey 0,    !- OutputVariable or OutputMeter Index Key Name
    Zone Mean Air Temperature;    !- OutputVariable or OutputMeter Name

ENERGYMANAGEMENTSYSTEM:SENSOR,
    Pow0,                     !- Name
    Block Build0_Alt0 Storey 0 IDEAL LOADS AIR SYSTEM,    !- OutputVariable or OutputMeter Index Key Name
    Zone Ideal Loads Supply Air Total Heating Rate;    !- OutputVariable or OutputMeter Name

ENERGYMANAGEMENTSYSTEM:SENSOR,
    DHWPow,                   !- Name
    DHW,                      !- OutputVariable or OutputMeter Index Key Name
    Water Use Equipment Heating Rate;    !- OutputVariable or OutputMeter Name

ENERGYMANAGEMENTSYSTEM:PROGRAMCALLINGMANAGER,
    Average Building Temperature,    !- Name
    EndOfZoneTimestepBeforeZoneReporting,    !- EnergyPlus Model Calling Point
    AverageZoneTemps;         !- Program Name 1

ENERGYMANAGEMENTSYSTEM:PROGRAMCALLINGMANAGER,
    Compute Total Building Heat Pow,    !- Name
    EndOfZoneTimestepBeforeZoneReporting,    !- EnergyPlus Model Calling Point
    TotZonePow;               !- Program Name 1

ENERGYMANAGEMENTSYSTEM:PROGRAMCALLINGMANAGER,
    Compute Total DHW Heat Pow,    !- Name
    EndOfZoneTimestepBeforeZoneReporting,    !- EnergyPlus Model Calling Point
    prgmDHWPow;               !- Program Name 1

ENERGYMANAGEMENTSYSTEM:PROGRAM,
    AverageZoneTemps,         !- Name
    SET SumNumerator = T0*Vol0,    !- Program Line 1
    SET SumDenominator  = Vol0,    !- Program Line 2
    SET AverageBuildingTemp  = SumNumerator / SumDenominator;    !- Program Line 3

ENERGYMANAGEMENTSYSTEM:PROGRAM,
    TotZonePow,               !- Name
    SET TotBuildPow = Pow0;    !- Program Line 1

ENERGYMANAGEMENTSYSTEM:PROGRAM,
    prgmDHWPow,               !- Name
    SET TotDHWPow = DHWPow;    !- Program Line 1

ENERGYMANAGEMENTSYSTEM:GLOBALVARIABLE,
    AverageBuildingTemp;      !- Erl Variable 1 Name

ENERGYMANAGEMENTSYSTEM:GLOBALVARIABLE,
    TotBuildPow;              !- Erl Variable 1 Name

ENERGYMANAGEMENTSYSTEM:GLOBALVARIABLE,
    TotDHWPow;                !- Erl Variable 1 Name

ENERGYMANAGEMENTSYSTEM:OUTPUTVARIABLE,
    Mean Heated Zones Air Temperature,    !- Name
    AverageBuildingTemp,      !- EMS Variable Name
    Averaged,                 !- Type of Data in Variable
    ZoneTimeStep;             !- Update Frequency

ENERGYMANAGEMENTSYSTEM:OUTPUTVARIABLE,
    Total Building Heating Power,    !- Name
    TotBuildPow,              !- EMS Variable Name
    Averaged,                 !- Type of Data in Variable
    ZoneTimeStep;             !- Update Frequency

ENERGYMANAGEMENTSYSTEM:OUTPUTVARIABLE,
    Total DHW Heating Power,    !- Name
    TotDHWPow,                !- EMS Variable Name
    Averaged,                 !- Type of Data in Variable
    ZoneTimeStep;             !- Update Frequency

ENERGYMANAGEMENTSYSTEM:INTERNALVARIABLE,
    Vol0,                     !- Name
    Block Build0_Alt0 Storey 0,    !- Internal Data Index Key Name
    Zone Air Volume;          !- Internal Data Type

WATERUSE:EQUIPMENT,
    DHW,                      !- Name
    General,                  !- EndUse Subcategory
    2.447449e-09,             !- Peak Flow Rate
    WaterTaps,                !- Flow Rate Fraction Schedule Name
    TargetWaterTemp,          !- Target Temperature Schedule Name
    HotWaterTemp,             !- Hot Water Supply Temperature Schedule Name
    ColdWaterTemp;            !- Cold Water Supply Temperature Schedule Name

Output:VariableDictionary,
    Regular;                  !- Key Field

OUTPUT:ENERGYMANAGEMENTSYSTEM,
    Verbose,                  !- Actuator Availability Dictionary Reporting
    Verbose,                  !- Internal Variable Availability Dictionary Reporting
    Verbose;                  !- EMS Runtime Language Debug Output Level

Output:Table:SummaryReports,
    AllSummary;               !- Report 1 Name

OutputControl:Table:Style,
    HTML;                     !- Column Separator

OUTPUT:VARIABLE,
    *,                        !- Key Value
    Site Outdoor Air Drybulb Temperature,    !- Variable Name
    Hourly;                   !- Reporting Frequency

OUTPUT:VARIABLE,
    *,                        !- Key Value
    Site Outdoor Air Relative Humidity,    !- Variable Name
    Hourly;                   !- Reporting Frequency

OUTPUT:VARIABLE,
    *,                        !- Key Value
    Site Outdoor Air Barometric Pressure,    !- Variable Name
    Hourly;                   !- Reporting Frequency

OUTPUT:VARIABLE,
    *,                        !- Key Value
    Site Wind Speed,          !- Variable Name
    Hourly;                   !- Reporting Frequency

OUTPUT:VARIABLE,
    *,                        !- Key Value
    Site Diffuse Solar Radiation Rate per Area,    !- Variable Name
    Hourly;                   !- Reporting Frequency

OUTPUT:VARIABLE,
    *,                        !- Key Value
    Site Direct Solar Radiation Rate per Area,    !- Variable Name
    Hourly;                   !- Reporting Frequency

OUTPUT:VARIABLE,
    *,                        !- Key Value
    Zone Electric Equipment Electric Power,    !- Variable Name
    Hourly;                   !- Reporting Frequency

OUTPUT:VARIABLE,
    *,                        !- Key Value
    Zone Electric Equipment Total Heating Rate,    !- Variable Name
    Hourly;                   !- Reporting Frequency

OUTPUT:VARIABLE,
    *,                        !- Key Value
    Surface Outside Face Incident Solar Radiation Rate per Area,    !- Variable Name
    Hourly;                   !- Reporting Frequency

OUTPUT:VARIABLE,
    *,                        !- Key Value
    Surface Outside Face Incident Beam Solar Radiation Rate per Area,    !- Variable Name
    Hourly;                   !- Reporting Frequency

OUTPUT:VARIABLE,
    *,                        !- Key Value
    Zone Ideal Loads Supply Air Total Heating Rate,    !- Variable Name
    Hourly;                   !- Reporting Frequency

OUTPUT:VARIABLE,
    *,                        !- Key Value
    Water Use Equipment Hot Water Mass Flow Rate,    !- Variable Name
    Hourly;                   !- Reporting Frequency

OUTPUT:VARIABLE,
    *,                        !- Key Value
    Water Use Equipment Cold Water Mass Flow Rate,    !- Variable Name
    Hourly;                   !- Reporting Frequency

OUTPUT:VARIABLE,
    *,                        !- Key Value
    Water Use Equipment Hot Water Temperature,    !- Variable Name
    Hourly;                   !- Reporting Frequency

OUTPUT:VARIABLE,
    *,                        !- Key Value
    Water Use Equipment Cold Water Temperature,    !- Variable Name
    Hourly;                   !- Reporting Frequency

OUTPUT:VARIABLE,
    *,                        !- Key Value
    Water Use Equipment Heating Rate,    !- Variable Name
    Hourly;                   !- Reporting Frequency

OUTPUT:VARIABLE,
    *,                        !- Key Value
    Mean Heated Zones Air Temperature,    !- Variable Name
    Hourly;                   !- Reporting Frequency

OUTPUT:VARIABLE,
    *,                        !- Key Value
    Total Building Heating Power,    !- Variable Name
    Hourly;                   !- Reporting Frequency

OUTPUT:VARIABLE,
    *,                        !- Key Value
    Total DHW Heating Power,    !- Variable Name
    Hourly;                   !- Reporting Frequency

OUTPUT:DIAGNOSTICS,
    DISPLAYEXTRAWARNINGS,     !- Key 1
    DisplayAdvancedReportVariables;    !- Key 2