!- Darwin Line endings 

Version,
    9.5;                      !- Version Identifier

SimulationControl,
    No,                       !- Do Zone Sizing Calculation
    No,                       !- Do System Sizing Calculation
    No,                       !- Do Plant Sizing Calculation
    No,                       !- Run Simulation for Sizing Periods
    Yes,                      !- Run Simulation for Weather File Run Periods
    No,                       !- Do HVAC Sizing Simulation for Sizing Periods
    1;                        !- Maximum Number of HVAC Sizing Simulation Passes

Building,
    None,                     !- Name
    0,                        !- North Axis
    Suburbs,                  !- Terrain
    0.04,                     !- Loads Convergence Tolerance Value
    0.4,                      !- Temperature Convergence Tolerance Value
    FullExterior,             !- Solar Distribution
    25,                       !- Maximum Number of Warmup Days
    6;                        !- Minimum Number of Warmup Days

SHADOWCALCULATION,
    PolygonClipping,          !- Shading Calculation Method
    Periodic,                 !- Shading Calculation Update Frequency Method
    20,                       !- Shading Calculation Update Frequency
    25000,                    !- Maximum Figures in Shadow Overlap Calculations
    SutherlandHodgman,        !- Polygon Clipping Algorithm
    512,                      !- Pixel Counting Resolution
    SimpleSkyDiffuseModeling,    !- Sky Diffuse Modeling Algorithm
    No,                       !- Output External Shading Calculation Results
    No,                       !- Disable SelfShading Within Shading Zone Groups
    No;                       !- Disable SelfShading From Shading Zone Groups to Other Zones

Timestep,
    4;                        !- Number of Timesteps per Hour

Site:Location,
    WeatherData/USA_CA_San.Francisco.Intl.AP.724940_TMY3.epw,    !- Name
    37.62,                    !- Latitude
    -122.4,                   !- Longitude
    -8,                       !- Time Zone
    2;                        !- Elevation

SizingPeriod:DesignDay,
    DENVER_STAPLETON Ann Htg 99.6% Condns DB,    !- Name
    12,                       !- Month
    21,                       !- Day of Month
    WinterDesignDay,          !- Day Type
    -20,                      !- Maximum DryBulb Temperature
    0,                        !- Daily DryBulb Temperature Range
    ,                         !- DryBulb Temperature Range Modifier Type
    ,                         !- DryBulb Temperature Range Modifier Day Schedule Name
    Wetbulb,                  !- Humidity Condition Type
    -20,                      !- Wetbulb or DewPoint at Maximum DryBulb
    ,                         !- Humidity Condition Day Schedule Name
    ,                         !- Humidity Ratio at Maximum DryBulb
    ,                         !- Enthalpy at Maximum DryBulb
    ,                         !- Daily WetBulb Temperature Range
    100594,                   !- Barometric Pressure
    2.3,                      !- Wind Speed
    180,                      !- Wind Direction
    No,                       !- Rain Indicator
    No,                       !- Snow Indicator
    No,                       !- Daylight Saving Time Indicator
    ASHRAEClearSky,           !- Solar Model Indicator
    ,                         !- Beam Solar Day Schedule Name
    ,                         !- Diffuse Solar Day Schedule Name
    ,                         !- ASHRAE Clear Sky Optical Depth for Beam Irradiance taub
    ,                         !- ASHRAE Clear Sky Optical Depth for Diffuse Irradiance taud
    0;                        !- Sky Clearness

SizingPeriod:DesignDay,
    DENVER_STAPLETON Ann Clg .4% Condns DB=>MWB,    !- Name
    7,                        !- Month
    21,                       !- Day of Month
    SummerDesignDay,          !- Day Type
    34.1,                     !- Maximum DryBulb Temperature
    15.2,                     !- Daily DryBulb Temperature Range
    ,                         !- DryBulb Temperature Range Modifier Type
    ,                         !- DryBulb Temperature Range Modifier Day Schedule Name
    Wetbulb,                  !- Humidity Condition Type
    15.8,                     !- Wetbulb or DewPoint at Maximum DryBulb
    ,                         !- Humidity Condition Day Schedule Name
    ,                         !- Humidity Ratio at Maximum DryBulb
    ,                         !- Enthalpy at Maximum DryBulb
    ,                         !- Daily WetBulb Temperature Range
    100594,                   !- Barometric Pressure
    4,                        !- Wind Speed
    120,                      !- Wind Direction
    No,                       !- Rain Indicator
    No,                       !- Snow Indicator
    No,                       !- Daylight Saving Time Indicator
    ASHRAEClearSky,           !- Solar Model Indicator
    ,                         !- Beam Solar Day Schedule Name
    ,                         !- Diffuse Solar Day Schedule Name
    ,                         !- ASHRAE Clear Sky Optical Depth for Beam Irradiance taub
    ,                         !- ASHRAE Clear Sky Optical Depth for Diffuse Irradiance taud
    1;                        !- Sky Clearness

RunPeriod,
    Run Period 1,             !- Name
    1,                        !- Begin Month
    1,                        !- Begin Day of Month
    ,                         !- Begin Year
    12,                       !- End Month
    31,                       !- End Day of Month
    ,                         !- End Year
    Tuesday,                  !- Day of Week for Start Day
    Yes,                      !- Use Weather File Holidays and Special Days
    Yes,                      !- Use Weather File Daylight Saving Period
    No,                       !- Apply Weekend Holiday Rule
    Yes,                      !- Use Weather File Rain Indicators
    Yes;                      !- Use Weather File Snow Indicators

SITE:GROUNDTEMPERATURE:BUILDINGSURFACE,
    15,                       !- January Ground Temperature
    15,                       !- February Ground Temperature
    15,                       !- March Ground Temperature
    15,                       !- April Ground Temperature
    15,                       !- May Ground Temperature
    15,                       !- June Ground Temperature
    15,                       !- July Ground Temperature
    15,                       !- August Ground Temperature
    15,                       !- September Ground Temperature
    15,                       !- October Ground Temperature
    15,                       !- November Ground Temperature
    15;                       !- December Ground Temperature

SCHEDULETYPELIMITS,
    Any Number,               !- Name
    ,                         !- Lower Limit Value
    ,                         !- Upper Limit Value
    ,                         !- Numeric Type
    Dimensionless;            !- Unit Type

SCHEDULE:COMPACT,
    AlwaysON,                 !- Name
    Any Number,               !- Schedule Type Limits Name
    Through: 12/31,           !- Field 1
    For: AllDays,             !- Field 2
    Until: 24:00,             !- Field 3
    1;                        !- Field 4

SCHEDULE:COMPACT,
    OccupActivity,            !- Name
    Any Number,               !- Schedule Type Limits Name
    Through: 12/31,           !- Field 1
    For: AllDays,             !- Field 2
    Until: 24:00,             !- Field 3
    70;                       !- Field 4

SCHEDULE:COMPACT,
    HotWaterTemp,             !- Name
    Any Number,               !- Schedule Type Limits Name
    Through: 12/31,           !- Field 1
    For: AllDays,             !- Field 2
    Until: 24:00,             !- Field 3
    55;                       !- Field 4

SCHEDULE:COMPACT,
    TargetWaterTemp,          !- Name
    Any Number,               !- Schedule Type Limits Name
    Through: 12/31,           !- Field 1
    For: AllDays,             !- Field 2
    Until: 24:00,             !- Field 3
    37;                       !- Field 4

SCHEDULE:FILE,
    LoadSchedule,             !- Name
    Any Number,               !- Schedule Type Limits Name
    /Users/alizad/PycharmProjects/mubes-ubem/examples/ForTest/InputFiles/Building30_winter.txt,    !- File Name
    1,                        !- Column Number
    0,                        !- Rows to Skip at Top
    8760,                     !- Number of Hours of Data
    Comma,                    !- Column Separator
    No;                       !- Interpolate to Timestep

SCHEDULE:FILE,
    Watertaps,                !- Name
    Any Number,               !- Schedule Type Limits Name
    /Users/alizad/PycharmProjects/mubes-ubem/examples/ForTest/InputFiles/domestic_hot_water_40_apartments.txt,    !- File Name
    1,                        !- Column Number
    0,                        !- Rows to Skip at Top
    8760,                     !- Number of Hours of Data
    Comma,                    !- Column Separator
    No;                       !- Interpolate to Timestep

SCHEDULE:FILE,
    ColdWaterTemp,            !- Name
    Any Number,               !- Schedule Type Limits Name
    /Users/alizad/PycharmProjects/mubes-ubem/examples/ForTest/InputFiles/cold_water_temperature_stockholm.txt,    !- File Name
    1,                        !- Column Number
    0,                        !- Rows to Skip at Top
    8760,                     !- Number of Hours of Data
    Comma,                    !- Column Separator
    No;                       !- Interpolate to Timestep

MATERIAL,
    DefaultMaterial,          !- Name
    Rough,                    !- Roughness
    0.1,                      !- Thickness
    0.1,                      !- Conductivity
    1000,                     !- Density
    1000,                     !- Specific Heat
    0.9,                      !- Thermal Absorptance
    0.7,                      !- Solar Absorptance
    0.7;                      !- Visible Absorptance

MATERIAL,
    Basement Floor,           !- Name
    Rough,                    !- Roughness
    0.1,                      !- Thickness
    0.9,                      !- Conductivity
    2300,                     !- Density
    1000,                     !- Specific Heat
    0.9,                      !- Thermal Absorptance
    0.7,                      !- Solar Absorptance
    0.7;                      !- Visible Absorptance

MATERIAL,
    Heated1rstFloor Inertia,    !- Name
    Rough,                    !- Roughness
    0.1,                      !- Thickness
    0.9,                      !- Conductivity
    2300,                     !- Density
    1000,                     !- Specific Heat
    0.9,                      !- Thermal Absorptance
    0.7,                      !- Solar Absorptance
    0.7;                      !- Visible Absorptance

MATERIAL,
    Heated1rstFloor Insulation,    !- Name
    Rough,                    !- Roughness
    0.15,                     !- Thickness
    0.035,                    !- Conductivity
    150,                      !- Density
    1000,                     !- Specific Heat
    0.9,                      !- Thermal Absorptance
    0.7,                      !- Solar Absorptance
    0.7;                      !- Visible Absorptance

MATERIAL,
    Roof Insulation,          !- Name
    Rough,                    !- Roughness
    0.3,                      !- Thickness
    0.03,                     !- Conductivity
    150,                      !- Density
    1000,                     !- Specific Heat
    0.9,                      !- Thermal Absorptance
    0.7,                      !- Solar Absorptance
    0.7;                      !- Visible Absorptance

MATERIAL,
    Wall Inertia,             !- Name
    Rough,                    !- Roughness
    0.2,                      !- Thickness
    0.9,                      !- Conductivity
    2300,                     !- Density
    1000,                     !- Specific Heat
    0.9,                      !- Thermal Absorptance
    0.7,                      !- Solar Absorptance
    0.7;                      !- Visible Absorptance

MATERIAL,
    Wall Insulation,          !- Name
    Rough,                    !- Roughness
    0.2,                      !- Thickness
    0.03,                     !- Conductivity
    150,                      !- Density
    1000,                     !- Specific Heat
    0.9,                      !- Thermal Absorptance
    0.7,                      !- Solar Absorptance
    0.7;                      !- Visible Absorptance

MATERIAL,
    HeatedZoneIntMass,        !- Name
    Rough,                    !- Roughness
    0.1,                      !- Thickness
    0.3,                      !- Conductivity
    600,                      !- Density
    1400,                     !- Specific Heat
    0.9,                      !- Thermal Absorptance
    0.7,                      !- Solar Absorptance
    0.7;                      !- Visible Absorptance

MATERIAL,
    AirWallMaterial,          !- Name
    MediumSmooth,             !- Roughness
    0.01,                     !- Thickness
    0.6,                      !- Conductivity
    800,                      !- Density
    1000,                     !- Specific Heat
    0.95,                     !- Thermal Absorptance
    0.7,                      !- Solar Absorptance
    0.7;                      !- Visible Absorptance

WINDOWMATERIAL:SIMPLEGLAZINGSYSTEM,
    DefaultGlazing,           !- Name
    2.7,                      !- UFactor
    0.763,                    !- Solar Heat Gain Coefficient
    0.8;                      !- Visible Transmittance

WINDOWMATERIAL:SIMPLEGLAZINGSYSTEM,
    Window,                   !- Name
    1.9,                      !- UFactor
    0.7,                      !- Solar Heat Gain Coefficient
    0.8;                      !- Visible Transmittance

CONSTRUCTION,
    Project Wall,             !- Name
    Wall Inertia,             !- Outside Layer
    Wall Insulation;          !- Layer 2

CONSTRUCTION,
    Project Flat Roof,        !- Name
    Roof Insulation;          !- Outside Layer

CONSTRUCTION,
    Project External Window,    !- Name
    Window;                   !- Outside Layer

CONSTRUCTION,
    Project Heated1rstFloor,    !- Name
    Heated1rstFloor Inertia,    !- Outside Layer
    Heated1rstFloor Insulation;    !- Layer 2

CONSTRUCTION,
    HeatedZoneIntMassObj,     !- Name
    HeatedZoneIntMass;        !- Outside Layer

GlobalGeometryRules,
    UpperLeftCorner,          !- Starting Vertex Position
    CounterClockWise,         !- Vertex Entry Direction
    World;                    !- Coordinate System

ZONE,
    Block Build0_Alt0 Storey 0,    !- Name
    0,                        !- Direction of Relative North
    0,                        !- X Origin
    0,                        !- Y Origin
    0,                        !- Z Origin
    1,                        !- Type
    1,                        !- Multiplier
    autocalculate,            !- Ceiling Height
    autocalculate,            !- Volume
    autocalculate,            !- Floor Area
    ,                         !- Zone Inside Convection Algorithm
    ,                         !- Zone Outside Convection Algorithm
    Yes;                      !- Part of Total Floor Area

BUILDINGSURFACE:DETAILED,
    Block Build0_Alt0 Storey 0 Wall 0001,    !- Name
    wall,                     !- Surface Type
    Project Wall,             !- Construction Name
    Block Build0_Alt0 Storey 0,    !- Zone Name
    outdoors,                 !- Outside Boundary Condition
    ,                         !- Outside Boundary Condition Object
    SunExposed,               !- Sun Exposure
    WindExposed,              !- Wind Exposure
    autocalculate,            !- View Factor to Ground
    autocalculate,            !- Number of Vertices
    3.0959,                   !- Vertex 1 Xcoordinate
    16.6946,                  !- Vertex 1 Ycoordinate
    6,                        !- Vertex 1 Zcoordinate
    3.0959,                   !- Vertex 2 Xcoordinate
    16.6946,                  !- Vertex 2 Ycoordinate
    0,                        !- Vertex 2 Zcoordinate
    -6.5221,                  !- Vertex 3 Xcoordinate
    13.0136,                  !- Vertex 3 Ycoordinate
    0,                        !- Vertex 3 Zcoordinate
    -6.5221,                  !- Vertex 4 Xcoordinate
    13.0136,                  !- Vertex 4 Ycoordinate
    6;                        !- Vertex 4 Zcoordinate

BUILDINGSURFACE:DETAILED,
    Block Build0_Alt0 Storey 0 Wall 0002,    !- Name
    wall,                     !- Surface Type
    Project Wall,             !- Construction Name
    Block Build0_Alt0 Storey 0,    !- Zone Name
    outdoors,                 !- Outside Boundary Condition
    ,                         !- Outside Boundary Condition Object
    SunExposed,               !- Sun Exposure
    WindExposed,              !- Wind Exposure
    autocalculate,            !- View Factor to Ground
    autocalculate,            !- Number of Vertices
    -6.5221,                  !- Vertex 1 Xcoordinate
    13.0136,                  !- Vertex 1 Ycoordinate
    6,                        !- Vertex 1 Zcoordinate
    -6.5221,                  !- Vertex 2 Xcoordinate
    13.0136,                  !- Vertex 2 Ycoordinate
    0,                        !- Vertex 2 Zcoordinate
    2.6309,                   !- Vertex 3 Xcoordinate
    -10.9324,                 !- Vertex 3 Ycoordinate
    0,                        !- Vertex 3 Zcoordinate
    2.6309,                   !- Vertex 4 Xcoordinate
    -10.9324,                 !- Vertex 4 Ycoordinate
    6;                        !- Vertex 4 Zcoordinate

BUILDINGSURFACE:DETAILED,
    Block Build0_Alt0 Storey 0 Wall 0003,    !- Name
    wall,                     !- Surface Type
    Project Wall,             !- Construction Name
    Block Build0_Alt0 Storey 0,    !- Zone Name
    outdoors,                 !- Outside Boundary Condition
    ,                         !- Outside Boundary Condition Object
    SunExposed,               !- Sun Exposure
    WindExposed,              !- Wind Exposure
    autocalculate,            !- View Factor to Ground
    autocalculate,            !- Number of Vertices
    2.6309,                   !- Vertex 1 Xcoordinate
    -10.9324,                 !- Vertex 1 Ycoordinate
    6,                        !- Vertex 1 Zcoordinate
    2.6309,                   !- Vertex 2 Xcoordinate
    -10.9324,                 !- Vertex 2 Ycoordinate
    0,                        !- Vertex 2 Zcoordinate
    12.2839,                  !- Vertex 3 Xcoordinate
    -7.2514,                  !- Vertex 3 Ycoordinate
    0,                        !- Vertex 3 Zcoordinate
    12.2839,                  !- Vertex 4 Xcoordinate
    -7.2514,                  !- Vertex 4 Ycoordinate
    6;                        !- Vertex 4 Zcoordinate

BUILDINGSURFACE:DETAILED,
    Block Build0_Alt0 Storey 0 Wall 0004,    !- Name
    wall,                     !- Surface Type
    Project Wall,             !- Construction Name
    Block Build0_Alt0 Storey 0,    !- Zone Name
    outdoors,                 !- Outside Boundary Condition
    ,                         !- Outside Boundary Condition Object
    SunExposed,               !- Sun Exposure
    WindExposed,              !- Wind Exposure
    autocalculate,            !- View Factor to Ground
    autocalculate,            !- Number of Vertices
    12.2839,                  !- Vertex 1 Xcoordinate
    -7.2514,                  !- Vertex 1 Ycoordinate
    6,                        !- Vertex 1 Zcoordinate
    12.2839,                  !- Vertex 2 Xcoordinate
    -7.2514,                  !- Vertex 2 Ycoordinate
    0,                        !- Vertex 2 Zcoordinate
    3.0959,                   !- Vertex 3 Xcoordinate
    16.6946,                  !- Vertex 3 Ycoordinate
    0,                        !- Vertex 3 Zcoordinate
    3.0959,                   !- Vertex 4 Xcoordinate
    16.6946,                  !- Vertex 4 Ycoordinate
    6;                        !- Vertex 4 Zcoordinate

BUILDINGSURFACE:DETAILED,
    Block Build0_Alt0 Storey 0 Floor 0001,    !- Name
    floor,                    !- Surface Type
    Project Heated1rstFloor,    !- Construction Name
    Block Build0_Alt0 Storey 0,    !- Zone Name
    ground,                   !- Outside Boundary Condition
    ,                         !- Outside Boundary Condition Object
    NoSun,                    !- Sun Exposure
    NoWind,                   !- Wind Exposure
    autocalculate,            !- View Factor to Ground
    autocalculate,            !- Number of Vertices
    3.0959,                   !- Vertex 1 Xcoordinate
    16.6946,                  !- Vertex 1 Ycoordinate
    0,                        !- Vertex 1 Zcoordinate
    12.2839,                  !- Vertex 2 Xcoordinate
    -7.2514,                  !- Vertex 2 Ycoordinate
    0,                        !- Vertex 2 Zcoordinate
    2.6309,                   !- Vertex 3 Xcoordinate
    -10.9324,                 !- Vertex 3 Ycoordinate
    0,                        !- Vertex 3 Zcoordinate
    -6.5221,                  !- Vertex 4 Xcoordinate
    13.0136,                  !- Vertex 4 Ycoordinate
    0;                        !- Vertex 4 Zcoordinate

BUILDINGSURFACE:DETAILED,
    Block Build0_Alt0 Storey 0 Roof 0001,    !- Name
    roof,                     !- Surface Type
    Project Flat Roof,        !- Construction Name
    Block Build0_Alt0 Storey 0,    !- Zone Name
    outdoors,                 !- Outside Boundary Condition
    ,                         !- Outside Boundary Condition Object
    SunExposed,               !- Sun Exposure
    WindExposed,              !- Wind Exposure
    autocalculate,            !- View Factor to Ground
    autocalculate,            !- Number of Vertices
    12.2839,                  !- Vertex 1 Xcoordinate
    -7.2514,                  !- Vertex 1 Ycoordinate
    6,                        !- Vertex 1 Zcoordinate
    3.0959,                   !- Vertex 2 Xcoordinate
    16.6946,                  !- Vertex 2 Ycoordinate
    6,                        !- Vertex 2 Zcoordinate
    -6.5221,                  !- Vertex 3 Xcoordinate
    13.0136,                  !- Vertex 3 Ycoordinate
    6,                        !- Vertex 3 Zcoordinate
    2.6309,                   !- Vertex 4 Xcoordinate
    -10.9324,                 !- Vertex 4 Ycoordinate
    6;                        !- Vertex 4 Zcoordinate

FENESTRATIONSURFACE:DETAILED,
    Block Build0_Alt0 Storey 0 Wall 0001 window,    !- Name
    Window,                   !- Surface Type
    Project External Window,    !- Construction Name
    Block Build0_Alt0 Storey 0 Wall 0001,    !- Building Surface Name
    ,                         !- Outside Boundary Condition Object
    autocalculate,            !- View Factor to Ground
    ,                         !- Frame and Divider Name
    1.0,                      !- Multiplier
    autocalculate,            !- Number of Vertices
    3.0910910000000005,       !- Vertex 1 Xcoordinate
    16.6927595,               !- Vertex 1 Ycoordinate
    3.9,                      !- Vertex 1 Zcoordinate
    3.0910910000000005,       !- Vertex 2 Xcoordinate
    16.6927595,               !- Vertex 2 Ycoordinate
    2.1,                      !- Vertex 2 Zcoordinate
    -6.517291,                !- Vertex 3 Xcoordinate
    13.0154405,               !- Vertex 3 Ycoordinate
    2.1,                      !- Vertex 3 Zcoordinate
    -6.517291,                !- Vertex 4 Xcoordinate
    13.0154405,               !- Vertex 4 Ycoordinate
    3.9;                      !- Vertex 4 Zcoordinate

FENESTRATIONSURFACE:DETAILED,
    Block Build0_Alt0 Storey 0 Wall 0002 window,    !- Name
    Window,                   !- Surface Type
    Project External Window,    !- Construction Name
    Block Build0_Alt0 Storey 0 Wall 0002,    !- Building Surface Name
    ,                         !- Outside Boundary Condition Object
    autocalculate,            !- View Factor to Ground
    ,                         !- Frame and Divider Name
    1.0,                      !- Multiplier
    autocalculate,            !- Number of Vertices
    -6.5175235,               !- Vertex 1 Xcoordinate
    13.001627,                !- Vertex 1 Ycoordinate
    3.9,                      !- Vertex 1 Zcoordinate
    -6.5175235,               !- Vertex 2 Xcoordinate
    13.001627,                !- Vertex 2 Ycoordinate
    2.1,                      !- Vertex 2 Zcoordinate
    2.6263235,                !- Vertex 3 Xcoordinate
    -10.920427,               !- Vertex 3 Ycoordinate
    2.1,                      !- Vertex 3 Zcoordinate
    2.6263235,                !- Vertex 4 Xcoordinate
    -10.920427,               !- Vertex 4 Ycoordinate
    3.9;                      !- Vertex 4 Zcoordinate

FENESTRATIONSURFACE:DETAILED,
    Block Build0_Alt0 Storey 0 Wall 0003 window,    !- Name
    Window,                   !- Surface Type
    Project External Window,    !- Construction Name
    Block Build0_Alt0 Storey 0 Wall 0003,    !- Building Surface Name
    ,                         !- Outside Boundary Condition Object
    autocalculate,            !- View Factor to Ground
    ,                         !- Frame and Divider Name
    1.0,                      !- Multiplier
    autocalculate,            !- Number of Vertices
    2.6357265000000005,       !- Vertex 1 Xcoordinate
    -10.9305595,              !- Vertex 1 Ycoordinate
    3.9,                      !- Vertex 1 Zcoordinate
    2.6357265000000005,       !- Vertex 2 Xcoordinate
    -10.9305595,              !- Vertex 2 Ycoordinate
    2.1,                      !- Vertex 2 Zcoordinate
    12.279073499999999,       !- Vertex 3 Xcoordinate
    -7.2532405,               !- Vertex 3 Ycoordinate
    2.1,                      !- Vertex 3 Zcoordinate
    12.279073499999999,       !- Vertex 4 Xcoordinate
    -7.2532405,               !- Vertex 4 Ycoordinate
    3.9;                      !- Vertex 4 Zcoordinate

FENESTRATIONSURFACE:DETAILED,
    Block Build0_Alt0 Storey 0 Wall 0004 window,    !- Name
    Window,                   !- Surface Type
    Project External Window,    !- Construction Name
    Block Build0_Alt0 Storey 0 Wall 0004,    !- Building Surface Name
    ,                         !- Outside Boundary Condition Object
    autocalculate,            !- View Factor to Ground
    ,                         !- Frame and Divider Name
    1.0,                      !- Multiplier
    autocalculate,            !- Number of Vertices
    12.279305999999998,       !- Vertex 1 Xcoordinate
    -7.239427000000001,       !- Vertex 1 Ycoordinate
    3.9,                      !- Vertex 1 Zcoordinate
    12.279305999999998,       !- Vertex 2 Xcoordinate
    -7.239427000000001,       !- Vertex 2 Ycoordinate
    2.1,                      !- Vertex 2 Zcoordinate
    3.1004940000000003,       !- Vertex 3 Xcoordinate
    16.682627000000004,       !- Vertex 3 Ycoordinate
    2.1,                      !- Vertex 3 Zcoordinate
    3.1004940000000003,       !- Vertex 4 Xcoordinate
    16.682627000000004,       !- Vertex 4 Ycoordinate
    3.9;                      !- Vertex 4 Zcoordinate

INTERNALMASS,
    Block Build0_Alt0 Storey 0IntMass,    !- Name
    HeatedZoneIntMassObj,     !- Construction Name
    Block Build0_Alt0 Storey 0,    !- Zone or ZoneList Name
    1058;                     !- Surface Area

SHADING:SITE:DETAILED,
    Shading_V2_1,             !- Name
    ,                         !- Transmittance Schedule Name
    autocalculate,            !- Number of Vertices
    -70.9041,                 !- Vertex 1 Xcoordinate
    141.9826,                 !- Vertex 1 Ycoordinate
    15.8,                     !- Vertex 1 Zcoordinate
    -70.9041,                 !- Vertex 2 Xcoordinate
    141.9826,                 !- Vertex 2 Ycoordinate
    0,                        !- Vertex 2 Zcoordinate
    -64.3241,                 !- Vertex 3 Xcoordinate
    134.2546,                 !- Vertex 3 Ycoordinate
    0,                        !- Vertex 3 Zcoordinate
    -64.3241,                 !- Vertex 4 Xcoordinate
    134.2546,                 !- Vertex 4 Ycoordinate
    15.8;                     !- Vertex 4 Zcoordinate

SHADING:SITE:DETAILED,
    Shading_V13_1,            !- Name
    ,                         !- Transmittance Schedule Name
    autocalculate,            !- Number of Vertices
    -55.5691,                 !- Vertex 1 Xcoordinate
    124.0036,                 !- Vertex 1 Ycoordinate
    16.1,                     !- Vertex 1 Zcoordinate
    -55.5691,                 !- Vertex 2 Xcoordinate
    124.0036,                 !- Vertex 2 Ycoordinate
    0,                        !- Vertex 2 Zcoordinate
    -48.8111,                 !- Vertex 3 Xcoordinate
    116.4586,                 !- Vertex 3 Ycoordinate
    0,                        !- Vertex 3 Zcoordinate
    -48.8111,                 !- Vertex 4 Xcoordinate
    116.4586,                 !- Vertex 4 Ycoordinate
    16.1;                     !- Vertex 4 Zcoordinate

SHADING:SITE:DETAILED,
    Shading_V14_1,            !- Name
    ,                         !- Transmittance Schedule Name
    autocalculate,            !- Number of Vertices
    -48.8111,                 !- Vertex 1 Xcoordinate
    116.4586,                 !- Vertex 1 Ycoordinate
    16.1,                     !- Vertex 1 Zcoordinate
    -48.8111,                 !- Vertex 2 Xcoordinate
    116.4586,                 !- Vertex 2 Ycoordinate
    0,                        !- Vertex 2 Zcoordinate
    -40.2041,                 !- Vertex 3 Xcoordinate
    123.8256,                 !- Vertex 3 Ycoordinate
    0,                        !- Vertex 3 Zcoordinate
    -40.2041,                 !- Vertex 4 Xcoordinate
    123.8256,                 !- Vertex 4 Ycoordinate
    16.1;                     !- Vertex 4 Zcoordinate

SHADING:SITE:DETAILED,
    Shading_V15_1,            !- Name
    ,                         !- Transmittance Schedule Name
    autocalculate,            !- Number of Vertices
    -40.2041,                 !- Vertex 1 Xcoordinate
    123.8256,                 !- Vertex 1 Ycoordinate
    16.1,                     !- Vertex 1 Zcoordinate
    -40.2041,                 !- Vertex 2 Xcoordinate
    123.8256,                 !- Vertex 2 Ycoordinate
    0,                        !- Vertex 2 Zcoordinate
    -30.386,                  !- Vertex 3 Xcoordinate
    123.0867,                 !- Vertex 3 Ycoordinate
    0,                        !- Vertex 3 Zcoordinate
    -30.386,                  !- Vertex 4 Xcoordinate
    123.0867,                 !- Vertex 4 Ycoordinate
    16.1;                     !- Vertex 4 Zcoordinate

SHADING:SITE:DETAILED,
    Shading_V21_1,            !- Name
    ,                         !- Transmittance Schedule Name
    autocalculate,            !- Number of Vertices
    -135.1541,                !- Vertex 1 Xcoordinate
    44.8796,                  !- Vertex 1 Ycoordinate
    6.9,                      !- Vertex 1 Zcoordinate
    -135.1541,                !- Vertex 2 Xcoordinate
    44.8796,                  !- Vertex 2 Ycoordinate
    0,                        !- Vertex 2 Zcoordinate
    -130.3731,                !- Vertex 3 Xcoordinate
    53.8906,                  !- Vertex 3 Ycoordinate
    0,                        !- Vertex 3 Zcoordinate
    -130.3731,                !- Vertex 4 Xcoordinate
    53.8906,                  !- Vertex 4 Ycoordinate
    6.9;                      !- Vertex 4 Zcoordinate

SHADING:SITE:DETAILED,
    Shading_V22_1,            !- Name
    ,                         !- Transmittance Schedule Name
    autocalculate,            !- Number of Vertices
    -130.3731,                !- Vertex 1 Xcoordinate
    53.8906,                  !- Vertex 1 Ycoordinate
    6.9,                      !- Vertex 1 Zcoordinate
    -130.3731,                !- Vertex 2 Xcoordinate
    53.8906,                  !- Vertex 2 Ycoordinate
    0,                        !- Vertex 2 Zcoordinate
    -152.9921,                !- Vertex 3 Xcoordinate
    65.9866,                  !- Vertex 3 Ycoordinate
    0,                        !- Vertex 3 Zcoordinate
    -152.9921,                !- Vertex 4 Xcoordinate
    65.9866,                  !- Vertex 4 Ycoordinate
    6.9;                      !- Vertex 4 Zcoordinate

SHADING:SITE:DETAILED,
    Shading_V25_1,            !- Name
    ,                         !- Transmittance Schedule Name
    autocalculate,            !- Number of Vertices
    -100.1311,                !- Vertex 1 Xcoordinate
    121.2756,                 !- Vertex 1 Ycoordinate
    9,                        !- Vertex 1 Zcoordinate
    -100.1311,                !- Vertex 2 Xcoordinate
    121.2756,                 !- Vertex 2 Ycoordinate
    0,                        !- Vertex 2 Zcoordinate
    -91.3981,                 !- Vertex 3 Xcoordinate
    126.6916,                 !- Vertex 3 Ycoordinate
    0,                        !- Vertex 3 Zcoordinate
    -91.3981,                 !- Vertex 4 Xcoordinate
    126.6916,                 !- Vertex 4 Ycoordinate
    9;                        !- Vertex 4 Zcoordinate

SHADING:SITE:DETAILED,
    Shading_V61_1,            !- Name
    ,                         !- Transmittance Schedule Name
    autocalculate,            !- Number of Vertices
    26.7293,                  !- Vertex 1 Xcoordinate
    65.5901,                  !- Vertex 1 Ycoordinate
    11.6,                     !- Vertex 1 Zcoordinate
    26.7293,                  !- Vertex 2 Xcoordinate
    65.5901,                  !- Vertex 2 Ycoordinate
    0,                        !- Vertex 2 Zcoordinate
    31.7129,                  !- Vertex 3 Xcoordinate
    59.8436,                  !- Vertex 3 Ycoordinate
    0,                        !- Vertex 3 Zcoordinate
    31.7129,                  !- Vertex 4 Xcoordinate
    59.8436,                  !- Vertex 4 Ycoordinate
    11.6;                     !- Vertex 4 Zcoordinate

SHADING:SITE:DETAILED,
    Shading_V83_1,            !- Name
    ,                         !- Transmittance Schedule Name
    autocalculate,            !- Number of Vertices
    -78.3511,                 !- Vertex 1 Xcoordinate
    80.3816,                  !- Vertex 1 Ycoordinate
    8,                        !- Vertex 1 Zcoordinate
    -78.3511,                 !- Vertex 2 Xcoordinate
    80.3816,                  !- Vertex 2 Ycoordinate
    0,                        !- Vertex 2 Zcoordinate
    -85.1471,                 !- Vertex 3 Xcoordinate
    89.7146,                  !- Vertex 3 Ycoordinate
    0,                        !- Vertex 3 Zcoordinate
    -85.1471,                 !- Vertex 4 Xcoordinate
    89.7146,                  !- Vertex 4 Ycoordinate
    8;                        !- Vertex 4 Zcoordinate

SHADING:SITE:DETAILED,
    Shading_V86_1,            !- Name
    ,                         !- Transmittance Schedule Name
    autocalculate,            !- Number of Vertices
    -86.9321,                 !- Vertex 1 Xcoordinate
    74.1966,                  !- Vertex 1 Ycoordinate
    8,                        !- Vertex 1 Zcoordinate
    -86.9321,                 !- Vertex 2 Xcoordinate
    74.1966,                  !- Vertex 2 Ycoordinate
    0,                        !- Vertex 2 Zcoordinate
    -78.3511,                 !- Vertex 3 Xcoordinate
    80.3816,                  !- Vertex 3 Ycoordinate
    0,                        !- Vertex 3 Zcoordinate
    -78.3511,                 !- Vertex 4 Xcoordinate
    80.3816,                  !- Vertex 4 Ycoordinate
    8;                        !- Vertex 4 Zcoordinate

SHADING:SITE:DETAILED,
    Shading_V174_1,           !- Name
    ,                         !- Transmittance Schedule Name
    autocalculate,            !- Number of Vertices
    -18.5641,                 !- Vertex 1 Xcoordinate
    103.7936,                 !- Vertex 1 Ycoordinate
    19.2,                     !- Vertex 1 Zcoordinate
    -18.5641,                 !- Vertex 2 Xcoordinate
    103.7936,                 !- Vertex 2 Ycoordinate
    0,                        !- Vertex 2 Zcoordinate
    -10.2611,                 !- Vertex 3 Xcoordinate
    94.1666,                  !- Vertex 3 Ycoordinate
    0,                        !- Vertex 3 Zcoordinate
    -10.2611,                 !- Vertex 4 Xcoordinate
    94.1666,                  !- Vertex 4 Ycoordinate
    19.2;                     !- Vertex 4 Zcoordinate

SHADING:SITE:DETAILED,
    Shading_V175_1,           !- Name
    ,                         !- Transmittance Schedule Name
    autocalculate,            !- Number of Vertices
    -10.2611,                 !- Vertex 1 Xcoordinate
    94.1666,                  !- Vertex 1 Ycoordinate
    19.2,                     !- Vertex 1 Zcoordinate
    -10.2611,                 !- Vertex 2 Xcoordinate
    94.1666,                  !- Vertex 2 Ycoordinate
    0,                        !- Vertex 2 Zcoordinate
    -3.1051,                  !- Vertex 3 Xcoordinate
    100.3686,                 !- Vertex 3 Ycoordinate
    0,                        !- Vertex 3 Zcoordinate
    -3.1051,                  !- Vertex 4 Xcoordinate
    100.3686,                 !- Vertex 4 Ycoordinate
    19.2;                     !- Vertex 4 Zcoordinate

SHADING:SITE:DETAILED,
    Shading_V176_1,           !- Name
    ,                         !- Transmittance Schedule Name
    autocalculate,            !- Number of Vertices
    -3.1051,                  !- Vertex 1 Xcoordinate
    100.3686,                 !- Vertex 1 Ycoordinate
    19.2,                     !- Vertex 1 Zcoordinate
    -3.1051,                  !- Vertex 2 Xcoordinate
    100.3686,                 !- Vertex 2 Ycoordinate
    0,                        !- Vertex 2 Zcoordinate
    1.2349,                   !- Vertex 3 Xcoordinate
    95.2956,                  !- Vertex 3 Ycoordinate
    0,                        !- Vertex 3 Zcoordinate
    1.2349,                   !- Vertex 4 Xcoordinate
    95.2956,                  !- Vertex 4 Ycoordinate
    19.2;                     !- Vertex 4 Zcoordinate

SHADING:SITE:DETAILED,
    Shading_V177_1,           !- Name
    ,                         !- Transmittance Schedule Name
    autocalculate,            !- Number of Vertices
    1.2349,                   !- Vertex 1 Xcoordinate
    95.2956,                  !- Vertex 1 Ycoordinate
    19.2,                     !- Vertex 1 Zcoordinate
    1.2349,                   !- Vertex 2 Xcoordinate
    95.2956,                  !- Vertex 2 Ycoordinate
    0,                        !- Vertex 2 Zcoordinate
    8.8739,                   !- Vertex 3 Xcoordinate
    101.8886,                 !- Vertex 3 Ycoordinate
    0,                        !- Vertex 3 Zcoordinate
    8.8739,                   !- Vertex 4 Xcoordinate
    101.8886,                 !- Vertex 4 Ycoordinate
    19.2;                     !- Vertex 4 Zcoordinate

SHADING:SITE:DETAILED,
    Shading_V292_1,           !- Name
    ,                         !- Transmittance Schedule Name
    autocalculate,            !- Number of Vertices
    -56.1561,                 !- Vertex 1 Xcoordinate
    -10.1554,                 !- Vertex 1 Ycoordinate
    7.8,                      !- Vertex 1 Zcoordinate
    -56.1561,                 !- Vertex 2 Xcoordinate
    -10.1554,                 !- Vertex 2 Ycoordinate
    0,                        !- Vertex 2 Zcoordinate
    -60.1721,                 !- Vertex 3 Xcoordinate
    6.8056,                   !- Vertex 3 Ycoordinate
    0,                        !- Vertex 3 Zcoordinate
    -60.1721,                 !- Vertex 4 Xcoordinate
    6.8056,                   !- Vertex 4 Ycoordinate
    7.8;                      !- Vertex 4 Zcoordinate

SHADING:SITE:DETAILED,
    Shading_V310_1,           !- Name
    ,                         !- Transmittance Schedule Name
    autocalculate,            !- Number of Vertices
    5.4979,                   !- Vertex 1 Xcoordinate
    75.7926,                  !- Vertex 1 Ycoordinate
    18.8,                     !- Vertex 1 Zcoordinate
    5.4979,                   !- Vertex 2 Xcoordinate
    75.7926,                  !- Vertex 2 Ycoordinate
    0,                        !- Vertex 2 Zcoordinate
    13.8129,                  !- Vertex 3 Xcoordinate
    66.1226,                  !- Vertex 3 Ycoordinate
    0,                        !- Vertex 3 Zcoordinate
    13.8129,                  !- Vertex 4 Xcoordinate
    66.1226,                  !- Vertex 4 Ycoordinate
    18.8;                     !- Vertex 4 Zcoordinate

SHADING:SITE:DETAILED,
    Shading_V311_1,           !- Name
    ,                         !- Transmittance Schedule Name
    autocalculate,            !- Number of Vertices
    13.8129,                  !- Vertex 1 Xcoordinate
    66.1226,                  !- Vertex 1 Ycoordinate
    18.8,                     !- Vertex 1 Zcoordinate
    13.8129,                  !- Vertex 2 Xcoordinate
    66.1226,                  !- Vertex 2 Ycoordinate
    0,                        !- Vertex 2 Zcoordinate
    20.9479,                  !- Vertex 3 Xcoordinate
    72.2566,                  !- Vertex 3 Ycoordinate
    0,                        !- Vertex 3 Zcoordinate
    20.9479,                  !- Vertex 4 Xcoordinate
    72.2566,                  !- Vertex 4 Ycoordinate
    18.8;                     !- Vertex 4 Zcoordinate

SHADING:SITE:DETAILED,
    Shading_V312_1,           !- Name
    ,                         !- Transmittance Schedule Name
    autocalculate,            !- Number of Vertices
    20.9479,                  !- Vertex 1 Xcoordinate
    72.2566,                  !- Vertex 1 Ycoordinate
    18.8,                     !- Vertex 1 Zcoordinate
    20.9479,                  !- Vertex 2 Xcoordinate
    72.2566,                  !- Vertex 2 Ycoordinate
    0,                        !- Vertex 2 Zcoordinate
    26.7293,                  !- Vertex 3 Xcoordinate
    65.5901,                  !- Vertex 3 Ycoordinate
    0,                        !- Vertex 3 Zcoordinate
    26.7293,                  !- Vertex 4 Xcoordinate
    65.5901,                  !- Vertex 4 Ycoordinate
    18.8;                     !- Vertex 4 Zcoordinate

SHADING:SITE:DETAILED,
    Shading_V347_1,           !- Name
    ,                         !- Transmittance Schedule Name
    autocalculate,            !- Number of Vertices
    -30.386,                  !- Vertex 1 Xcoordinate
    123.0867,                 !- Vertex 1 Ycoordinate
    12.2,                     !- Vertex 1 Zcoordinate
    -30.386,                  !- Vertex 2 Xcoordinate
    123.0867,                 !- Vertex 2 Ycoordinate
    0,                        !- Vertex 2 Zcoordinate
    -22.1751,                 !- Vertex 3 Xcoordinate
    122.4686,                 !- Vertex 3 Ycoordinate
    0,                        !- Vertex 3 Zcoordinate
    -22.1751,                 !- Vertex 4 Xcoordinate
    122.4686,                 !- Vertex 4 Ycoordinate
    12.2;                     !- Vertex 4 Zcoordinate

SHADING:SITE:DETAILED,
    Shading_V380_1,           !- Name
    ,                         !- Transmittance Schedule Name
    autocalculate,            !- Number of Vertices
    -140.4521,                !- Vertex 1 Xcoordinate
    75.1456,                  !- Vertex 1 Ycoordinate
    8.6,                      !- Vertex 1 Zcoordinate
    -140.4521,                !- Vertex 2 Xcoordinate
    75.1456,                  !- Vertex 2 Ycoordinate
    0,                        !- Vertex 2 Zcoordinate
    -132.2591,                !- Vertex 3 Xcoordinate
    81.4306,                  !- Vertex 3 Ycoordinate
    0,                        !- Vertex 3 Zcoordinate
    -132.2591,                !- Vertex 4 Xcoordinate
    81.4306,                  !- Vertex 4 Ycoordinate
    8.6;                      !- Vertex 4 Zcoordinate

SHADING:SITE:DETAILED,
    Shading_V381_1,           !- Name
    ,                         !- Transmittance Schedule Name
    autocalculate,            !- Number of Vertices
    -132.2591,                !- Vertex 1 Xcoordinate
    81.4306,                  !- Vertex 1 Ycoordinate
    8.6,                      !- Vertex 1 Zcoordinate
    -132.2591,                !- Vertex 2 Xcoordinate
    81.4306,                  !- Vertex 2 Ycoordinate
    0,                        !- Vertex 2 Zcoordinate
    -146.1501,                !- Vertex 3 Xcoordinate
    99.6846,                  !- Vertex 3 Ycoordinate
    0,                        !- Vertex 3 Zcoordinate
    -146.1501,                !- Vertex 4 Xcoordinate
    99.6846,                  !- Vertex 4 Ycoordinate
    8.6;                      !- Vertex 4 Zcoordinate

SHADING:SITE:DETAILED,
    Shading_V387_1,           !- Name
    ,                         !- Transmittance Schedule Name
    autocalculate,            !- Number of Vertices
    -180.1471,                !- Vertex 1 Xcoordinate
    87.4836,                  !- Vertex 1 Ycoordinate
    10.4,                     !- Vertex 1 Zcoordinate
    -180.1471,                !- Vertex 2 Xcoordinate
    87.4836,                  !- Vertex 2 Ycoordinate
    0,                        !- Vertex 2 Zcoordinate
    -169.9471,                !- Vertex 3 Xcoordinate
    89.1886,                  !- Vertex 3 Ycoordinate
    0,                        !- Vertex 3 Zcoordinate
    -169.9471,                !- Vertex 4 Xcoordinate
    89.1886,                  !- Vertex 4 Ycoordinate
    10.4;                     !- Vertex 4 Zcoordinate

SHADING:SITE:DETAILED,
    Shading_V455_1,           !- Name
    ,                         !- Transmittance Schedule Name
    autocalculate,            !- Number of Vertices
    20.8799,                  !- Vertex 1 Xcoordinate
    41.9876,                  !- Vertex 1 Ycoordinate
    18.8,                     !- Vertex 1 Zcoordinate
    20.8799,                  !- Vertex 2 Xcoordinate
    41.9876,                  !- Vertex 2 Ycoordinate
    0,                        !- Vertex 2 Zcoordinate
    19.9349,                  !- Vertex 3 Xcoordinate
    29.3626,                  !- Vertex 3 Ycoordinate
    0,                        !- Vertex 3 Zcoordinate
    19.9349,                  !- Vertex 4 Xcoordinate
    29.3626,                  !- Vertex 4 Ycoordinate
    18.8;                     !- Vertex 4 Zcoordinate

SHADING:SITE:DETAILED,
    Shading_V456_1,           !- Name
    ,                         !- Transmittance Schedule Name
    autocalculate,            !- Number of Vertices
    19.9349,                  !- Vertex 1 Xcoordinate
    29.3626,                  !- Vertex 1 Ycoordinate
    18.8,                     !- Vertex 1 Zcoordinate
    19.9349,                  !- Vertex 2 Xcoordinate
    29.3626,                  !- Vertex 2 Ycoordinate
    0,                        !- Vertex 2 Zcoordinate
    29.3269,                  !- Vertex 3 Xcoordinate
    28.6486,                  !- Vertex 3 Ycoordinate
    0,                        !- Vertex 3 Zcoordinate
    29.3269,                  !- Vertex 4 Xcoordinate
    28.6486,                  !- Vertex 4 Ycoordinate
    18.8;                     !- Vertex 4 Zcoordinate

SHADING:SITE:DETAILED,
    Shading_V502_1,           !- Name
    ,                         !- Transmittance Schedule Name
    autocalculate,            !- Number of Vertices
    -43.8571,                 !- Vertex 1 Xcoordinate
    66.7536,                  !- Vertex 1 Ycoordinate
    8.3,                      !- Vertex 1 Zcoordinate
    -43.8571,                 !- Vertex 2 Xcoordinate
    66.7536,                  !- Vertex 2 Ycoordinate
    0,                        !- Vertex 2 Zcoordinate
    -36.4421,                 !- Vertex 3 Xcoordinate
    74.2006,                  !- Vertex 3 Ycoordinate
    0,                        !- Vertex 3 Zcoordinate
    -36.4421,                 !- Vertex 4 Xcoordinate
    74.2006,                  !- Vertex 4 Ycoordinate
    8.3;                      !- Vertex 4 Zcoordinate

SHADING:SITE:DETAILED,
    Shading_V505_1,           !- Name
    ,                         !- Transmittance Schedule Name
    autocalculate,            !- Number of Vertices
    -51.9781,                 !- Vertex 1 Xcoordinate
    74.9276,                  !- Vertex 1 Ycoordinate
    8.3,                      !- Vertex 1 Zcoordinate
    -51.9781,                 !- Vertex 2 Xcoordinate
    74.9276,                  !- Vertex 2 Ycoordinate
    0,                        !- Vertex 2 Zcoordinate
    -43.8571,                 !- Vertex 3 Xcoordinate
    66.7536,                  !- Vertex 3 Ycoordinate
    0,                        !- Vertex 3 Zcoordinate
    -43.8571,                 !- Vertex 4 Xcoordinate
    66.7536,                  !- Vertex 4 Ycoordinate
    8.3;                      !- Vertex 4 Zcoordinate

SHADING:SITE:DETAILED,
    Shading_V26_1,            !- Name
    ,                         !- Transmittance Schedule Name
    autocalculate,            !- Number of Vertices
    -91.3981,                 !- Vertex 1 Xcoordinate
    126.6916,                 !- Vertex 1 Ycoordinate
    9,                        !- Vertex 1 Zcoordinate
    -91.3981,                 !- Vertex 2 Xcoordinate
    126.6916,                 !- Vertex 2 Ycoordinate
    0,                        !- Vertex 2 Zcoordinate
    -100.5831,                !- Vertex 3 Xcoordinate
    141.5546,                 !- Vertex 3 Ycoordinate
    0,                        !- Vertex 3 Zcoordinate
    -100.5831,                !- Vertex 4 Xcoordinate
    141.5546,                 !- Vertex 4 Ycoordinate
    9;                        !- Vertex 4 Zcoordinate

SHADING:SITE:DETAILED,
    Shading_V291_1,           !- Name
    ,                         !- Transmittance Schedule Name
    autocalculate,            !- Number of Vertices
    -64.6481,                 !- Vertex 1 Xcoordinate
    -12.2294,                 !- Vertex 1 Ycoordinate
    7.8,                      !- Vertex 1 Zcoordinate
    -64.6481,                 !- Vertex 2 Xcoordinate
    -12.2294,                 !- Vertex 2 Ycoordinate
    0,                        !- Vertex 2 Zcoordinate
    -56.1561,                 !- Vertex 3 Xcoordinate
    -10.1554,                 !- Vertex 3 Ycoordinate
    0,                        !- Vertex 3 Zcoordinate
    -56.1561,                 !- Vertex 4 Xcoordinate
    -10.1554,                 !- Vertex 4 Ycoordinate
    7.8;                      !- Vertex 4 Zcoordinate

SHADING:SITE:DETAILED,
    Shading_V457_1,           !- Name
    ,                         !- Transmittance Schedule Name
    autocalculate,            !- Number of Vertices
    29.3269,                  !- Vertex 1 Xcoordinate
    28.6486,                  !- Vertex 1 Ycoordinate
    18.8,                     !- Vertex 1 Zcoordinate
    29.3269,                  !- Vertex 2 Xcoordinate
    28.6486,                  !- Vertex 2 Ycoordinate
    0,                        !- Vertex 2 Zcoordinate
    28.8109,                  !- Vertex 3 Xcoordinate
    21.0166,                  !- Vertex 3 Ycoordinate
    0,                        !- Vertex 3 Zcoordinate
    28.8109,                  !- Vertex 4 Xcoordinate
    21.0166,                  !- Vertex 4 Ycoordinate
    18.8;                     !- Vertex 4 Zcoordinate

SHADING:SITE:DETAILED,
    Shading_V458_1,           !- Name
    ,                         !- Transmittance Schedule Name
    autocalculate,            !- Number of Vertices
    28.8109,                  !- Vertex 1 Xcoordinate
    21.0166,                  !- Vertex 1 Ycoordinate
    18.8,                     !- Vertex 1 Zcoordinate
    28.8109,                  !- Vertex 2 Xcoordinate
    21.0166,                  !- Vertex 2 Ycoordinate
    0,                        !- Vertex 2 Zcoordinate
    38.8749,                  !- Vertex 3 Xcoordinate
    20.2436,                  !- Vertex 3 Ycoordinate
    0,                        !- Vertex 3 Zcoordinate
    38.8749,                  !- Vertex 4 Xcoordinate
    20.2436,                  !- Vertex 4 Ycoordinate
    18.8;                     !- Vertex 4 Zcoordinate

ELECTRICEQUIPMENT,
    Block Build0_Alt0 Storey 0Load,    !- Name
    Block Build0_Alt0 Storey 0,    !- Zone or ZoneList Name
    LoadSchedule,             !- Schedule Name
    Watts/Area,               !- Design Level Calculation Method
    ,                         !- Design Level
    0.02,                     !- Watts per Zone Floor Area
    ,                         !- Watts per Person
    0,                        !- Fraction Latent
    0,                        !- Fraction Radiant
    0,                        !- Fraction Lost
    General;                  !- EndUse Subcategory

ZONEINFILTRATION:FLOWCOEFFICIENT,
    Block Build0_Alt0 Storey 0Leak,    !- Name
    Block Build0_Alt0 Storey 0,    !- Zone Name
    AlwaysON,                 !- Schedule Name
    5.121252e-02,             !- Flow Coefficient
    0.078,                    !- Stack Coefficient
    0.667,                    !- Pressure Exponent
    0.17,                     !- Wind Coefficient
    0.5;                      !- Shelter Factor

ZONEVENTILATION:DESIGNFLOWRATE,
    Block Build0_Alt0 Storey 0FreeCool,    !- Name
    Block Build0_Alt0 Storey 0,    !- Zone or ZoneList Name
    AlwaysON,                 !- Schedule Name
    AirChanges/Hour,          !- Design Flow Rate Calculation Method
    ,                         !- Design Flow Rate
    ,                         !- Flow Rate per Zone Floor Area
    ,                         !- Flow Rate per Person
    4,                        !- Air Changes per Hour
    Natural,                  !- Ventilation Type
    0,                        !- Fan Pressure Rise
    1,                        !- Fan Total Efficiency
    1,                        !- Constant Term Coefficient
    0,                        !- Temperature Term Coefficient
    0,                        !- Velocity Term Coefficient
    0,                        !- Velocity Squared Term Coefficient
    26,                       !- Minimum Indoor Temperature
    ,                         !- Minimum Indoor Temperature Schedule Name
    100,                      !- Maximum Indoor Temperature
    ,                         !- Maximum Indoor Temperature Schedule Name
    1,                        !- Delta Temperature
    ,                         !- Delta Temperature Schedule Name
    -100,                     !- Minimum Outdoor Temperature
    ,                         !- Minimum Outdoor Temperature Schedule Name
    100,                      !- Maximum Outdoor Temperature
    ,                         !- Maximum Outdoor Temperature Schedule Name
    40;                       !- Maximum Wind Speed

HVACTEMPLATE:THERMOSTAT,
    ResidZone,                !- Name
    ,                         !- Heating Setpoint Schedule Name
    21,                       !- Constant Heating Setpoint
    ,                         !- Cooling Setpoint Schedule Name
    50;                       !- Constant Cooling Setpoint

HVACTEMPLATE:ZONE:IDEALLOADSAIRSYSTEM,
    Block Build0_Alt0 Storey 0,    !- Zone Name
    ResidZone,                !- Template Thermostat Name
    ,                         !- System Availability Schedule Name
    50,                       !- Maximum Heating Supply Air Temperature
    13,                       !- Minimum Cooling Supply Air Temperature
    0.0156,                   !- Maximum Heating Supply Air Humidity Ratio
    0.0077,                   !- Minimum Cooling Supply Air Humidity Ratio
    NoLimit,                  !- Heating Limit
    ,                         !- Maximum Heating Air Flow Rate
    13224.414675,             !- Maximum Sensible Heating Capacity
    NoLimit,                  !- Cooling Limit
    ,                         !- Maximum Cooling Air Flow Rate
    ,                         !- Maximum Total Cooling Capacity
    ,                         !- Heating Availability Schedule Name
    ,                         !- Cooling Availability Schedule Name
    ConstantSensibleHeatRatio,    !- Dehumidification Control Type
    0.7,                      !- Cooling Sensible Heat Ratio
    60,                       !- Dehumidification Setpoint
    None,                     !- Humidification Control Type
    30,                       !- Humidification Setpoint
    Flow/Area,                !- Outdoor Air Method
    0.007,                    !- Outdoor Air Flow Rate per Person
    0.0007,                   !- Outdoor Air Flow Rate per Zone Floor Area
    0,                        !- Outdoor Air Flow Rate per Zone
    ,                         !- Design Specification Outdoor Air Object Name
    None,                     !- Demand Controlled Ventilation Type
    NoEconomizer,             !- Outdoor Air Economizer Type
    None,                     !- Heat Recovery Type
    0,                        !- Sensible Heat Recovery Effectiveness
    0;                        !- Latent Heat Recovery Effectiveness

OUTDOORAIR:NODE,
    Block Build0_Alt0 Storey 0 IDEAL LOADS OUTDOOR AIR INLET,    !- Name
    -1,                       !- Height Above Ground
    ,                         !- Drybulb Temperature Schedule Name
    ,                         !- Wetbulb Temperature Schedule Name
    ,                         !- Wind Speed Schedule Name
    ,                         !- Wind Direction Schedule Name
    ,                         !- Wind Pressure Coefficient Curve Name
    No,                       !- Symmetric Wind Pressure Coefficient Curve
    Absolute;                 !- Wind Angle Type

ENERGYMANAGEMENTSYSTEM:SENSOR,
    T0,                       !- Name
    Block Build0_Alt0 Storey 0,    !- OutputVariable or OutputMeter Index Key Name
    Zone Mean Air Temperature;    !- OutputVariable or OutputMeter Name

ENERGYMANAGEMENTSYSTEM:SENSOR,
    Pow0,                     !- Name
    Block Build0_Alt0 Storey 0 IDEAL LOADS AIR SYSTEM,    !- OutputVariable or OutputMeter Index Key Name
    Zone Ideal Loads Supply Air Total Heating Rate;    !- OutputVariable or OutputMeter Name

ENERGYMANAGEMENTSYSTEM:SENSOR,
    DHWPow,                   !- Name
    DHW,                      !- OutputVariable or OutputMeter Index Key Name
    Water Use Equipment Heating Rate;    !- OutputVariable or OutputMeter Name

ENERGYMANAGEMENTSYSTEM:PROGRAMCALLINGMANAGER,
    Average Building Temperature,    !- Name
    EndOfZoneTimestepBeforeZoneReporting,    !- EnergyPlus Model Calling Point
    AverageZoneTemps;         !- Program Name 1

ENERGYMANAGEMENTSYSTEM:PROGRAMCALLINGMANAGER,
    Compute Total Building Heat Pow,    !- Name
    EndOfZoneTimestepBeforeZoneReporting,    !- EnergyPlus Model Calling Point
    TotZonePow;               !- Program Name 1

ENERGYMANAGEMENTSYSTEM:PROGRAMCALLINGMANAGER,
    Compute Total DHW Heat Pow,    !- Name
    EndOfZoneTimestepBeforeZoneReporting,    !- EnergyPlus Model Calling Point
    prgmDHWPow;               !- Program Name 1

ENERGYMANAGEMENTSYSTEM:PROGRAM,
    AverageZoneTemps,         !- Name
    SET SumNumerator = T0*Vol0,    !- Program Line 1
    SET SumDenominator  = Vol0,    !- Program Line 2
    SET AverageBuildingTemp  = SumNumerator / SumDenominator;    !- Program Line 3

ENERGYMANAGEMENTSYSTEM:PROGRAM,
    TotZonePow,               !- Name
    SET TotBuildPow = Pow0;    !- Program Line 1

ENERGYMANAGEMENTSYSTEM:PROGRAM,
    prgmDHWPow,               !- Name
    SET TotDHWPow = DHWPow;    !- Program Line 1

ENERGYMANAGEMENTSYSTEM:GLOBALVARIABLE,
    AverageBuildingTemp;      !- Erl Variable 1 Name

ENERGYMANAGEMENTSYSTEM:GLOBALVARIABLE,
    TotBuildPow;              !- Erl Variable 1 Name

ENERGYMANAGEMENTSYSTEM:GLOBALVARIABLE,
    TotDHWPow;                !- Erl Variable 1 Name

ENERGYMANAGEMENTSYSTEM:OUTPUTVARIABLE,
    Mean Heated Zones Air Temperature,    !- Name
    AverageBuildingTemp,      !- EMS Variable Name
    Averaged,                 !- Type of Data in Variable
    ZoneTimeStep;             !- Update Frequency

ENERGYMANAGEMENTSYSTEM:OUTPUTVARIABLE,
    Total Building Heating Power,    !- Name
    TotBuildPow,              !- EMS Variable Name
    Averaged,                 !- Type of Data in Variable
    ZoneTimeStep;             !- Update Frequency

ENERGYMANAGEMENTSYSTEM:OUTPUTVARIABLE,
    Total DHW Heating Power,    !- Name
    TotDHWPow,                !- EMS Variable Name
    Averaged,                 !- Type of Data in Variable
    ZoneTimeStep;             !- Update Frequency

ENERGYMANAGEMENTSYSTEM:INTERNALVARIABLE,
    Vol0,                     !- Name
    Block Build0_Alt0 Storey 0,    !- Internal Data Index Key Name
    Zone Air Volume;          !- Internal Data Type

WATERUSE:EQUIPMENT,
    DHW,                      !- Name
    General,                  !- EndUse Subcategory
    2.173303e-09,             !- Peak Flow Rate
    WaterTaps,                !- Flow Rate Fraction Schedule Name
    TargetWaterTemp,          !- Target Temperature Schedule Name
    HotWaterTemp,             !- Hot Water Supply Temperature Schedule Name
    ColdWaterTemp;            !- Cold Water Supply Temperature Schedule Name

Output:VariableDictionary,
    Regular;                  !- Key Field

OUTPUT:ENERGYMANAGEMENTSYSTEM,
    Verbose,                  !- Actuator Availability Dictionary Reporting
    Verbose,                  !- Internal Variable Availability Dictionary Reporting
    Verbose;                  !- EMS Runtime Language Debug Output Level

Output:Table:SummaryReports,
    AllSummary;               !- Report 1 Name

OutputControl:Table:Style,
    HTML;                     !- Column Separator

OUTPUT:VARIABLE,
    *,                        !- Key Value
    Site Outdoor Air Drybulb Temperature,    !- Variable Name
    Hourly;                   !- Reporting Frequency

OUTPUT:VARIABLE,
    *,                        !- Key Value
    Site Outdoor Air Relative Humidity,    !- Variable Name
    Hourly;                   !- Reporting Frequency

OUTPUT:VARIABLE,
    *,                        !- Key Value
    Site Outdoor Air Barometric Pressure,    !- Variable Name
    Hourly;                   !- Reporting Frequency

OUTPUT:VARIABLE,
    *,                        !- Key Value
    Site Wind Speed,          !- Variable Name
    Hourly;                   !- Reporting Frequency

OUTPUT:VARIABLE,
    *,                        !- Key Value
    Site Diffuse Solar Radiation Rate per Area,    !- Variable Name
    Hourly;                   !- Reporting Frequency

OUTPUT:VARIABLE,
    *,                        !- Key Value
    Site Direct Solar Radiation Rate per Area,    !- Variable Name
    Hourly;                   !- Reporting Frequency

OUTPUT:VARIABLE,
    *,                        !- Key Value
    Zone Electric Equipment Electric Power,    !- Variable Name
    Hourly;                   !- Reporting Frequency

OUTPUT:VARIABLE,
    *,                        !- Key Value
    Zone Electric Equipment Total Heating Rate,    !- Variable Name
    Hourly;                   !- Reporting Frequency

OUTPUT:VARIABLE,
    *,                        !- Key Value
    Surface Outside Face Incident Solar Radiation Rate per Area,    !- Variable Name
    Hourly;                   !- Reporting Frequency

OUTPUT:VARIABLE,
    *,                        !- Key Value
    Surface Outside Face Incident Beam Solar Radiation Rate per Area,    !- Variable Name
    Hourly;                   !- Reporting Frequency

OUTPUT:VARIABLE,
    *,                        !- Key Value
    Zone Ideal Loads Supply Air Total Heating Rate,    !- Variable Name
    Hourly;                   !- Reporting Frequency

OUTPUT:VARIABLE,
    *,                        !- Key Value
    Water Use Equipment Hot Water Mass Flow Rate,    !- Variable Name
    Hourly;                   !- Reporting Frequency

OUTPUT:VARIABLE,
    *,                        !- Key Value
    Water Use Equipment Cold Water Mass Flow Rate,    !- Variable Name
    Hourly;                   !- Reporting Frequency

OUTPUT:VARIABLE,
    *,                        !- Key Value
    Water Use Equipment Hot Water Temperature,    !- Variable Name
    Hourly;                   !- Reporting Frequency

OUTPUT:VARIABLE,
    *,                        !- Key Value
    Water Use Equipment Cold Water Temperature,    !- Variable Name
    Hourly;                   !- Reporting Frequency

OUTPUT:VARIABLE,
    *,                        !- Key Value
    Water Use Equipment Heating Rate,    !- Variable Name
    Hourly;                   !- Reporting Frequency

OUTPUT:VARIABLE,
    *,                        !- Key Value
    Mean Heated Zones Air Temperature,    !- Variable Name
    Hourly;                   !- Reporting Frequency

OUTPUT:VARIABLE,
    *,                        !- Key Value
    Total Building Heating Power,    !- Variable Name
    Hourly;                   !- Reporting Frequency

OUTPUT:VARIABLE,
    *,                        !- Key Value
    Total DHW Heating Power,    !- Variable Name
    Hourly;                   !- Reporting Frequency

OUTPUT:DIAGNOSTICS,
    DISPLAYEXTRAWARNINGS,     !- Key 1
    DisplayAdvancedReportVariables;    !- Key 2