!- Darwin Line endings 

Version,
    9.5;                      !- Version Identifier

SimulationControl,
    No,                       !- Do Zone Sizing Calculation
    No,                       !- Do System Sizing Calculation
    No,                       !- Do Plant Sizing Calculation
    No,                       !- Run Simulation for Sizing Periods
    Yes,                      !- Run Simulation for Weather File Run Periods
    No,                       !- Do HVAC Sizing Simulation for Sizing Periods
    1;                        !- Maximum Number of HVAC Sizing Simulation Passes

Building,
    None,                     !- Name
    0,                        !- North Axis
    Suburbs,                  !- Terrain
    0.04,                     !- Loads Convergence Tolerance Value
    0.4,                      !- Temperature Convergence Tolerance Value
    FullExterior,             !- Solar Distribution
    25,                       !- Maximum Number of Warmup Days
    6;                        !- Minimum Number of Warmup Days

SHADOWCALCULATION,
    PolygonClipping,          !- Shading Calculation Method
    Periodic,                 !- Shading Calculation Update Frequency Method
    20,                       !- Shading Calculation Update Frequency
    25000,                    !- Maximum Figures in Shadow Overlap Calculations
    SutherlandHodgman,        !- Polygon Clipping Algorithm
    512,                      !- Pixel Counting Resolution
    SimpleSkyDiffuseModeling,    !- Sky Diffuse Modeling Algorithm
    No,                       !- Output External Shading Calculation Results
    No,                       !- Disable SelfShading Within Shading Zone Groups
    No;                       !- Disable SelfShading From Shading Zone Groups to Other Zones

Timestep,
    4;                        !- Number of Timesteps per Hour

Site:Location,
    WeatherData/USA_CA_San.Francisco.Intl.AP.724940_TMY3.epw,    !- Name
    37.62,                    !- Latitude
    -122.4,                   !- Longitude
    -8,                       !- Time Zone
    2;                        !- Elevation

SizingPeriod:DesignDay,
    DENVER_STAPLETON Ann Htg 99.6% Condns DB,    !- Name
    12,                       !- Month
    21,                       !- Day of Month
    WinterDesignDay,          !- Day Type
    -20,                      !- Maximum DryBulb Temperature
    0,                        !- Daily DryBulb Temperature Range
    ,                         !- DryBulb Temperature Range Modifier Type
    ,                         !- DryBulb Temperature Range Modifier Day Schedule Name
    Wetbulb,                  !- Humidity Condition Type
    -20,                      !- Wetbulb or DewPoint at Maximum DryBulb
    ,                         !- Humidity Condition Day Schedule Name
    ,                         !- Humidity Ratio at Maximum DryBulb
    ,                         !- Enthalpy at Maximum DryBulb
    ,                         !- Daily WetBulb Temperature Range
    100594,                   !- Barometric Pressure
    2.3,                      !- Wind Speed
    180,                      !- Wind Direction
    No,                       !- Rain Indicator
    No,                       !- Snow Indicator
    No,                       !- Daylight Saving Time Indicator
    ASHRAEClearSky,           !- Solar Model Indicator
    ,                         !- Beam Solar Day Schedule Name
    ,                         !- Diffuse Solar Day Schedule Name
    ,                         !- ASHRAE Clear Sky Optical Depth for Beam Irradiance taub
    ,                         !- ASHRAE Clear Sky Optical Depth for Diffuse Irradiance taud
    0;                        !- Sky Clearness

SizingPeriod:DesignDay,
    DENVER_STAPLETON Ann Clg .4% Condns DB=>MWB,    !- Name
    7,                        !- Month
    21,                       !- Day of Month
    SummerDesignDay,          !- Day Type
    34.1,                     !- Maximum DryBulb Temperature
    15.2,                     !- Daily DryBulb Temperature Range
    ,                         !- DryBulb Temperature Range Modifier Type
    ,                         !- DryBulb Temperature Range Modifier Day Schedule Name
    Wetbulb,                  !- Humidity Condition Type
    15.8,                     !- Wetbulb or DewPoint at Maximum DryBulb
    ,                         !- Humidity Condition Day Schedule Name
    ,                         !- Humidity Ratio at Maximum DryBulb
    ,                         !- Enthalpy at Maximum DryBulb
    ,                         !- Daily WetBulb Temperature Range
    100594,                   !- Barometric Pressure
    4,                        !- Wind Speed
    120,                      !- Wind Direction
    No,                       !- Rain Indicator
    No,                       !- Snow Indicator
    No,                       !- Daylight Saving Time Indicator
    ASHRAEClearSky,           !- Solar Model Indicator
    ,                         !- Beam Solar Day Schedule Name
    ,                         !- Diffuse Solar Day Schedule Name
    ,                         !- ASHRAE Clear Sky Optical Depth for Beam Irradiance taub
    ,                         !- ASHRAE Clear Sky Optical Depth for Diffuse Irradiance taud
    1;                        !- Sky Clearness

RunPeriod,
    Run Period 1,             !- Name
    1,                        !- Begin Month
    1,                        !- Begin Day of Month
    ,                         !- Begin Year
    12,                       !- End Month
    31,                       !- End Day of Month
    ,                         !- End Year
    Tuesday,                  !- Day of Week for Start Day
    Yes,                      !- Use Weather File Holidays and Special Days
    Yes,                      !- Use Weather File Daylight Saving Period
    No,                       !- Apply Weekend Holiday Rule
    Yes,                      !- Use Weather File Rain Indicators
    Yes;                      !- Use Weather File Snow Indicators

SITE:GROUNDTEMPERATURE:BUILDINGSURFACE,
    15,                       !- January Ground Temperature
    15,                       !- February Ground Temperature
    15,                       !- March Ground Temperature
    15,                       !- April Ground Temperature
    15,                       !- May Ground Temperature
    15,                       !- June Ground Temperature
    15,                       !- July Ground Temperature
    15,                       !- August Ground Temperature
    15,                       !- September Ground Temperature
    15,                       !- October Ground Temperature
    15,                       !- November Ground Temperature
    15;                       !- December Ground Temperature

SCHEDULETYPELIMITS,
    Any Number,               !- Name
    ,                         !- Lower Limit Value
    ,                         !- Upper Limit Value
    ,                         !- Numeric Type
    Dimensionless;            !- Unit Type

SCHEDULE:COMPACT,
    AlwaysON,                 !- Name
    Any Number,               !- Schedule Type Limits Name
    Through: 12/31,           !- Field 1
    For: AllDays,             !- Field 2
    Until: 24:00,             !- Field 3
    1;                        !- Field 4

SCHEDULE:COMPACT,
    OccupActivity,            !- Name
    Any Number,               !- Schedule Type Limits Name
    Through: 12/31,           !- Field 1
    For: AllDays,             !- Field 2
    Until: 24:00,             !- Field 3
    70;                       !- Field 4

SCHEDULE:COMPACT,
    HotWaterTemp,             !- Name
    Any Number,               !- Schedule Type Limits Name
    Through: 12/31,           !- Field 1
    For: AllDays,             !- Field 2
    Until: 24:00,             !- Field 3
    55;                       !- Field 4

SCHEDULE:COMPACT,
    TargetWaterTemp,          !- Name
    Any Number,               !- Schedule Type Limits Name
    Through: 12/31,           !- Field 1
    For: AllDays,             !- Field 2
    Until: 24:00,             !- Field 3
    37;                       !- Field 4

SCHEDULE:FILE,
    LoadSchedule,             !- Name
    Any Number,               !- Schedule Type Limits Name
    /Users/alizad/PycharmProjects/mubes-ubem/examples/ForTest/InputFiles/Building10_winter.txt,    !- File Name
    1,                        !- Column Number
    0,                        !- Rows to Skip at Top
    8760,                     !- Number of Hours of Data
    Comma,                    !- Column Separator
    No;                       !- Interpolate to Timestep

SCHEDULE:FILE,
    Watertaps,                !- Name
    Any Number,               !- Schedule Type Limits Name
    /Users/alizad/PycharmProjects/mubes-ubem/examples/ForTest/InputFiles/domestic_hot_water_40_apartments.txt,    !- File Name
    1,                        !- Column Number
    0,                        !- Rows to Skip at Top
    8760,                     !- Number of Hours of Data
    Comma,                    !- Column Separator
    No;                       !- Interpolate to Timestep

SCHEDULE:FILE,
    ColdWaterTemp,            !- Name
    Any Number,               !- Schedule Type Limits Name
    /Users/alizad/PycharmProjects/mubes-ubem/examples/ForTest/InputFiles/cold_water_temperature_stockholm.txt,    !- File Name
    1,                        !- Column Number
    0,                        !- Rows to Skip at Top
    8760,                     !- Number of Hours of Data
    Comma,                    !- Column Separator
    No;                       !- Interpolate to Timestep

MATERIAL,
    DefaultMaterial,          !- Name
    Rough,                    !- Roughness
    0.1,                      !- Thickness
    0.1,                      !- Conductivity
    1000,                     !- Density
    1000,                     !- Specific Heat
    0.9,                      !- Thermal Absorptance
    0.7,                      !- Solar Absorptance
    0.7;                      !- Visible Absorptance

MATERIAL,
    Basement Floor,           !- Name
    Rough,                    !- Roughness
    0.1,                      !- Thickness
    0.9,                      !- Conductivity
    2300,                     !- Density
    1000,                     !- Specific Heat
    0.9,                      !- Thermal Absorptance
    0.7,                      !- Solar Absorptance
    0.7;                      !- Visible Absorptance

MATERIAL,
    Heated1rstFloor Inertia,    !- Name
    Rough,                    !- Roughness
    0.1,                      !- Thickness
    0.9,                      !- Conductivity
    2300,                     !- Density
    1000,                     !- Specific Heat
    0.9,                      !- Thermal Absorptance
    0.7,                      !- Solar Absorptance
    0.7;                      !- Visible Absorptance

MATERIAL,
    Heated1rstFloor Insulation,    !- Name
    Rough,                    !- Roughness
    0.15,                     !- Thickness
    0.035,                    !- Conductivity
    150,                      !- Density
    1000,                     !- Specific Heat
    0.9,                      !- Thermal Absorptance
    0.7,                      !- Solar Absorptance
    0.7;                      !- Visible Absorptance

MATERIAL,
    Roof Insulation,          !- Name
    Rough,                    !- Roughness
    0.3,                      !- Thickness
    0.03,                     !- Conductivity
    150,                      !- Density
    1000,                     !- Specific Heat
    0.9,                      !- Thermal Absorptance
    0.7,                      !- Solar Absorptance
    0.7;                      !- Visible Absorptance

MATERIAL,
    Wall Inertia,             !- Name
    Rough,                    !- Roughness
    0.2,                      !- Thickness
    0.9,                      !- Conductivity
    2300,                     !- Density
    1000,                     !- Specific Heat
    0.9,                      !- Thermal Absorptance
    0.7,                      !- Solar Absorptance
    0.7;                      !- Visible Absorptance

MATERIAL,
    Wall Insulation,          !- Name
    Rough,                    !- Roughness
    0.2,                      !- Thickness
    0.03,                     !- Conductivity
    150,                      !- Density
    1000,                     !- Specific Heat
    0.9,                      !- Thermal Absorptance
    0.7,                      !- Solar Absorptance
    0.7;                      !- Visible Absorptance

MATERIAL,
    HeatedZoneIntMass,        !- Name
    Rough,                    !- Roughness
    0.1,                      !- Thickness
    0.3,                      !- Conductivity
    600,                      !- Density
    1400,                     !- Specific Heat
    0.9,                      !- Thermal Absorptance
    0.7,                      !- Solar Absorptance
    0.7;                      !- Visible Absorptance

MATERIAL,
    AirWallMaterial,          !- Name
    MediumSmooth,             !- Roughness
    0.01,                     !- Thickness
    0.6,                      !- Conductivity
    800,                      !- Density
    1000,                     !- Specific Heat
    0.95,                     !- Thermal Absorptance
    0.7,                      !- Solar Absorptance
    0.7;                      !- Visible Absorptance

WINDOWMATERIAL:SIMPLEGLAZINGSYSTEM,
    DefaultGlazing,           !- Name
    2.7,                      !- UFactor
    0.763,                    !- Solar Heat Gain Coefficient
    0.8;                      !- Visible Transmittance

WINDOWMATERIAL:SIMPLEGLAZINGSYSTEM,
    Window,                   !- Name
    1.9,                      !- UFactor
    0.7,                      !- Solar Heat Gain Coefficient
    0.8;                      !- Visible Transmittance

CONSTRUCTION,
    Project Wall,             !- Name
    Wall Inertia,             !- Outside Layer
    Wall Insulation;          !- Layer 2

CONSTRUCTION,
    Project Flat Roof,        !- Name
    Roof Insulation;          !- Outside Layer

CONSTRUCTION,
    Project External Window,    !- Name
    Window;                   !- Outside Layer

CONSTRUCTION,
    Project Heated1rstFloor,    !- Name
    Heated1rstFloor Inertia,    !- Outside Layer
    Heated1rstFloor Insulation;    !- Layer 2

CONSTRUCTION,
    HeatedZoneIntMassObj,     !- Name
    HeatedZoneIntMass;        !- Outside Layer

GlobalGeometryRules,
    UpperLeftCorner,          !- Starting Vertex Position
    CounterClockWise,         !- Vertex Entry Direction
    World;                    !- Coordinate System

ZONE,
    Block Build0_Alt0 Storey 0,    !- Name
    0,                        !- Direction of Relative North
    0,                        !- X Origin
    0,                        !- Y Origin
    0,                        !- Z Origin
    1,                        !- Type
    1,                        !- Multiplier
    autocalculate,            !- Ceiling Height
    autocalculate,            !- Volume
    autocalculate,            !- Floor Area
    ,                         !- Zone Inside Convection Algorithm
    ,                         !- Zone Outside Convection Algorithm
    Yes;                      !- Part of Total Floor Area

BUILDINGSURFACE:DETAILED,
    Block Build0_Alt0 Storey 0 Wall 0001,    !- Name
    wall,                     !- Surface Type
    Project Wall,             !- Construction Name
    Block Build0_Alt0 Storey 0,    !- Zone Name
    outdoors,                 !- Outside Boundary Condition
    ,                         !- Outside Boundary Condition Object
    SunExposed,               !- Sun Exposure
    WindExposed,              !- Wind Exposure
    autocalculate,            !- View Factor to Ground
    autocalculate,            !- Number of Vertices
    5.5786,                   !- Vertex 1 Xcoordinate
    -9.552,                   !- Vertex 1 Ycoordinate
    6,                        !- Vertex 1 Zcoordinate
    5.5786,                   !- Vertex 2 Xcoordinate
    -9.552,                   !- Vertex 2 Ycoordinate
    0,                        !- Vertex 2 Zcoordinate
    13.7716,                  !- Vertex 3 Xcoordinate
    -3.267,                   !- Vertex 3 Ycoordinate
    0,                        !- Vertex 3 Zcoordinate
    13.7716,                  !- Vertex 4 Xcoordinate
    -3.267,                   !- Vertex 4 Ycoordinate
    6;                        !- Vertex 4 Zcoordinate

BUILDINGSURFACE:DETAILED,
    Block Build0_Alt0 Storey 0 Wall 0002,    !- Name
    wall,                     !- Surface Type
    Project Wall,             !- Construction Name
    Block Build0_Alt0 Storey 0,    !- Zone Name
    outdoors,                 !- Outside Boundary Condition
    ,                         !- Outside Boundary Condition Object
    SunExposed,               !- Sun Exposure
    WindExposed,              !- Wind Exposure
    autocalculate,            !- View Factor to Ground
    autocalculate,            !- Number of Vertices
    13.7716,                  !- Vertex 1 Xcoordinate
    -3.267,                   !- Vertex 1 Ycoordinate
    6,                        !- Vertex 1 Zcoordinate
    13.7716,                  !- Vertex 2 Xcoordinate
    -3.267,                   !- Vertex 2 Ycoordinate
    0,                        !- Vertex 2 Zcoordinate
    -0.1194,                  !- Vertex 3 Xcoordinate
    14.987,                   !- Vertex 3 Ycoordinate
    0,                        !- Vertex 3 Zcoordinate
    -0.1194,                  !- Vertex 4 Xcoordinate
    14.987,                   !- Vertex 4 Ycoordinate
    6;                        !- Vertex 4 Zcoordinate

BUILDINGSURFACE:DETAILED,
    Block Build0_Alt0 Storey 0 Wall 0003,    !- Name
    wall,                     !- Surface Type
    Project Wall,             !- Construction Name
    Block Build0_Alt0 Storey 0,    !- Zone Name
    outdoors,                 !- Outside Boundary Condition
    ,                         !- Outside Boundary Condition Object
    SunExposed,               !- Sun Exposure
    WindExposed,              !- Wind Exposure
    autocalculate,            !- View Factor to Ground
    autocalculate,            !- Number of Vertices
    -0.1194,                  !- Vertex 1 Xcoordinate
    14.987,                   !- Vertex 1 Ycoordinate
    6,                        !- Vertex 1 Zcoordinate
    -0.1194,                  !- Vertex 2 Xcoordinate
    14.987,                   !- Vertex 2 Ycoordinate
    0,                        !- Vertex 2 Zcoordinate
    -8.3354,                  !- Vertex 3 Xcoordinate
    8.717,                    !- Vertex 3 Ycoordinate
    0,                        !- Vertex 3 Zcoordinate
    -8.3354,                  !- Vertex 4 Xcoordinate
    8.717,                    !- Vertex 4 Ycoordinate
    6;                        !- Vertex 4 Zcoordinate

BUILDINGSURFACE:DETAILED,
    Block Build0_Alt0 Storey 0 Wall 0004,    !- Name
    wall,                     !- Surface Type
    Project Wall,             !- Construction Name
    Block Build0_Alt0 Storey 0,    !- Zone Name
    outdoors,                 !- Outside Boundary Condition
    ,                         !- Outside Boundary Condition Object
    SunExposed,               !- Sun Exposure
    WindExposed,              !- Wind Exposure
    autocalculate,            !- View Factor to Ground
    autocalculate,            !- Number of Vertices
    -8.3354,                  !- Vertex 1 Xcoordinate
    8.717,                    !- Vertex 1 Ycoordinate
    6,                        !- Vertex 1 Zcoordinate
    -8.3354,                  !- Vertex 2 Xcoordinate
    8.717,                    !- Vertex 2 Ycoordinate
    0,                        !- Vertex 2 Zcoordinate
    5.5786,                   !- Vertex 3 Xcoordinate
    -9.552,                   !- Vertex 3 Ycoordinate
    0,                        !- Vertex 3 Zcoordinate
    5.5786,                   !- Vertex 4 Xcoordinate
    -9.552,                   !- Vertex 4 Ycoordinate
    6;                        !- Vertex 4 Zcoordinate

BUILDINGSURFACE:DETAILED,
    Block Build0_Alt0 Storey 0 Floor 0001,    !- Name
    floor,                    !- Surface Type
    Project Heated1rstFloor,    !- Construction Name
    Block Build0_Alt0 Storey 0,    !- Zone Name
    ground,                   !- Outside Boundary Condition
    ,                         !- Outside Boundary Condition Object
    NoSun,                    !- Sun Exposure
    NoWind,                   !- Wind Exposure
    autocalculate,            !- View Factor to Ground
    autocalculate,            !- Number of Vertices
    -0.1194,                  !- Vertex 1 Xcoordinate
    14.987,                   !- Vertex 1 Ycoordinate
    0,                        !- Vertex 1 Zcoordinate
    13.7716,                  !- Vertex 2 Xcoordinate
    -3.267,                   !- Vertex 2 Ycoordinate
    0,                        !- Vertex 2 Zcoordinate
    5.5786,                   !- Vertex 3 Xcoordinate
    -9.552,                   !- Vertex 3 Ycoordinate
    0,                        !- Vertex 3 Zcoordinate
    -8.3354,                  !- Vertex 4 Xcoordinate
    8.717,                    !- Vertex 4 Ycoordinate
    0;                        !- Vertex 4 Zcoordinate

BUILDINGSURFACE:DETAILED,
    Block Build0_Alt0 Storey 0 Roof 0001,    !- Name
    roof,                     !- Surface Type
    Project Flat Roof,        !- Construction Name
    Block Build0_Alt0 Storey 0,    !- Zone Name
    outdoors,                 !- Outside Boundary Condition
    ,                         !- Outside Boundary Condition Object
    SunExposed,               !- Sun Exposure
    WindExposed,              !- Wind Exposure
    autocalculate,            !- View Factor to Ground
    autocalculate,            !- Number of Vertices
    13.7716,                  !- Vertex 1 Xcoordinate
    -3.267,                   !- Vertex 1 Ycoordinate
    6,                        !- Vertex 1 Zcoordinate
    -0.1194,                  !- Vertex 2 Xcoordinate
    14.987,                   !- Vertex 2 Ycoordinate
    6,                        !- Vertex 2 Zcoordinate
    -8.3354,                  !- Vertex 3 Xcoordinate
    8.717,                    !- Vertex 3 Ycoordinate
    6,                        !- Vertex 3 Zcoordinate
    5.5786,                   !- Vertex 4 Xcoordinate
    -9.552,                   !- Vertex 4 Ycoordinate
    6;                        !- Vertex 4 Zcoordinate

FENESTRATIONSURFACE:DETAILED,
    Block Build0_Alt0 Storey 0 Wall 0001 window,    !- Name
    Window,                   !- Surface Type
    Project External Window,    !- Construction Name
    Block Build0_Alt0 Storey 0 Wall 0001,    !- Building Surface Name
    ,                         !- Outside Boundary Condition Object
    autocalculate,            !- View Factor to Ground
    ,                         !- Frame and Divider Name
    1.0,                      !- Multiplier
    autocalculate,            !- Number of Vertices
    5.5826965,                !- Vertex 1 Xcoordinate
    -9.5488575,               !- Vertex 1 Ycoordinate
    3.9,                      !- Vertex 1 Zcoordinate
    5.5826965,                !- Vertex 2 Xcoordinate
    -9.5488575,               !- Vertex 2 Ycoordinate
    2.1,                      !- Vertex 2 Zcoordinate
    13.7675035,               !- Vertex 3 Xcoordinate
    -3.2701425,               !- Vertex 3 Ycoordinate
    2.1,                      !- Vertex 3 Zcoordinate
    13.7675035,               !- Vertex 4 Xcoordinate
    -3.2701425,               !- Vertex 4 Ycoordinate
    3.9;                      !- Vertex 4 Zcoordinate

FENESTRATIONSURFACE:DETAILED,
    Block Build0_Alt0 Storey 0 Wall 0002 window,    !- Name
    Window,                   !- Surface Type
    Project External Window,    !- Construction Name
    Block Build0_Alt0 Storey 0 Wall 0002,    !- Building Surface Name
    ,                         !- Outside Boundary Condition Object
    autocalculate,            !- View Factor to Ground
    ,                         !- Frame and Divider Name
    1.0,                      !- Multiplier
    autocalculate,            !- Number of Vertices
    13.764654499999999,       !- Vertex 1 Xcoordinate
    -3.257873,                !- Vertex 1 Ycoordinate
    3.9,                      !- Vertex 1 Zcoordinate
    13.764654499999999,       !- Vertex 2 Xcoordinate
    -3.257873,                !- Vertex 2 Ycoordinate
    2.1,                      !- Vertex 2 Zcoordinate
    -1.124545e-01,            !- Vertex 3 Xcoordinate
    14.977873,                !- Vertex 3 Ycoordinate
    2.1,                      !- Vertex 3 Zcoordinate
    -1.124545e-01,            !- Vertex 4 Xcoordinate
    14.977873,                !- Vertex 4 Ycoordinate
    3.9;                      !- Vertex 4 Zcoordinate

FENESTRATIONSURFACE:DETAILED,
    Block Build0_Alt0 Storey 0 Wall 0003 window,    !- Name
    Window,                   !- Surface Type
    Project External Window,    !- Construction Name
    Block Build0_Alt0 Storey 0 Wall 0003,    !- Building Surface Name
    ,                         !- Outside Boundary Condition Object
    autocalculate,            !- View Factor to Ground
    ,                         !- Frame and Divider Name
    1.0,                      !- Multiplier
    autocalculate,            !- Number of Vertices
    -1.235080e-01,            !- Vertex 1 Xcoordinate
    14.983865,                !- Vertex 1 Ycoordinate
    3.9,                      !- Vertex 1 Zcoordinate
    -1.235080e-01,            !- Vertex 2 Xcoordinate
    14.983865,                !- Vertex 2 Ycoordinate
    2.1,                      !- Vertex 2 Zcoordinate
    -8.331292,                !- Vertex 3 Xcoordinate
    8.720135,                 !- Vertex 3 Ycoordinate
    2.1,                      !- Vertex 3 Zcoordinate
    -8.331292,                !- Vertex 4 Xcoordinate
    8.720135,                 !- Vertex 4 Ycoordinate
    3.9;                      !- Vertex 4 Zcoordinate

FENESTRATIONSURFACE:DETAILED,
    Block Build0_Alt0 Storey 0 Wall 0004 window,    !- Name
    Window,                   !- Surface Type
    Project External Window,    !- Construction Name
    Block Build0_Alt0 Storey 0 Wall 0004,    !- Building Surface Name
    ,                         !- Outside Boundary Condition Object
    autocalculate,            !- View Factor to Ground
    ,                         !- Frame and Divider Name
    1.0,                      !- Multiplier
    autocalculate,            !- Number of Vertices
    -8.328443,                !- Vertex 1 Xcoordinate
    8.7078655,                !- Vertex 1 Ycoordinate
    3.9,                      !- Vertex 1 Zcoordinate
    -8.328443,                !- Vertex 2 Xcoordinate
    8.7078655,                !- Vertex 2 Ycoordinate
    2.1,                      !- Vertex 2 Zcoordinate
    5.571643,                 !- Vertex 3 Xcoordinate
    -9.542865499999998,       !- Vertex 3 Ycoordinate
    2.1,                      !- Vertex 3 Zcoordinate
    5.571643,                 !- Vertex 4 Xcoordinate
    -9.542865499999998,       !- Vertex 4 Ycoordinate
    3.9;                      !- Vertex 4 Zcoordinate

INTERNALMASS,
    Block Build0_Alt0 Storey 0IntMass,    !- Name
    HeatedZoneIntMassObj,     !- Construction Name
    Block Build0_Alt0 Storey 0,    !- Zone or ZoneList Name
    948;                      !- Surface Area

SHADING:SITE:DETAILED,
    Shading_V18_1,            !- Name
    ,                         !- Transmittance Schedule Name
    autocalculate,            !- Number of Vertices
    149.1266,                 !- Vertex 1 Xcoordinate
    -68.003,                  !- Vertex 1 Ycoordinate
    6.6,                      !- Vertex 1 Zcoordinate
    149.1266,                 !- Vertex 2 Xcoordinate
    -68.003,                  !- Vertex 2 Ycoordinate
    0,                        !- Vertex 2 Zcoordinate
    139.5086,                 !- Vertex 3 Xcoordinate
    -71.684,                  !- Vertex 3 Ycoordinate
    0,                        !- Vertex 3 Zcoordinate
    139.5086,                 !- Vertex 4 Xcoordinate
    -71.684,                  !- Vertex 4 Ycoordinate
    6.6;                      !- Vertex 4 Zcoordinate

SHADING:SITE:DETAILED,
    Shading_V19_1,            !- Name
    ,                         !- Transmittance Schedule Name
    autocalculate,            !- Number of Vertices
    139.5086,                 !- Vertex 1 Xcoordinate
    -71.684,                  !- Vertex 1 Ycoordinate
    6.6,                      !- Vertex 1 Zcoordinate
    139.5086,                 !- Vertex 2 Xcoordinate
    -71.684,                  !- Vertex 2 Ycoordinate
    0,                        !- Vertex 2 Zcoordinate
    148.6616,                 !- Vertex 3 Xcoordinate
    -95.63,                   !- Vertex 3 Ycoordinate
    0,                        !- Vertex 3 Zcoordinate
    148.6616,                 !- Vertex 4 Xcoordinate
    -95.63,                   !- Vertex 4 Ycoordinate
    6.6;                      !- Vertex 4 Zcoordinate

SHADING:SITE:DETAILED,
    Shading_V22_1,            !- Name
    ,                         !- Transmittance Schedule Name
    autocalculate,            !- Number of Vertices
    15.6576,                  !- Vertex 1 Xcoordinate
    -30.807,                  !- Vertex 1 Ycoordinate
    6.9,                      !- Vertex 1 Zcoordinate
    15.6576,                  !- Vertex 2 Xcoordinate
    -30.807,                  !- Vertex 2 Ycoordinate
    0,                        !- Vertex 2 Zcoordinate
    -6.9614,                  !- Vertex 3 Xcoordinate
    -18.711,                  !- Vertex 3 Ycoordinate
    0,                        !- Vertex 3 Zcoordinate
    -6.9614,                  !- Vertex 4 Xcoordinate
    -18.711,                  !- Vertex 4 Ycoordinate
    6.9;                      !- Vertex 4 Zcoordinate

SHADING:SITE:DETAILED,
    Shading_V62_1,            !- Name
    ,                         !- Transmittance Schedule Name
    autocalculate,            !- Number of Vertices
    177.7436,                 !- Vertex 1 Xcoordinate
    -24.854,                  !- Vertex 1 Ycoordinate
    11.6,                     !- Vertex 1 Zcoordinate
    177.7436,                 !- Vertex 2 Xcoordinate
    -24.854,                  !- Vertex 2 Ycoordinate
    0,                        !- Vertex 2 Zcoordinate
    176.9268,                 !- Vertex 3 Xcoordinate
    -35.5661,                 !- Vertex 3 Ycoordinate
    0,                        !- Vertex 3 Zcoordinate
    176.9268,                 !- Vertex 4 Xcoordinate
    -35.5661,                 !- Vertex 4 Ycoordinate
    11.6;                     !- Vertex 4 Zcoordinate

SHADING:SITE:DETAILED,
    Shading_V84_1,            !- Name
    ,                         !- Transmittance Schedule Name
    autocalculate,            !- Number of Vertices
    60.8836,                  !- Vertex 1 Xcoordinate
    5.017,                    !- Vertex 1 Ycoordinate
    8,                        !- Vertex 1 Zcoordinate
    60.8836,                  !- Vertex 2 Xcoordinate
    5.017,                    !- Vertex 2 Ycoordinate
    0,                        !- Vertex 2 Zcoordinate
    52.3566,                  !- Vertex 3 Xcoordinate
    -1.153,                   !- Vertex 3 Ycoordinate
    0,                        !- Vertex 3 Zcoordinate
    52.3566,                  !- Vertex 4 Xcoordinate
    -1.153,                   !- Vertex 4 Ycoordinate
    8;                        !- Vertex 4 Zcoordinate

SHADING:SITE:DETAILED,
    Shading_V85_1,            !- Name
    ,                         !- Transmittance Schedule Name
    autocalculate,            !- Number of Vertices
    52.3566,                  !- Vertex 1 Xcoordinate
    -1.153,                   !- Vertex 1 Ycoordinate
    8,                        !- Vertex 1 Zcoordinate
    52.3566,                  !- Vertex 2 Xcoordinate
    -1.153,                   !- Vertex 2 Ycoordinate
    0,                        !- Vertex 2 Zcoordinate
    59.0986,                  !- Vertex 3 Xcoordinate
    -10.501,                  !- Vertex 3 Ycoordinate
    0,                        !- Vertex 3 Zcoordinate
    59.0986,                  !- Vertex 4 Xcoordinate
    -10.501,                  !- Vertex 4 Ycoordinate
    8;                        !- Vertex 4 Zcoordinate

SHADING:SITE:DETAILED,
    Shading_V169_1,           !- Name
    ,                         !- Transmittance Schedule Name
    autocalculate,            !- Number of Vertices
    61.6956,                  !- Vertex 1 Xcoordinate
    36.404,                   !- Vertex 1 Ycoordinate
    9,                        !- Vertex 1 Zcoordinate
    61.6956,                  !- Vertex 2 Xcoordinate
    36.404,                   !- Vertex 2 Ycoordinate
    0,                        !- Vertex 2 Zcoordinate
    70.7906,                  !- Vertex 3 Xcoordinate
    21.968,                   !- Vertex 3 Ycoordinate
    0,                        !- Vertex 3 Zcoordinate
    70.7906,                  !- Vertex 4 Xcoordinate
    21.968,                   !- Vertex 4 Ycoordinate
    9;                        !- Vertex 4 Zcoordinate

SHADING:SITE:DETAILED,
    Shading_V172_1,           !- Name
    ,                         !- Transmittance Schedule Name
    autocalculate,            !- Number of Vertices
    129.469,                  !- Vertex 1 Xcoordinate
    31.2376,                  !- Vertex 1 Ycoordinate
    19.2,                     !- Vertex 1 Zcoordinate
    129.469,                  !- Vertex 2 Xcoordinate
    31.2376,                  !- Vertex 2 Ycoordinate
    0,                        !- Vertex 2 Zcoordinate
    134.6416,                 !- Vertex 3 Xcoordinate
    25.217,                   !- Vertex 3 Ycoordinate
    0,                        !- Vertex 3 Zcoordinate
    134.6416,                 !- Vertex 4 Xcoordinate
    25.217,                   !- Vertex 4 Ycoordinate
    19.2;                     !- Vertex 4 Zcoordinate

SHADING:SITE:DETAILED,
    Shading_V173_1,           !- Name
    ,                         !- Transmittance Schedule Name
    autocalculate,            !- Number of Vertices
    134.6416,                 !- Vertex 1 Xcoordinate
    25.217,                   !- Vertex 1 Ycoordinate
    19.2,                     !- Vertex 1 Zcoordinate
    134.6416,                 !- Vertex 2 Xcoordinate
    25.217,                   !- Vertex 2 Ycoordinate
    0,                        !- Vertex 2 Zcoordinate
    127.4666,                 !- Vertex 3 Xcoordinate
    19.096,                   !- Vertex 3 Ycoordinate
    0,                        !- Vertex 3 Zcoordinate
    127.4666,                 !- Vertex 4 Xcoordinate
    19.096,                   !- Vertex 4 Ycoordinate
    19.2;                     !- Vertex 4 Zcoordinate

SHADING:SITE:DETAILED,
    Shading_V289_1,           !- Name
    ,                         !- Transmittance Schedule Name
    autocalculate,            !- Number of Vertices
    85.8586,                  !- Vertex 1 Xcoordinate
    -77.892,                  !- Vertex 1 Ycoordinate
    7.8,                      !- Vertex 1 Zcoordinate
    85.8586,                  !- Vertex 2 Xcoordinate
    -77.892,                  !- Vertex 2 Ycoordinate
    0,                        !- Vertex 2 Zcoordinate
    77.3126,                  !- Vertex 3 Xcoordinate
    -79.938,                  !- Vertex 3 Ycoordinate
    0,                        !- Vertex 3 Zcoordinate
    77.3126,                  !- Vertex 4 Xcoordinate
    -79.938,                  !- Vertex 4 Ycoordinate
    7.8;                      !- Vertex 4 Zcoordinate

SHADING:SITE:DETAILED,
    Shading_V290_1,           !- Name
    ,                         !- Transmittance Schedule Name
    autocalculate,            !- Number of Vertices
    77.3126,                  !- Vertex 1 Xcoordinate
    -79.938,                  !- Vertex 1 Ycoordinate
    7.8,                      !- Vertex 1 Zcoordinate
    77.3126,                  !- Vertex 2 Xcoordinate
    -79.938,                  !- Vertex 2 Ycoordinate
    0,                        !- Vertex 2 Zcoordinate
    81.3826,                  !- Vertex 3 Xcoordinate
    -96.927,                  !- Vertex 3 Ycoordinate
    0,                        !- Vertex 3 Zcoordinate
    81.3826,                  !- Vertex 4 Xcoordinate
    -96.927,                  !- Vertex 4 Ycoordinate
    7.8;                      !- Vertex 4 Zcoordinate

SHADING:SITE:DETAILED,
    Shading_V347_1,           !- Name
    ,                         !- Transmittance Schedule Name
    autocalculate,            !- Number of Vertices
    115.6447,                 !- Vertex 1 Xcoordinate
    38.3891,                  !- Vertex 1 Ycoordinate
    12.2,                     !- Vertex 1 Zcoordinate
    115.6447,                 !- Vertex 2 Xcoordinate
    38.3891,                  !- Vertex 2 Ycoordinate
    0,                        !- Vertex 2 Zcoordinate
    123.8556,                 !- Vertex 3 Xcoordinate
    37.771,                   !- Vertex 3 Ycoordinate
    0,                        !- Vertex 3 Zcoordinate
    123.8556,                 !- Vertex 4 Xcoordinate
    37.771,                   !- Vertex 4 Ycoordinate
    12.2;                     !- Vertex 4 Zcoordinate

SHADING:SITE:DETAILED,
    Shading_V348_1,           !- Name
    ,                         !- Transmittance Schedule Name
    autocalculate,            !- Number of Vertices
    123.8556,                 !- Vertex 1 Xcoordinate
    37.771,                   !- Vertex 1 Ycoordinate
    12.2,                     !- Vertex 1 Zcoordinate
    123.8556,                 !- Vertex 2 Xcoordinate
    37.771,                   !- Vertex 2 Ycoordinate
    0,                        !- Vertex 2 Zcoordinate
    129.469,                  !- Vertex 3 Xcoordinate
    31.2376,                  !- Vertex 3 Ycoordinate
    0,                        !- Vertex 3 Zcoordinate
    129.469,                  !- Vertex 4 Xcoordinate
    31.2376,                  !- Vertex 4 Ycoordinate
    12.2;                     !- Vertex 4 Zcoordinate

SHADING:SITE:DETAILED,
    Shading_V449_1,           !- Name
    ,                         !- Transmittance Schedule Name
    autocalculate,            !- Number of Vertices
    46.0336,                  !- Vertex 1 Xcoordinate
    -72.442,                  !- Vertex 1 Ycoordinate
    6.4,                      !- Vertex 1 Zcoordinate
    46.0336,                  !- Vertex 2 Xcoordinate
    -72.442,                  !- Vertex 2 Ycoordinate
    0,                        !- Vertex 2 Zcoordinate
    36.0166,                  !- Vertex 3 Xcoordinate
    -74.843,                  !- Vertex 3 Ycoordinate
    0,                        !- Vertex 3 Zcoordinate
    36.0166,                  !- Vertex 4 Xcoordinate
    -74.843,                  !- Vertex 4 Ycoordinate
    6.4;                      !- Vertex 4 Zcoordinate

SHADING:SITE:DETAILED,
    Shading_V450_1,           !- Name
    ,                         !- Transmittance Schedule Name
    autocalculate,            !- Number of Vertices
    36.0166,                  !- Vertex 1 Xcoordinate
    -74.843,                  !- Vertex 1 Ycoordinate
    6.4,                      !- Vertex 1 Zcoordinate
    36.0166,                  !- Vertex 2 Xcoordinate
    -74.843,                  !- Vertex 2 Ycoordinate
    0,                        !- Vertex 2 Zcoordinate
    42.8256,                  !- Vertex 3 Xcoordinate
    -103.027,                 !- Vertex 3 Ycoordinate
    0,                        !- Vertex 3 Zcoordinate
    42.8256,                  !- Vertex 4 Xcoordinate
    -103.027,                 !- Vertex 4 Ycoordinate
    6.4;                      !- Vertex 4 Zcoordinate

SHADING:SITE:DETAILED,
    Shading_V453_1,           !- Name
    ,                         !- Transmittance Schedule Name
    autocalculate,            !- Number of Vertices
    176.9268,                 !- Vertex 1 Xcoordinate
    -35.5661,                 !- Vertex 1 Ycoordinate
    18.8,                     !- Vertex 1 Zcoordinate
    176.9268,                 !- Vertex 2 Xcoordinate
    -35.5661,                 !- Vertex 2 Ycoordinate
    0,                        !- Vertex 2 Zcoordinate
    176.3286,                 !- Vertex 3 Xcoordinate
    -43.411,                  !- Vertex 3 Ycoordinate
    0,                        !- Vertex 3 Zcoordinate
    176.3286,                 !- Vertex 4 Xcoordinate
    -43.411,                  !- Vertex 4 Ycoordinate
    18.8;                     !- Vertex 4 Zcoordinate

SHADING:SITE:DETAILED,
    Shading_V454_1,           !- Name
    ,                         !- Transmittance Schedule Name
    autocalculate,            !- Number of Vertices
    176.3286,                 !- Vertex 1 Xcoordinate
    -43.411,                  !- Vertex 1 Ycoordinate
    18.8,                     !- Vertex 1 Zcoordinate
    176.3286,                 !- Vertex 2 Xcoordinate
    -43.411,                  !- Vertex 2 Ycoordinate
    0,                        !- Vertex 2 Zcoordinate
    166.9106,                 !- Vertex 3 Xcoordinate
    -42.71,                   !- Vertex 3 Ycoordinate
    0,                        !- Vertex 3 Zcoordinate
    166.9106,                 !- Vertex 4 Xcoordinate
    -42.71,                   !- Vertex 4 Ycoordinate
    18.8;                     !- Vertex 4 Zcoordinate

SHADING:SITE:DETAILED,
    Shading_V455_1,           !- Name
    ,                         !- Transmittance Schedule Name
    autocalculate,            !- Number of Vertices
    166.9106,                 !- Vertex 1 Xcoordinate
    -42.71,                   !- Vertex 1 Ycoordinate
    18.8,                     !- Vertex 1 Zcoordinate
    166.9106,                 !- Vertex 2 Xcoordinate
    -42.71,                   !- Vertex 2 Ycoordinate
    0,                        !- Vertex 2 Zcoordinate
    165.9656,                 !- Vertex 3 Xcoordinate
    -55.335,                  !- Vertex 3 Ycoordinate
    0,                        !- Vertex 3 Zcoordinate
    165.9656,                 !- Vertex 4 Xcoordinate
    -55.335,                  !- Vertex 4 Ycoordinate
    18.8;                     !- Vertex 4 Zcoordinate

SHADING:SITE:DETAILED,
    Shading_V457_1,           !- Name
    ,                         !- Transmittance Schedule Name
    autocalculate,            !- Number of Vertices
    175.3576,                 !- Vertex 1 Xcoordinate
    -56.049,                  !- Vertex 1 Ycoordinate
    18.8,                     !- Vertex 1 Zcoordinate
    175.3576,                 !- Vertex 2 Xcoordinate
    -56.049,                  !- Vertex 2 Ycoordinate
    0,                        !- Vertex 2 Zcoordinate
    174.8416,                 !- Vertex 3 Xcoordinate
    -63.681,                  !- Vertex 3 Ycoordinate
    0,                        !- Vertex 3 Zcoordinate
    174.8416,                 !- Vertex 4 Xcoordinate
    -63.681,                  !- Vertex 4 Ycoordinate
    18.8;                     !- Vertex 4 Zcoordinate

SHADING:SITE:DETAILED,
    Shading_V505_1,           !- Name
    ,                         !- Transmittance Schedule Name
    autocalculate,            !- Number of Vertices
    94.0526,                  !- Vertex 1 Xcoordinate
    -9.77,                    !- Vertex 1 Ycoordinate
    8.3,                      !- Vertex 1 Zcoordinate
    94.0526,                  !- Vertex 2 Xcoordinate
    -9.77,                    !- Vertex 2 Ycoordinate
    0,                        !- Vertex 2 Zcoordinate
    102.1736,                 !- Vertex 3 Xcoordinate
    -17.944,                  !- Vertex 3 Ycoordinate
    0,                        !- Vertex 3 Zcoordinate
    102.1736,                 !- Vertex 4 Xcoordinate
    -17.944,                  !- Vertex 4 Ycoordinate
    8.3;                      !- Vertex 4 Zcoordinate

SHADING:SITE:DETAILED,
    Shading_V2_1,             !- Name
    ,                         !- Transmittance Schedule Name
    autocalculate,            !- Number of Vertices
    75.1266,                  !- Vertex 1 Xcoordinate
    57.285,                   !- Vertex 1 Ycoordinate
    15.8,                     !- Vertex 1 Zcoordinate
    75.1266,                  !- Vertex 2 Xcoordinate
    57.285,                   !- Vertex 2 Ycoordinate
    0,                        !- Vertex 2 Zcoordinate
    81.7066,                  !- Vertex 3 Xcoordinate
    49.557,                   !- Vertex 3 Ycoordinate
    0,                        !- Vertex 3 Zcoordinate
    81.7066,                  !- Vertex 4 Xcoordinate
    49.557,                   !- Vertex 4 Ycoordinate
    15.8;                     !- Vertex 4 Zcoordinate

SHADING:SITE:DETAILED,
    Shading_V4_1,             !- Name
    ,                         !- Transmittance Schedule Name
    autocalculate,            !- Number of Vertices
    89.2046,                  !- Vertex 1 Xcoordinate
    56.017,                   !- Vertex 1 Ycoordinate
    15.8,                     !- Vertex 1 Zcoordinate
    89.2046,                  !- Vertex 2 Xcoordinate
    56.017,                   !- Vertex 2 Ycoordinate
    0,                        !- Vertex 2 Zcoordinate
    92.9096,                  !- Vertex 3 Xcoordinate
    51.689,                   !- Vertex 3 Ycoordinate
    0,                        !- Vertex 3 Zcoordinate
    92.9096,                  !- Vertex 4 Xcoordinate
    51.689,                   !- Vertex 4 Ycoordinate
    15.8;                     !- Vertex 4 Zcoordinate

SHADING:SITE:DETAILED,
    Shading_V25_1,            !- Name
    ,                         !- Transmittance Schedule Name
    autocalculate,            !- Number of Vertices
    45.8996,                  !- Vertex 1 Xcoordinate
    36.578,                   !- Vertex 1 Ycoordinate
    9,                        !- Vertex 1 Zcoordinate
    45.8996,                  !- Vertex 2 Xcoordinate
    36.578,                   !- Vertex 2 Ycoordinate
    0,                        !- Vertex 2 Zcoordinate
    54.6326,                  !- Vertex 3 Xcoordinate
    41.994,                   !- Vertex 3 Ycoordinate
    0,                        !- Vertex 3 Zcoordinate
    54.6326,                  !- Vertex 4 Xcoordinate
    41.994,                   !- Vertex 4 Ycoordinate
    9;                        !- Vertex 4 Zcoordinate

SHADING:SITE:DETAILED,
    Shading_V28_1,            !- Name
    ,                         !- Transmittance Schedule Name
    autocalculate,            !- Number of Vertices
    36.7336,                  !- Vertex 1 Xcoordinate
    51.394,                   !- Vertex 1 Ycoordinate
    9,                        !- Vertex 1 Zcoordinate
    36.7336,                  !- Vertex 2 Xcoordinate
    51.394,                   !- Vertex 2 Ycoordinate
    0,                        !- Vertex 2 Zcoordinate
    45.8996,                  !- Vertex 3 Xcoordinate
    36.578,                   !- Vertex 3 Ycoordinate
    0,                        !- Vertex 3 Zcoordinate
    45.8996,                  !- Vertex 4 Xcoordinate
    36.578,                   !- Vertex 4 Ycoordinate
    9;                        !- Vertex 4 Zcoordinate

SHADING:SITE:DETAILED,
    Shading_V168_1,           !- Name
    ,                         !- Transmittance Schedule Name
    autocalculate,            !- Number of Vertices
    70.2356,                  !- Vertex 1 Xcoordinate
    41.652,                   !- Vertex 1 Ycoordinate
    9,                        !- Vertex 1 Zcoordinate
    70.2356,                  !- Vertex 2 Xcoordinate
    41.652,                   !- Vertex 2 Ycoordinate
    0,                        !- Vertex 2 Zcoordinate
    61.6956,                  !- Vertex 3 Xcoordinate
    36.404,                   !- Vertex 3 Ycoordinate
    0,                        !- Vertex 3 Zcoordinate
    61.6956,                  !- Vertex 4 Xcoordinate
    36.404,                   !- Vertex 4 Ycoordinate
    9;                        !- Vertex 4 Zcoordinate

SHADING:SITE:DETAILED,
    Shading_V174_1,           !- Name
    ,                         !- Transmittance Schedule Name
    autocalculate,            !- Number of Vertices
    127.4666,                 !- Vertex 1 Xcoordinate
    19.096,                   !- Vertex 1 Ycoordinate
    19.2,                     !- Vertex 1 Zcoordinate
    127.4666,                 !- Vertex 2 Xcoordinate
    19.096,                   !- Vertex 2 Ycoordinate
    0,                        !- Vertex 2 Zcoordinate
    135.7696,                 !- Vertex 3 Xcoordinate
    9.469,                    !- Vertex 3 Ycoordinate
    0,                        !- Vertex 3 Zcoordinate
    135.7696,                 !- Vertex 4 Xcoordinate
    9.469,                    !- Vertex 4 Ycoordinate
    19.2;                     !- Vertex 4 Zcoordinate

SHADING:SITE:DETAILED,
    Shading_V227_1,           !- Name
    ,                         !- Transmittance Schedule Name
    autocalculate,            !- Number of Vertices
    2.9411,                   !- Vertex 1 Xcoordinate
    131.2587,                 !- Vertex 1 Ycoordinate
    11.3,                     !- Vertex 1 Zcoordinate
    2.9411,                   !- Vertex 2 Xcoordinate
    131.2587,                 !- Vertex 2 Ycoordinate
    0,                        !- Vertex 2 Zcoordinate
    13.7086,                  !- Vertex 3 Xcoordinate
    130.46,                   !- Vertex 3 Ycoordinate
    0,                        !- Vertex 3 Zcoordinate
    13.7086,                  !- Vertex 4 Xcoordinate
    130.46,                   !- Vertex 4 Ycoordinate
    11.3;                     !- Vertex 4 Zcoordinate

SHADING:SITE:DETAILED,
    Shading_V228_1,           !- Name
    ,                         !- Transmittance Schedule Name
    autocalculate,            !- Number of Vertices
    13.7086,                  !- Vertex 1 Xcoordinate
    130.46,                   !- Vertex 1 Ycoordinate
    11.3,                     !- Vertex 1 Zcoordinate
    13.7086,                  !- Vertex 2 Xcoordinate
    130.46,                   !- Vertex 2 Ycoordinate
    0,                        !- Vertex 2 Zcoordinate
    19.7896,                  !- Vertex 3 Xcoordinate
    123.435,                  !- Vertex 3 Ycoordinate
    0,                        !- Vertex 3 Zcoordinate
    19.7896,                  !- Vertex 4 Xcoordinate
    123.435,                  !- Vertex 4 Ycoordinate
    11.3;                     !- Vertex 4 Zcoordinate

SHADING:SITE:DETAILED,
    Shading_V229_1,           !- Name
    ,                         !- Transmittance Schedule Name
    autocalculate,            !- Number of Vertices
    19.7896,                  !- Vertex 1 Xcoordinate
    123.435,                  !- Vertex 1 Ycoordinate
    11.3,                     !- Vertex 1 Zcoordinate
    19.7896,                  !- Vertex 2 Xcoordinate
    123.435,                  !- Vertex 2 Ycoordinate
    0,                        !- Vertex 2 Zcoordinate
    27.4296,                  !- Vertex 3 Xcoordinate
    130.022,                  !- Vertex 3 Ycoordinate
    0,                        !- Vertex 3 Zcoordinate
    27.4296,                  !- Vertex 4 Xcoordinate
    130.022,                  !- Vertex 4 Ycoordinate
    11.3;                     !- Vertex 4 Zcoordinate

SHADING:SITE:DETAILED,
    Shading_V272_1,           !- Name
    ,                         !- Transmittance Schedule Name
    autocalculate,            !- Number of Vertices
    -25.3024,                 !- Vertex 1 Xcoordinate
    133.382,                  !- Vertex 1 Ycoordinate
    17.1,                     !- Vertex 1 Zcoordinate
    -25.3024,                 !- Vertex 2 Xcoordinate
    133.382,                  !- Vertex 2 Ycoordinate
    0,                        !- Vertex 2 Zcoordinate
    -17.7004,                 !- Vertex 3 Xcoordinate
    132.849,                  !- Vertex 3 Ycoordinate
    0,                        !- Vertex 3 Zcoordinate
    -17.7004,                 !- Vertex 4 Xcoordinate
    132.849,                  !- Vertex 4 Ycoordinate
    17.1;                     !- Vertex 4 Zcoordinate

SHADING:SITE:DETAILED,
    Shading_V274_1,           !- Name
    ,                         !- Transmittance Schedule Name
    autocalculate,            !- Number of Vertices
    -18.4334,                 !- Vertex 1 Xcoordinate
    123.449,                  !- Vertex 1 Ycoordinate
    17.1,                     !- Vertex 1 Zcoordinate
    -18.4334,                 !- Vertex 2 Xcoordinate
    123.449,                  !- Vertex 2 Ycoordinate
    0,                        !- Vertex 2 Zcoordinate
    -5.7914,                  !- Vertex 3 Xcoordinate
    122.462,                  !- Vertex 3 Ycoordinate
    0,                        !- Vertex 3 Zcoordinate
    -5.7914,                  !- Vertex 4 Xcoordinate
    122.462,                  !- Vertex 4 Ycoordinate
    17.1;                     !- Vertex 4 Zcoordinate

SHADING:SITE:DETAILED,
    Shading_V275_1,           !- Name
    ,                         !- Transmittance Schedule Name
    autocalculate,            !- Number of Vertices
    -5.7914,                  !- Vertex 1 Xcoordinate
    122.462,                  !- Vertex 1 Ycoordinate
    17.1,                     !- Vertex 1 Zcoordinate
    -5.7914,                  !- Vertex 2 Xcoordinate
    122.462,                  !- Vertex 2 Ycoordinate
    0,                        !- Vertex 2 Zcoordinate
    -5.0574,                  !- Vertex 3 Xcoordinate
    131.852,                  !- Vertex 3 Ycoordinate
    0,                        !- Vertex 3 Zcoordinate
    -5.0574,                  !- Vertex 4 Xcoordinate
    131.852,                  !- Vertex 4 Ycoordinate
    17.1;                     !- Vertex 4 Zcoordinate

SHADING:SITE:DETAILED,
    Shading_V276_1,           !- Name
    ,                         !- Transmittance Schedule Name
    autocalculate,            !- Number of Vertices
    -5.0574,                  !- Vertex 1 Xcoordinate
    131.852,                  !- Vertex 1 Ycoordinate
    17.1,                     !- Vertex 1 Zcoordinate
    -5.0574,                  !- Vertex 2 Xcoordinate
    131.852,                  !- Vertex 2 Ycoordinate
    0,                        !- Vertex 2 Zcoordinate
    2.9411,                   !- Vertex 3 Xcoordinate
    131.2587,                 !- Vertex 3 Ycoordinate
    0,                        !- Vertex 3 Zcoordinate
    2.9411,                   !- Vertex 4 Xcoordinate
    131.2587,                 !- Vertex 4 Ycoordinate
    17.1;                     !- Vertex 4 Zcoordinate

SHADING:SITE:DETAILED,
    Shading_V280_1,           !- Name
    ,                         !- Transmittance Schedule Name
    autocalculate,            !- Number of Vertices
    34.8526,                  !- Vertex 1 Xcoordinate
    126.699,                  !- Vertex 1 Ycoordinate
    18.7,                     !- Vertex 1 Zcoordinate
    34.8526,                  !- Vertex 2 Xcoordinate
    126.699,                  !- Vertex 2 Ycoordinate
    0,                        !- Vertex 2 Zcoordinate
    43.1166,                  !- Vertex 3 Xcoordinate
    117.076,                  !- Vertex 3 Ycoordinate
    0,                        !- Vertex 3 Zcoordinate
    43.1166,                  !- Vertex 4 Xcoordinate
    117.076,                  !- Vertex 4 Ycoordinate
    18.7;                     !- Vertex 4 Zcoordinate

SHADING:SITE:DETAILED,
    Shading_V281_1,           !- Name
    ,                         !- Transmittance Schedule Name
    autocalculate,            !- Number of Vertices
    43.1166,                  !- Vertex 1 Xcoordinate
    117.076,                  !- Vertex 1 Ycoordinate
    18.7,                     !- Vertex 1 Zcoordinate
    43.1166,                  !- Vertex 2 Xcoordinate
    117.076,                  !- Vertex 2 Ycoordinate
    0,                        !- Vertex 2 Zcoordinate
    50.2876,                  !- Vertex 3 Xcoordinate
    123.242,                  !- Vertex 3 Ycoordinate
    0,                        !- Vertex 3 Zcoordinate
    50.2876,                  !- Vertex 4 Xcoordinate
    123.242,                  !- Vertex 4 Ycoordinate
    18.7;                     !- Vertex 4 Zcoordinate

SHADING:SITE:DETAILED,
    Shading_V282_1,           !- Name
    ,                         !- Transmittance Schedule Name
    autocalculate,            !- Number of Vertices
    50.2876,                  !- Vertex 1 Xcoordinate
    123.242,                  !- Vertex 1 Ycoordinate
    18.7,                     !- Vertex 1 Zcoordinate
    50.2876,                  !- Vertex 2 Xcoordinate
    123.242,                  !- Vertex 2 Ycoordinate
    0,                        !- Vertex 2 Zcoordinate
    55.2706,                  !- Vertex 3 Xcoordinate
    117.439,                  !- Vertex 3 Ycoordinate
    0,                        !- Vertex 3 Zcoordinate
    55.2706,                  !- Vertex 4 Xcoordinate
    117.439,                  !- Vertex 4 Ycoordinate
    18.7;                     !- Vertex 4 Zcoordinate

SHADING:SITE:DETAILED,
    Shading_V283_1,           !- Name
    ,                         !- Transmittance Schedule Name
    autocalculate,            !- Number of Vertices
    55.2706,                  !- Vertex 1 Xcoordinate
    117.439,                  !- Vertex 1 Ycoordinate
    18.7,                     !- Vertex 1 Zcoordinate
    55.2706,                  !- Vertex 2 Xcoordinate
    117.439,                  !- Vertex 2 Ycoordinate
    0,                        !- Vertex 2 Zcoordinate
    62.9126,                  !- Vertex 3 Xcoordinate
    124.027,                  !- Vertex 3 Ycoordinate
    0,                        !- Vertex 3 Zcoordinate
    62.9126,                  !- Vertex 4 Xcoordinate
    124.027,                  !- Vertex 4 Ycoordinate
    18.7;                     !- Vertex 4 Zcoordinate

SHADING:SITE:DETAILED,
    Shading_V307_1,           !- Name
    ,                         !- Transmittance Schedule Name
    autocalculate,            !- Number of Vertices
    161.4166,                 !- Vertex 1 Xcoordinate
    9.661,                    !- Vertex 1 Ycoordinate
    18.8,                     !- Vertex 1 Zcoordinate
    161.4166,                 !- Vertex 2 Xcoordinate
    9.661,                    !- Vertex 2 Ycoordinate
    0,                        !- Vertex 2 Zcoordinate
    153.7446,                 !- Vertex 3 Xcoordinate
    3.057,                    !- Vertex 3 Ycoordinate
    0,                        !- Vertex 3 Zcoordinate
    153.7446,                 !- Vertex 4 Xcoordinate
    3.057,                    !- Vertex 4 Ycoordinate
    18.8;                     !- Vertex 4 Zcoordinate

SHADING:SITE:DETAILED,
    Shading_V345_1,           !- Name
    ,                         !- Transmittance Schedule Name
    autocalculate,            !- Number of Vertices
    -63.6384,                 !- Vertex 1 Xcoordinate
    91.912,                   !- Vertex 1 Ycoordinate
    9.8,                      !- Vertex 1 Zcoordinate
    -63.6384,                 !- Vertex 2 Xcoordinate
    91.912,                   !- Vertex 2 Ycoordinate
    0,                        !- Vertex 2 Zcoordinate
    -31.9194,                 !- Vertex 3 Xcoordinate
    73.662,                   !- Vertex 3 Ycoordinate
    0,                        !- Vertex 3 Zcoordinate
    -31.9194,                 !- Vertex 4 Xcoordinate
    73.662,                   !- Vertex 4 Ycoordinate
    9.8;                      !- Vertex 4 Zcoordinate

SHADING:SITE:DETAILED,
    Shading_V408_1,           !- Name
    ,                         !- Transmittance Schedule Name
    autocalculate,            !- Number of Vertices
    -12.8814,                 !- Vertex 1 Xcoordinate
    51.253,                   !- Vertex 1 Ycoordinate
    10.2,                     !- Vertex 1 Zcoordinate
    -12.8814,                 !- Vertex 2 Xcoordinate
    51.253,                   !- Vertex 2 Ycoordinate
    0,                        !- Vertex 2 Zcoordinate
    -5.4064,                  !- Vertex 3 Xcoordinate
    58.151,                   !- Vertex 3 Ycoordinate
    0,                        !- Vertex 3 Zcoordinate
    -5.4064,                  !- Vertex 4 Xcoordinate
    58.151,                   !- Vertex 4 Ycoordinate
    10.2;                     !- Vertex 4 Zcoordinate

SHADING:SITE:DETAILED,
    Shading_V411_1,           !- Name
    ,                         !- Transmittance Schedule Name
    autocalculate,            !- Number of Vertices
    -28.5724,                 !- Vertex 1 Xcoordinate
    69.489,                   !- Vertex 1 Ycoordinate
    10.2,                     !- Vertex 1 Zcoordinate
    -28.5724,                 !- Vertex 2 Xcoordinate
    69.489,                   !- Vertex 2 Ycoordinate
    0,                        !- Vertex 2 Zcoordinate
    -12.8814,                 !- Vertex 3 Xcoordinate
    51.253,                   !- Vertex 3 Ycoordinate
    0,                        !- Vertex 3 Zcoordinate
    -12.8814,                 !- Vertex 4 Xcoordinate
    51.253,                   !- Vertex 4 Ycoordinate
    10.2;                     !- Vertex 4 Zcoordinate

SHADING:SITE:DETAILED,
    Shading_V512_1,           !- Name
    ,                         !- Transmittance Schedule Name
    autocalculate,            !- Number of Vertices
    61.1346,                  !- Vertex 1 Xcoordinate
    110.686,                  !- Vertex 1 Ycoordinate
    19,                       !- Vertex 1 Zcoordinate
    61.1346,                  !- Vertex 2 Xcoordinate
    110.686,                  !- Vertex 2 Ycoordinate
    0,                        !- Vertex 2 Zcoordinate
    66.0866,                  !- Vertex 3 Xcoordinate
    104.881,                  !- Vertex 3 Ycoordinate
    0,                        !- Vertex 3 Zcoordinate
    66.0866,                  !- Vertex 4 Xcoordinate
    104.881,                  !- Vertex 4 Ycoordinate
    19;                       !- Vertex 4 Zcoordinate

SHADING:SITE:DETAILED,
    Shading_V514_1,           !- Name
    ,                         !- Transmittance Schedule Name
    autocalculate,            !- Number of Vertices
    58.9436,                  !- Vertex 1 Xcoordinate
    98.715,                   !- Vertex 1 Ycoordinate
    19,                       !- Vertex 1 Zcoordinate
    58.9436,                  !- Vertex 2 Xcoordinate
    98.715,                   !- Vertex 2 Ycoordinate
    0,                        !- Vertex 2 Zcoordinate
    67.2516,                  !- Vertex 3 Xcoordinate
    89.107,                   !- Vertex 3 Ycoordinate
    0,                        !- Vertex 3 Zcoordinate
    67.2516,                  !- Vertex 4 Xcoordinate
    89.107,                   !- Vertex 4 Ycoordinate
    19;                       !- Vertex 4 Zcoordinate

SHADING:SITE:DETAILED,
    Shading_V68_1,            !- Name
    ,                         !- Transmittance Schedule Name
    autocalculate,            !- Number of Vertices
    77.4546,                  !- Vertex 1 Xcoordinate
    143.856,                  !- Vertex 1 Ycoordinate
    15,                       !- Vertex 1 Zcoordinate
    77.4546,                  !- Vertex 2 Xcoordinate
    143.856,                  !- Vertex 2 Ycoordinate
    0,                        !- Vertex 2 Zcoordinate
    85.2986,                  !- Vertex 3 Xcoordinate
    150.688,                  !- Vertex 3 Ycoordinate
    0,                        !- Vertex 3 Zcoordinate
    85.2986,                  !- Vertex 4 Xcoordinate
    150.688,                  !- Vertex 4 Ycoordinate
    15;                       !- Vertex 4 Zcoordinate

SHADING:SITE:DETAILED,
    Shading_V205_1,           !- Name
    ,                         !- Transmittance Schedule Name
    autocalculate,            !- Number of Vertices
    -101.3334,                !- Vertex 1 Xcoordinate
    112.952,                  !- Vertex 1 Ycoordinate
    12.7,                     !- Vertex 1 Zcoordinate
    -101.3334,                !- Vertex 2 Xcoordinate
    112.952,                  !- Vertex 2 Ycoordinate
    0,                        !- Vertex 2 Zcoordinate
    -95.5484,                 !- Vertex 3 Xcoordinate
    117.894,                  !- Vertex 3 Ycoordinate
    0,                        !- Vertex 3 Zcoordinate
    -95.5484,                 !- Vertex 4 Xcoordinate
    117.894,                  !- Vertex 4 Ycoordinate
    12.7;                     !- Vertex 4 Zcoordinate

SHADING:SITE:DETAILED,
    Shading_V206_1,           !- Name
    ,                         !- Transmittance Schedule Name
    autocalculate,            !- Number of Vertices
    -95.5484,                 !- Vertex 1 Xcoordinate
    117.894,                  !- Vertex 1 Ycoordinate
    12.7,                     !- Vertex 1 Zcoordinate
    -95.5484,                 !- Vertex 2 Xcoordinate
    117.894,                  !- Vertex 2 Ycoordinate
    0,                        !- Vertex 2 Zcoordinate
    -89.3424,                 !- Vertex 3 Xcoordinate
    110.703,                  !- Vertex 3 Ycoordinate
    0,                        !- Vertex 3 Zcoordinate
    -89.3424,                 !- Vertex 4 Xcoordinate
    110.703,                  !- Vertex 4 Ycoordinate
    12.7;                     !- Vertex 4 Zcoordinate

SHADING:SITE:DETAILED,
    Shading_V207_1,           !- Name
    ,                         !- Transmittance Schedule Name
    autocalculate,            !- Number of Vertices
    -89.3424,                 !- Vertex 1 Xcoordinate
    110.703,                  !- Vertex 1 Ycoordinate
    12.7,                     !- Vertex 1 Zcoordinate
    -89.3424,                 !- Vertex 2 Xcoordinate
    110.703,                  !- Vertex 2 Ycoordinate
    0,                        !- Vertex 2 Zcoordinate
    -79.6954,                 !- Vertex 3 Xcoordinate
    119.018,                  !- Vertex 3 Ycoordinate
    0,                        !- Vertex 3 Zcoordinate
    -79.6954,                 !- Vertex 4 Xcoordinate
    119.018,                  !- Vertex 4 Ycoordinate
    12.7;                     !- Vertex 4 Zcoordinate

SHADING:SITE:DETAILED,
    Shading_V388_1,           !- Name
    ,                         !- Transmittance Schedule Name
    autocalculate,            !- Number of Vertices
    -23.9164,                 !- Vertex 1 Xcoordinate
    4.491,                    !- Vertex 1 Ycoordinate
    10.4,                     !- Vertex 1 Zcoordinate
    -23.9164,                 !- Vertex 2 Xcoordinate
    4.491,                    !- Vertex 2 Ycoordinate
    0,                        !- Vertex 2 Zcoordinate
    -27.4194,                 !- Vertex 3 Xcoordinate
    27.963,                   !- Vertex 3 Ycoordinate
    0,                        !- Vertex 3 Zcoordinate
    -27.4194,                 !- Vertex 4 Xcoordinate
    27.963,                   !- Vertex 4 Ycoordinate
    10.4;                     !- Vertex 4 Zcoordinate

SHADING:SITE:DETAILED,
    Shading_V515_1,           !- Name
    ,                         !- Transmittance Schedule Name
    autocalculate,            !- Number of Vertices
    67.2516,                  !- Vertex 1 Xcoordinate
    89.107,                   !- Vertex 1 Ycoordinate
    19,                       !- Vertex 1 Zcoordinate
    67.2516,                  !- Vertex 2 Xcoordinate
    89.107,                   !- Vertex 2 Ycoordinate
    0,                        !- Vertex 2 Zcoordinate
    74.3716,                  !- Vertex 3 Xcoordinate
    95.279,                   !- Vertex 3 Ycoordinate
    0,                        !- Vertex 3 Zcoordinate
    74.3716,                  !- Vertex 4 Xcoordinate
    95.279,                   !- Vertex 4 Ycoordinate
    19;                       !- Vertex 4 Zcoordinate

SHADING:SITE:DETAILED,
    Shading_V516_1,           !- Name
    ,                         !- Transmittance Schedule Name
    autocalculate,            !- Number of Vertices
    74.3716,                  !- Vertex 1 Xcoordinate
    95.279,                   !- Vertex 1 Ycoordinate
    19,                       !- Vertex 1 Zcoordinate
    74.3716,                  !- Vertex 2 Xcoordinate
    95.279,                   !- Vertex 2 Ycoordinate
    0,                        !- Vertex 2 Zcoordinate
    80.3467,                  !- Vertex 3 Xcoordinate
    88.5632,                  !- Vertex 3 Ycoordinate
    0,                        !- Vertex 3 Zcoordinate
    80.3467,                  !- Vertex 4 Xcoordinate
    88.5632,                  !- Vertex 4 Ycoordinate
    19;                       !- Vertex 4 Zcoordinate

SHADING:SITE:DETAILED,
    Shading_V23_1,            !- Name
    ,                         !- Transmittance Schedule Name
    autocalculate,            !- Number of Vertices
    -6.9614,                  !- Vertex 1 Xcoordinate
    -18.711,                  !- Vertex 1 Ycoordinate
    6.9,                      !- Vertex 1 Zcoordinate
    -6.9614,                  !- Vertex 2 Xcoordinate
    -18.711,                  !- Vertex 2 Ycoordinate
    0,                        !- Vertex 2 Zcoordinate
    -11.7534,                 !- Vertex 3 Xcoordinate
    -27.849,                  !- Vertex 3 Ycoordinate
    0,                        !- Vertex 3 Zcoordinate
    -11.7534,                 !- Vertex 4 Xcoordinate
    -27.849,                  !- Vertex 4 Ycoordinate
    6.9;                      !- Vertex 4 Zcoordinate

SHADING:SITE:DETAILED,
    Shading_V387_1,           !- Name
    ,                         !- Transmittance Schedule Name
    autocalculate,            !- Number of Vertices
    -34.1164,                 !- Vertex 1 Xcoordinate
    2.786,                    !- Vertex 1 Ycoordinate
    10.4,                     !- Vertex 1 Zcoordinate
    -34.1164,                 !- Vertex 2 Xcoordinate
    2.786,                    !- Vertex 2 Ycoordinate
    0,                        !- Vertex 2 Zcoordinate
    -23.9164,                 !- Vertex 3 Xcoordinate
    4.491,                    !- Vertex 3 Ycoordinate
    0,                        !- Vertex 3 Zcoordinate
    -23.9164,                 !- Vertex 4 Xcoordinate
    4.491,                    !- Vertex 4 Ycoordinate
    10.4;                     !- Vertex 4 Zcoordinate

ELECTRICEQUIPMENT,
    Block Build0_Alt0 Storey 0Load,    !- Name
    Block Build0_Alt0 Storey 0,    !- Zone or ZoneList Name
    LoadSchedule,             !- Schedule Name
    Watts/Area,               !- Design Level Calculation Method
    ,                         !- Design Level
    0.02,                     !- Watts per Zone Floor Area
    ,                         !- Watts per Person
    0,                        !- Fraction Latent
    0,                        !- Fraction Radiant
    0,                        !- Fraction Lost
    General;                  !- EndUse Subcategory

ZONEINFILTRATION:FLOWCOEFFICIENT,
    Block Build0_Alt0 Storey 0Leak,    !- Name
    Block Build0_Alt0 Storey 0,    !- Zone Name
    AlwaysON,                 !- Schedule Name
    4.683528e-02,             !- Flow Coefficient
    0.089,                    !- Stack Coefficient
    0.667,                    !- Pressure Exponent
    0.156,                    !- Wind Coefficient
    0.64;                     !- Shelter Factor

ZONEVENTILATION:DESIGNFLOWRATE,
    Block Build0_Alt0 Storey 0FreeCool,    !- Name
    Block Build0_Alt0 Storey 0,    !- Zone or ZoneList Name
    AlwaysON,                 !- Schedule Name
    AirChanges/Hour,          !- Design Flow Rate Calculation Method
    ,                         !- Design Flow Rate
    ,                         !- Flow Rate per Zone Floor Area
    ,                         !- Flow Rate per Person
    4,                        !- Air Changes per Hour
    Natural,                  !- Ventilation Type
    0,                        !- Fan Pressure Rise
    1,                        !- Fan Total Efficiency
    1,                        !- Constant Term Coefficient
    0,                        !- Temperature Term Coefficient
    0,                        !- Velocity Term Coefficient
    0,                        !- Velocity Squared Term Coefficient
    26,                       !- Minimum Indoor Temperature
    ,                         !- Minimum Indoor Temperature Schedule Name
    100,                      !- Maximum Indoor Temperature
    ,                         !- Maximum Indoor Temperature Schedule Name
    1,                        !- Delta Temperature
    ,                         !- Delta Temperature Schedule Name
    -100,                     !- Minimum Outdoor Temperature
    ,                         !- Minimum Outdoor Temperature Schedule Name
    100,                      !- Maximum Outdoor Temperature
    ,                         !- Maximum Outdoor Temperature Schedule Name
    40;                       !- Maximum Wind Speed

HVACTEMPLATE:THERMOSTAT,
    ResidZone,                !- Name
    ,                         !- Heating Setpoint Schedule Name
    21,                       !- Constant Heating Setpoint
    ,                         !- Cooling Setpoint Schedule Name
    50;                       !- Constant Cooling Setpoint

HVACTEMPLATE:ZONE:IDEALLOADSAIRSYSTEM,
    Block Build0_Alt0 Storey 0,    !- Zone Name
    ResidZone,                !- Template Thermostat Name
    ,                         !- System Availability Schedule Name
    50,                       !- Maximum Heating Supply Air Temperature
    13,                       !- Minimum Cooling Supply Air Temperature
    0.0156,                   !- Maximum Heating Supply Air Humidity Ratio
    0.0077,                   !- Minimum Cooling Supply Air Humidity Ratio
    NoLimit,                  !- Heating Limit
    ,                         !- Maximum Heating Air Flow Rate
    11854.971024999999,       !- Maximum Sensible Heating Capacity
    NoLimit,                  !- Cooling Limit
    ,                         !- Maximum Cooling Air Flow Rate
    ,                         !- Maximum Total Cooling Capacity
    ,                         !- Heating Availability Schedule Name
    ,                         !- Cooling Availability Schedule Name
    ConstantSensibleHeatRatio,    !- Dehumidification Control Type
    0.7,                      !- Cooling Sensible Heat Ratio
    60,                       !- Dehumidification Setpoint
    None,                     !- Humidification Control Type
    30,                       !- Humidification Setpoint
    Flow/Area,                !- Outdoor Air Method
    0.007,                    !- Outdoor Air Flow Rate per Person
    0.0007,                   !- Outdoor Air Flow Rate per Zone Floor Area
    0,                        !- Outdoor Air Flow Rate per Zone
    ,                         !- Design Specification Outdoor Air Object Name
    None,                     !- Demand Controlled Ventilation Type
    NoEconomizer,             !- Outdoor Air Economizer Type
    None,                     !- Heat Recovery Type
    0,                        !- Sensible Heat Recovery Effectiveness
    0;                        !- Latent Heat Recovery Effectiveness

OUTDOORAIR:NODE,
    Block Build0_Alt0 Storey 0 IDEAL LOADS OUTDOOR AIR INLET,    !- Name
    -1,                       !- Height Above Ground
    ,                         !- Drybulb Temperature Schedule Name
    ,                         !- Wetbulb Temperature Schedule Name
    ,                         !- Wind Speed Schedule Name
    ,                         !- Wind Direction Schedule Name
    ,                         !- Wind Pressure Coefficient Curve Name
    No,                       !- Symmetric Wind Pressure Coefficient Curve
    Absolute;                 !- Wind Angle Type

ENERGYMANAGEMENTSYSTEM:SENSOR,
    T0,                       !- Name
    Block Build0_Alt0 Storey 0,    !- OutputVariable or OutputMeter Index Key Name
    Zone Mean Air Temperature;    !- OutputVariable or OutputMeter Name

ENERGYMANAGEMENTSYSTEM:SENSOR,
    Pow0,                     !- Name
    Block Build0_Alt0 Storey 0 IDEAL LOADS AIR SYSTEM,    !- OutputVariable or OutputMeter Index Key Name
    Zone Ideal Loads Supply Air Total Heating Rate;    !- OutputVariable or OutputMeter Name

ENERGYMANAGEMENTSYSTEM:SENSOR,
    DHWPow,                   !- Name
    DHW,                      !- OutputVariable or OutputMeter Index Key Name
    Water Use Equipment Heating Rate;    !- OutputVariable or OutputMeter Name

ENERGYMANAGEMENTSYSTEM:PROGRAMCALLINGMANAGER,
    Average Building Temperature,    !- Name
    EndOfZoneTimestepBeforeZoneReporting,    !- EnergyPlus Model Calling Point
    AverageZoneTemps;         !- Program Name 1

ENERGYMANAGEMENTSYSTEM:PROGRAMCALLINGMANAGER,
    Compute Total Building Heat Pow,    !- Name
    EndOfZoneTimestepBeforeZoneReporting,    !- EnergyPlus Model Calling Point
    TotZonePow;               !- Program Name 1

ENERGYMANAGEMENTSYSTEM:PROGRAMCALLINGMANAGER,
    Compute Total DHW Heat Pow,    !- Name
    EndOfZoneTimestepBeforeZoneReporting,    !- EnergyPlus Model Calling Point
    prgmDHWPow;               !- Program Name 1

ENERGYMANAGEMENTSYSTEM:PROGRAM,
    AverageZoneTemps,         !- Name
    SET SumNumerator = T0*Vol0,    !- Program Line 1
    SET SumDenominator  = Vol0,    !- Program Line 2
    SET AverageBuildingTemp  = SumNumerator / SumDenominator;    !- Program Line 3

ENERGYMANAGEMENTSYSTEM:PROGRAM,
    TotZonePow,               !- Name
    SET TotBuildPow = Pow0;    !- Program Line 1

ENERGYMANAGEMENTSYSTEM:PROGRAM,
    prgmDHWPow,               !- Name
    SET TotDHWPow = DHWPow;    !- Program Line 1

ENERGYMANAGEMENTSYSTEM:GLOBALVARIABLE,
    AverageBuildingTemp;      !- Erl Variable 1 Name

ENERGYMANAGEMENTSYSTEM:GLOBALVARIABLE,
    TotBuildPow;              !- Erl Variable 1 Name

ENERGYMANAGEMENTSYSTEM:GLOBALVARIABLE,
    TotDHWPow;                !- Erl Variable 1 Name

ENERGYMANAGEMENTSYSTEM:OUTPUTVARIABLE,
    Mean Heated Zones Air Temperature,    !- Name
    AverageBuildingTemp,      !- EMS Variable Name
    Averaged,                 !- Type of Data in Variable
    ZoneTimeStep;             !- Update Frequency

ENERGYMANAGEMENTSYSTEM:OUTPUTVARIABLE,
    Total Building Heating Power,    !- Name
    TotBuildPow,              !- EMS Variable Name
    Averaged,                 !- Type of Data in Variable
    ZoneTimeStep;             !- Update Frequency

ENERGYMANAGEMENTSYSTEM:OUTPUTVARIABLE,
    Total DHW Heating Power,    !- Name
    TotDHWPow,                !- EMS Variable Name
    Averaged,                 !- Type of Data in Variable
    ZoneTimeStep;             !- Update Frequency

ENERGYMANAGEMENTSYSTEM:INTERNALVARIABLE,
    Vol0,                     !- Name
    Block Build0_Alt0 Storey 0,    !- Internal Data Index Key Name
    Zone Air Volume;          !- Internal Data Type

WATERUSE:EQUIPMENT,
    DHW,                      !- Name
    General,                  !- EndUse Subcategory
    1.772017e-09,             !- Peak Flow Rate
    WaterTaps,                !- Flow Rate Fraction Schedule Name
    TargetWaterTemp,          !- Target Temperature Schedule Name
    HotWaterTemp,             !- Hot Water Supply Temperature Schedule Name
    ColdWaterTemp;            !- Cold Water Supply Temperature Schedule Name

Output:VariableDictionary,
    Regular;                  !- Key Field

OUTPUT:ENERGYMANAGEMENTSYSTEM,
    Verbose,                  !- Actuator Availability Dictionary Reporting
    Verbose,                  !- Internal Variable Availability Dictionary Reporting
    Verbose;                  !- EMS Runtime Language Debug Output Level

Output:Table:SummaryReports,
    AllSummary;               !- Report 1 Name

OutputControl:Table:Style,
    HTML;                     !- Column Separator

OUTPUT:VARIABLE,
    *,                        !- Key Value
    Site Outdoor Air Drybulb Temperature,    !- Variable Name
    Hourly;                   !- Reporting Frequency

OUTPUT:VARIABLE,
    *,                        !- Key Value
    Site Outdoor Air Relative Humidity,    !- Variable Name
    Hourly;                   !- Reporting Frequency

OUTPUT:VARIABLE,
    *,                        !- Key Value
    Site Outdoor Air Barometric Pressure,    !- Variable Name
    Hourly;                   !- Reporting Frequency

OUTPUT:VARIABLE,
    *,                        !- Key Value
    Site Wind Speed,          !- Variable Name
    Hourly;                   !- Reporting Frequency

OUTPUT:VARIABLE,
    *,                        !- Key Value
    Site Diffuse Solar Radiation Rate per Area,    !- Variable Name
    Hourly;                   !- Reporting Frequency

OUTPUT:VARIABLE,
    *,                        !- Key Value
    Site Direct Solar Radiation Rate per Area,    !- Variable Name
    Hourly;                   !- Reporting Frequency

OUTPUT:VARIABLE,
    *,                        !- Key Value
    Zone Electric Equipment Electric Power,    !- Variable Name
    Hourly;                   !- Reporting Frequency

OUTPUT:VARIABLE,
    *,                        !- Key Value
    Zone Electric Equipment Total Heating Rate,    !- Variable Name
    Hourly;                   !- Reporting Frequency

OUTPUT:VARIABLE,
    *,                        !- Key Value
    Surface Outside Face Incident Solar Radiation Rate per Area,    !- Variable Name
    Hourly;                   !- Reporting Frequency

OUTPUT:VARIABLE,
    *,                        !- Key Value
    Surface Outside Face Incident Beam Solar Radiation Rate per Area,    !- Variable Name
    Hourly;                   !- Reporting Frequency

OUTPUT:VARIABLE,
    *,                        !- Key Value
    Zone Ideal Loads Supply Air Total Heating Rate,    !- Variable Name
    Hourly;                   !- Reporting Frequency

OUTPUT:VARIABLE,
    *,                        !- Key Value
    Water Use Equipment Hot Water Mass Flow Rate,    !- Variable Name
    Hourly;                   !- Reporting Frequency

OUTPUT:VARIABLE,
    *,                        !- Key Value
    Water Use Equipment Cold Water Mass Flow Rate,    !- Variable Name
    Hourly;                   !- Reporting Frequency

OUTPUT:VARIABLE,
    *,                        !- Key Value
    Water Use Equipment Hot Water Temperature,    !- Variable Name
    Hourly;                   !- Reporting Frequency

OUTPUT:VARIABLE,
    *,                        !- Key Value
    Water Use Equipment Cold Water Temperature,    !- Variable Name
    Hourly;                   !- Reporting Frequency

OUTPUT:VARIABLE,
    *,                        !- Key Value
    Water Use Equipment Heating Rate,    !- Variable Name
    Hourly;                   !- Reporting Frequency

OUTPUT:VARIABLE,
    *,                        !- Key Value
    Mean Heated Zones Air Temperature,    !- Variable Name
    Hourly;                   !- Reporting Frequency

OUTPUT:VARIABLE,
    *,                        !- Key Value
    Total Building Heating Power,    !- Variable Name
    Hourly;                   !- Reporting Frequency

OUTPUT:VARIABLE,
    *,                        !- Key Value
    Total DHW Heating Power,    !- Variable Name
    Hourly;                   !- Reporting Frequency

OUTPUT:DIAGNOSTICS,
    DISPLAYEXTRAWARNINGS,     !- Key 1
    DisplayAdvancedReportVariables;    !- Key 2