!- Darwin Line endings 

Version,
    9.5;                      !- Version Identifier

SimulationControl,
    No,                       !- Do Zone Sizing Calculation
    No,                       !- Do System Sizing Calculation
    No,                       !- Do Plant Sizing Calculation
    No,                       !- Run Simulation for Sizing Periods
    Yes,                      !- Run Simulation for Weather File Run Periods
    No,                       !- Do HVAC Sizing Simulation for Sizing Periods
    1;                        !- Maximum Number of HVAC Sizing Simulation Passes

Building,
    None,                     !- Name
    0,                        !- North Axis
    Suburbs,                  !- Terrain
    0.04,                     !- Loads Convergence Tolerance Value
    0.4,                      !- Temperature Convergence Tolerance Value
    FullExterior,             !- Solar Distribution
    25,                       !- Maximum Number of Warmup Days
    6;                        !- Minimum Number of Warmup Days

SHADOWCALCULATION,
    PolygonClipping,          !- Shading Calculation Method
    Periodic,                 !- Shading Calculation Update Frequency Method
    20,                       !- Shading Calculation Update Frequency
    25000,                    !- Maximum Figures in Shadow Overlap Calculations
    SutherlandHodgman,        !- Polygon Clipping Algorithm
    512,                      !- Pixel Counting Resolution
    SimpleSkyDiffuseModeling,    !- Sky Diffuse Modeling Algorithm
    No,                       !- Output External Shading Calculation Results
    No,                       !- Disable SelfShading Within Shading Zone Groups
    No;                       !- Disable SelfShading From Shading Zone Groups to Other Zones

Timestep,
    4;                        !- Number of Timesteps per Hour

Site:Location,
    WeatherData/USA_CA_San.Francisco.Intl.AP.724940_TMY3.epw,    !- Name
    37.62,                    !- Latitude
    -122.4,                   !- Longitude
    -8,                       !- Time Zone
    2;                        !- Elevation

SizingPeriod:DesignDay,
    DENVER_STAPLETON Ann Htg 99.6% Condns DB,    !- Name
    12,                       !- Month
    21,                       !- Day of Month
    WinterDesignDay,          !- Day Type
    -20,                      !- Maximum DryBulb Temperature
    0,                        !- Daily DryBulb Temperature Range
    ,                         !- DryBulb Temperature Range Modifier Type
    ,                         !- DryBulb Temperature Range Modifier Day Schedule Name
    Wetbulb,                  !- Humidity Condition Type
    -20,                      !- Wetbulb or DewPoint at Maximum DryBulb
    ,                         !- Humidity Condition Day Schedule Name
    ,                         !- Humidity Ratio at Maximum DryBulb
    ,                         !- Enthalpy at Maximum DryBulb
    ,                         !- Daily WetBulb Temperature Range
    100594,                   !- Barometric Pressure
    2.3,                      !- Wind Speed
    180,                      !- Wind Direction
    No,                       !- Rain Indicator
    No,                       !- Snow Indicator
    No,                       !- Daylight Saving Time Indicator
    ASHRAEClearSky,           !- Solar Model Indicator
    ,                         !- Beam Solar Day Schedule Name
    ,                         !- Diffuse Solar Day Schedule Name
    ,                         !- ASHRAE Clear Sky Optical Depth for Beam Irradiance taub
    ,                         !- ASHRAE Clear Sky Optical Depth for Diffuse Irradiance taud
    0;                        !- Sky Clearness

SizingPeriod:DesignDay,
    DENVER_STAPLETON Ann Clg .4% Condns DB=>MWB,    !- Name
    7,                        !- Month
    21,                       !- Day of Month
    SummerDesignDay,          !- Day Type
    34.1,                     !- Maximum DryBulb Temperature
    15.2,                     !- Daily DryBulb Temperature Range
    ,                         !- DryBulb Temperature Range Modifier Type
    ,                         !- DryBulb Temperature Range Modifier Day Schedule Name
    Wetbulb,                  !- Humidity Condition Type
    15.8,                     !- Wetbulb or DewPoint at Maximum DryBulb
    ,                         !- Humidity Condition Day Schedule Name
    ,                         !- Humidity Ratio at Maximum DryBulb
    ,                         !- Enthalpy at Maximum DryBulb
    ,                         !- Daily WetBulb Temperature Range
    100594,                   !- Barometric Pressure
    4,                        !- Wind Speed
    120,                      !- Wind Direction
    No,                       !- Rain Indicator
    No,                       !- Snow Indicator
    No,                       !- Daylight Saving Time Indicator
    ASHRAEClearSky,           !- Solar Model Indicator
    ,                         !- Beam Solar Day Schedule Name
    ,                         !- Diffuse Solar Day Schedule Name
    ,                         !- ASHRAE Clear Sky Optical Depth for Beam Irradiance taub
    ,                         !- ASHRAE Clear Sky Optical Depth for Diffuse Irradiance taud
    1;                        !- Sky Clearness

RunPeriod,
    Run Period 1,             !- Name
    1,                        !- Begin Month
    1,                        !- Begin Day of Month
    ,                         !- Begin Year
    12,                       !- End Month
    31,                       !- End Day of Month
    ,                         !- End Year
    Tuesday,                  !- Day of Week for Start Day
    Yes,                      !- Use Weather File Holidays and Special Days
    Yes,                      !- Use Weather File Daylight Saving Period
    No,                       !- Apply Weekend Holiday Rule
    Yes,                      !- Use Weather File Rain Indicators
    Yes;                      !- Use Weather File Snow Indicators

SITE:GROUNDTEMPERATURE:BUILDINGSURFACE,
    15,                       !- January Ground Temperature
    15,                       !- February Ground Temperature
    15,                       !- March Ground Temperature
    15,                       !- April Ground Temperature
    15,                       !- May Ground Temperature
    15,                       !- June Ground Temperature
    15,                       !- July Ground Temperature
    15,                       !- August Ground Temperature
    15,                       !- September Ground Temperature
    15,                       !- October Ground Temperature
    15,                       !- November Ground Temperature
    15;                       !- December Ground Temperature

SCHEDULETYPELIMITS,
    Any Number,               !- Name
    ,                         !- Lower Limit Value
    ,                         !- Upper Limit Value
    ,                         !- Numeric Type
    Dimensionless;            !- Unit Type

SCHEDULE:COMPACT,
    AlwaysON,                 !- Name
    Any Number,               !- Schedule Type Limits Name
    Through: 12/31,           !- Field 1
    For: AllDays,             !- Field 2
    Until: 24:00,             !- Field 3
    1;                        !- Field 4

SCHEDULE:COMPACT,
    OccupActivity,            !- Name
    Any Number,               !- Schedule Type Limits Name
    Through: 12/31,           !- Field 1
    For: AllDays,             !- Field 2
    Until: 24:00,             !- Field 3
    70;                       !- Field 4

SCHEDULE:COMPACT,
    HotWaterTemp,             !- Name
    Any Number,               !- Schedule Type Limits Name
    Through: 12/31,           !- Field 1
    For: AllDays,             !- Field 2
    Until: 24:00,             !- Field 3
    55;                       !- Field 4

SCHEDULE:COMPACT,
    TargetWaterTemp,          !- Name
    Any Number,               !- Schedule Type Limits Name
    Through: 12/31,           !- Field 1
    For: AllDays,             !- Field 2
    Until: 24:00,             !- Field 3
    37;                       !- Field 4

SCHEDULE:FILE,
    LoadSchedule,             !- Name
    Any Number,               !- Schedule Type Limits Name
    /Users/alizad/PycharmProjects/mubes-ubem/examples/ForTest/InputFiles/Building26_winter.txt,    !- File Name
    1,                        !- Column Number
    0,                        !- Rows to Skip at Top
    8760,                     !- Number of Hours of Data
    Comma,                    !- Column Separator
    No;                       !- Interpolate to Timestep

SCHEDULE:FILE,
    Watertaps,                !- Name
    Any Number,               !- Schedule Type Limits Name
    /Users/alizad/PycharmProjects/mubes-ubem/examples/ForTest/InputFiles/domestic_hot_water_40_apartments.txt,    !- File Name
    1,                        !- Column Number
    0,                        !- Rows to Skip at Top
    8760,                     !- Number of Hours of Data
    Comma,                    !- Column Separator
    No;                       !- Interpolate to Timestep

SCHEDULE:FILE,
    ColdWaterTemp,            !- Name
    Any Number,               !- Schedule Type Limits Name
    /Users/alizad/PycharmProjects/mubes-ubem/examples/ForTest/InputFiles/cold_water_temperature_stockholm.txt,    !- File Name
    1,                        !- Column Number
    0,                        !- Rows to Skip at Top
    8760,                     !- Number of Hours of Data
    Comma,                    !- Column Separator
    No;                       !- Interpolate to Timestep

MATERIAL,
    DefaultMaterial,          !- Name
    Rough,                    !- Roughness
    0.1,                      !- Thickness
    0.1,                      !- Conductivity
    1000,                     !- Density
    1000,                     !- Specific Heat
    0.9,                      !- Thermal Absorptance
    0.7,                      !- Solar Absorptance
    0.7;                      !- Visible Absorptance

MATERIAL,
    Basement Floor,           !- Name
    Rough,                    !- Roughness
    0.1,                      !- Thickness
    0.9,                      !- Conductivity
    2300,                     !- Density
    1000,                     !- Specific Heat
    0.9,                      !- Thermal Absorptance
    0.7,                      !- Solar Absorptance
    0.7;                      !- Visible Absorptance

MATERIAL,
    Heated1rstFloor Inertia,    !- Name
    Rough,                    !- Roughness
    0.1,                      !- Thickness
    0.9,                      !- Conductivity
    2300,                     !- Density
    1000,                     !- Specific Heat
    0.9,                      !- Thermal Absorptance
    0.7,                      !- Solar Absorptance
    0.7;                      !- Visible Absorptance

MATERIAL,
    Heated1rstFloor Insulation,    !- Name
    Rough,                    !- Roughness
    0.15,                     !- Thickness
    0.035,                    !- Conductivity
    150,                      !- Density
    1000,                     !- Specific Heat
    0.9,                      !- Thermal Absorptance
    0.7,                      !- Solar Absorptance
    0.7;                      !- Visible Absorptance

MATERIAL,
    Roof Insulation,          !- Name
    Rough,                    !- Roughness
    0.3,                      !- Thickness
    0.03,                     !- Conductivity
    150,                      !- Density
    1000,                     !- Specific Heat
    0.9,                      !- Thermal Absorptance
    0.7,                      !- Solar Absorptance
    0.7;                      !- Visible Absorptance

MATERIAL,
    Wall Inertia,             !- Name
    Rough,                    !- Roughness
    0.2,                      !- Thickness
    0.9,                      !- Conductivity
    2300,                     !- Density
    1000,                     !- Specific Heat
    0.9,                      !- Thermal Absorptance
    0.7,                      !- Solar Absorptance
    0.7;                      !- Visible Absorptance

MATERIAL,
    Wall Insulation,          !- Name
    Rough,                    !- Roughness
    0.2,                      !- Thickness
    0.03,                     !- Conductivity
    150,                      !- Density
    1000,                     !- Specific Heat
    0.9,                      !- Thermal Absorptance
    0.7,                      !- Solar Absorptance
    0.7;                      !- Visible Absorptance

MATERIAL,
    HeatedZoneIntMass,        !- Name
    Rough,                    !- Roughness
    0.1,                      !- Thickness
    0.3,                      !- Conductivity
    600,                      !- Density
    1400,                     !- Specific Heat
    0.9,                      !- Thermal Absorptance
    0.7,                      !- Solar Absorptance
    0.7;                      !- Visible Absorptance

MATERIAL,
    AirWallMaterial,          !- Name
    MediumSmooth,             !- Roughness
    0.01,                     !- Thickness
    0.6,                      !- Conductivity
    800,                      !- Density
    1000,                     !- Specific Heat
    0.95,                     !- Thermal Absorptance
    0.7,                      !- Solar Absorptance
    0.7;                      !- Visible Absorptance

WINDOWMATERIAL:SIMPLEGLAZINGSYSTEM,
    DefaultGlazing,           !- Name
    2.7,                      !- UFactor
    0.763,                    !- Solar Heat Gain Coefficient
    0.8;                      !- Visible Transmittance

WINDOWMATERIAL:SIMPLEGLAZINGSYSTEM,
    Window,                   !- Name
    1.9,                      !- UFactor
    0.7,                      !- Solar Heat Gain Coefficient
    0.8;                      !- Visible Transmittance

CONSTRUCTION,
    Project Wall,             !- Name
    Wall Inertia,             !- Outside Layer
    Wall Insulation;          !- Layer 2

CONSTRUCTION,
    Project Flat Roof,        !- Name
    Roof Insulation;          !- Outside Layer

CONSTRUCTION,
    Project External Window,    !- Name
    Window;                   !- Outside Layer

CONSTRUCTION,
    Project Heated1rstFloor,    !- Name
    Heated1rstFloor Inertia,    !- Outside Layer
    Heated1rstFloor Insulation;    !- Layer 2

CONSTRUCTION,
    HeatedZoneIntMassObj,     !- Name
    HeatedZoneIntMass;        !- Outside Layer

GlobalGeometryRules,
    UpperLeftCorner,          !- Starting Vertex Position
    CounterClockWise,         !- Vertex Entry Direction
    World;                    !- Coordinate System

ZONE,
    Block Build0_Alt0 Storey 0,    !- Name
    0,                        !- Direction of Relative North
    0,                        !- X Origin
    0,                        !- Y Origin
    0,                        !- Z Origin
    1,                        !- Type
    1,                        !- Multiplier
    autocalculate,            !- Ceiling Height
    autocalculate,            !- Volume
    autocalculate,            !- Floor Area
    ,                         !- Zone Inside Convection Algorithm
    ,                         !- Zone Outside Convection Algorithm
    Yes;                      !- Part of Total Floor Area

BUILDINGSURFACE:DETAILED,
    Block Build0_Alt0 Storey 0 Wall 0001,    !- Name
    wall,                     !- Surface Type
    Project Wall,             !- Construction Name
    Block Build0_Alt0 Storey 0,    !- Zone Name
    outdoors,                 !- Outside Boundary Condition
    ,                         !- Outside Boundary Condition Object
    SunExposed,               !- Sun Exposure
    WindExposed,              !- Wind Exposure
    autocalculate,            !- View Factor to Ground
    autocalculate,            !- Number of Vertices
    2.5984,                   !- Vertex 1 Xcoordinate
    -7.5344,                  !- Vertex 1 Ycoordinate
    6,                        !- Vertex 1 Zcoordinate
    2.5984,                   !- Vertex 2 Xcoordinate
    -7.5344,                  !- Vertex 2 Ycoordinate
    0,                        !- Vertex 2 Zcoordinate
    11.1044,                  !- Vertex 3 Xcoordinate
    -2.2934,                  !- Vertex 3 Ycoordinate
    0,                        !- Vertex 3 Zcoordinate
    11.1044,                  !- Vertex 4 Xcoordinate
    -2.2934,                  !- Vertex 4 Ycoordinate
    6;                        !- Vertex 4 Zcoordinate

BUILDINGSURFACE:DETAILED,
    Block Build0_Alt0 Storey 0 Wall 0002,    !- Name
    wall,                     !- Surface Type
    Project Wall,             !- Construction Name
    Block Build0_Alt0 Storey 0,    !- Zone Name
    outdoors,                 !- Outside Boundary Condition
    ,                         !- Outside Boundary Condition Object
    SunExposed,               !- Sun Exposure
    WindExposed,              !- Wind Exposure
    autocalculate,            !- View Factor to Ground
    autocalculate,            !- Number of Vertices
    11.1044,                  !- Vertex 1 Xcoordinate
    -2.2934,                  !- Vertex 1 Ycoordinate
    6,                        !- Vertex 1 Zcoordinate
    11.1044,                  !- Vertex 2 Xcoordinate
    -2.2934,                  !- Vertex 2 Ycoordinate
    0,                        !- Vertex 2 Zcoordinate
    2.0434,                   !- Vertex 3 Xcoordinate
    12.1496,                  !- Vertex 3 Ycoordinate
    0,                        !- Vertex 3 Zcoordinate
    2.0434,                   !- Vertex 4 Xcoordinate
    12.1496,                  !- Vertex 4 Ycoordinate
    6;                        !- Vertex 4 Zcoordinate

BUILDINGSURFACE:DETAILED,
    Block Build0_Alt0 Storey 0 Wall 0003,    !- Name
    wall,                     !- Surface Type
    Project Wall,             !- Construction Name
    Block Build0_Alt0 Storey 0,    !- Zone Name
    outdoors,                 !- Outside Boundary Condition
    ,                         !- Outside Boundary Condition Object
    SunExposed,               !- Sun Exposure
    WindExposed,              !- Wind Exposure
    autocalculate,            !- View Factor to Ground
    autocalculate,            !- Number of Vertices
    2.0434,                   !- Vertex 1 Xcoordinate
    12.1496,                  !- Vertex 1 Ycoordinate
    6,                        !- Vertex 1 Zcoordinate
    2.0434,                   !- Vertex 2 Xcoordinate
    12.1496,                  !- Vertex 2 Ycoordinate
    0,                        !- Vertex 2 Zcoordinate
    -6.4966,                  !- Vertex 3 Xcoordinate
    6.9016,                   !- Vertex 3 Ycoordinate
    0,                        !- Vertex 3 Zcoordinate
    -6.4966,                  !- Vertex 4 Xcoordinate
    6.9016,                   !- Vertex 4 Ycoordinate
    6;                        !- Vertex 4 Zcoordinate

BUILDINGSURFACE:DETAILED,
    Block Build0_Alt0 Storey 0 Wall 0004,    !- Name
    wall,                     !- Surface Type
    Project Wall,             !- Construction Name
    Block Build0_Alt0 Storey 0,    !- Zone Name
    outdoors,                 !- Outside Boundary Condition
    ,                         !- Outside Boundary Condition Object
    SunExposed,               !- Sun Exposure
    WindExposed,              !- Wind Exposure
    autocalculate,            !- View Factor to Ground
    autocalculate,            !- Number of Vertices
    -6.4966,                  !- Vertex 1 Xcoordinate
    6.9016,                   !- Vertex 1 Ycoordinate
    6,                        !- Vertex 1 Zcoordinate
    -6.4966,                  !- Vertex 2 Xcoordinate
    6.9016,                   !- Vertex 2 Ycoordinate
    0,                        !- Vertex 2 Zcoordinate
    2.5984,                   !- Vertex 3 Xcoordinate
    -7.5344,                  !- Vertex 3 Ycoordinate
    0,                        !- Vertex 3 Zcoordinate
    2.5984,                   !- Vertex 4 Xcoordinate
    -7.5344,                  !- Vertex 4 Ycoordinate
    6;                        !- Vertex 4 Zcoordinate

BUILDINGSURFACE:DETAILED,
    Block Build0_Alt0 Storey 0 Floor 0001,    !- Name
    floor,                    !- Surface Type
    Project Heated1rstFloor,    !- Construction Name
    Block Build0_Alt0 Storey 0,    !- Zone Name
    ground,                   !- Outside Boundary Condition
    ,                         !- Outside Boundary Condition Object
    NoSun,                    !- Sun Exposure
    NoWind,                   !- Wind Exposure
    autocalculate,            !- View Factor to Ground
    autocalculate,            !- Number of Vertices
    2.0434,                   !- Vertex 1 Xcoordinate
    12.1496,                  !- Vertex 1 Ycoordinate
    0,                        !- Vertex 1 Zcoordinate
    11.1044,                  !- Vertex 2 Xcoordinate
    -2.2934,                  !- Vertex 2 Ycoordinate
    0,                        !- Vertex 2 Zcoordinate
    2.5984,                   !- Vertex 3 Xcoordinate
    -7.5344,                  !- Vertex 3 Ycoordinate
    0,                        !- Vertex 3 Zcoordinate
    -6.4966,                  !- Vertex 4 Xcoordinate
    6.9016,                   !- Vertex 4 Ycoordinate
    0;                        !- Vertex 4 Zcoordinate

BUILDINGSURFACE:DETAILED,
    Block Build0_Alt0 Storey 0 Roof 0001,    !- Name
    roof,                     !- Surface Type
    Project Flat Roof,        !- Construction Name
    Block Build0_Alt0 Storey 0,    !- Zone Name
    outdoors,                 !- Outside Boundary Condition
    ,                         !- Outside Boundary Condition Object
    SunExposed,               !- Sun Exposure
    WindExposed,              !- Wind Exposure
    autocalculate,            !- View Factor to Ground
    autocalculate,            !- Number of Vertices
    11.1044,                  !- Vertex 1 Xcoordinate
    -2.2934,                  !- Vertex 1 Ycoordinate
    6,                        !- Vertex 1 Zcoordinate
    2.0434,                   !- Vertex 2 Xcoordinate
    12.1496,                  !- Vertex 2 Ycoordinate
    6,                        !- Vertex 2 Zcoordinate
    -6.4966,                  !- Vertex 3 Xcoordinate
    6.9016,                   !- Vertex 3 Ycoordinate
    6,                        !- Vertex 3 Zcoordinate
    2.5984,                   !- Vertex 4 Xcoordinate
    -7.5344,                  !- Vertex 4 Ycoordinate
    6;                        !- Vertex 4 Zcoordinate

FENESTRATIONSURFACE:DETAILED,
    Block Build0_Alt0 Storey 0 Wall 0001 window,    !- Name
    Window,                   !- Surface Type
    Project External Window,    !- Construction Name
    Block Build0_Alt0 Storey 0 Wall 0001,    !- Building Surface Name
    ,                         !- Outside Boundary Condition Object
    autocalculate,            !- View Factor to Ground
    ,                         !- Frame and Divider Name
    1.0,                      !- Multiplier
    autocalculate,            !- Number of Vertices
    2.602653,                 !- Vertex 1 Xcoordinate
    -7.5317795,               !- Vertex 1 Ycoordinate
    3.9,                      !- Vertex 1 Zcoordinate
    2.602653,                 !- Vertex 2 Xcoordinate
    -7.5317795,               !- Vertex 2 Ycoordinate
    2.1,                      !- Vertex 2 Zcoordinate
    11.100147,                !- Vertex 3 Xcoordinate
    -2.2960205,               !- Vertex 3 Ycoordinate
    2.1,                      !- Vertex 3 Zcoordinate
    11.100147,                !- Vertex 4 Xcoordinate
    -2.2960205,               !- Vertex 4 Ycoordinate
    3.9;                      !- Vertex 4 Zcoordinate

FENESTRATIONSURFACE:DETAILED,
    Block Build0_Alt0 Storey 0 Wall 0002 window,    !- Name
    Window,                   !- Surface Type
    Project External Window,    !- Construction Name
    Block Build0_Alt0 Storey 0 Wall 0002,    !- Building Surface Name
    ,                         !- Outside Boundary Condition Object
    autocalculate,            !- View Factor to Ground
    ,                         !- Frame and Divider Name
    1.0,                      !- Multiplier
    autocalculate,            !- Number of Vertices
    11.0998695,               !- Vertex 1 Xcoordinate
    -2.2861785,               !- Vertex 1 Ycoordinate
    3.9,                      !- Vertex 1 Zcoordinate
    11.0998695,               !- Vertex 2 Xcoordinate
    -2.2861785,               !- Vertex 2 Ycoordinate
    2.1,                      !- Vertex 2 Zcoordinate
    2.0479305000000005,       !- Vertex 3 Xcoordinate
    12.1423785,               !- Vertex 3 Ycoordinate
    2.1,                      !- Vertex 3 Zcoordinate
    2.0479305000000005,       !- Vertex 4 Xcoordinate
    12.1423785,               !- Vertex 4 Ycoordinate
    3.9;                      !- Vertex 4 Zcoordinate

FENESTRATIONSURFACE:DETAILED,
    Block Build0_Alt0 Storey 0 Wall 0003 window,    !- Name
    Window,                   !- Surface Type
    Project External Window,    !- Construction Name
    Block Build0_Alt0 Storey 0 Wall 0003,    !- Building Surface Name
    ,                         !- Outside Boundary Condition Object
    autocalculate,            !- View Factor to Ground
    ,                         !- Frame and Divider Name
    1.0,                      !- Multiplier
    autocalculate,            !- Number of Vertices
    2.0391299999999997,       !- Vertex 1 Xcoordinate
    12.146975999999999,       !- Vertex 1 Ycoordinate
    3.9,                      !- Vertex 1 Zcoordinate
    2.0391299999999997,       !- Vertex 2 Xcoordinate
    12.146975999999999,       !- Vertex 2 Ycoordinate
    2.1,                      !- Vertex 2 Zcoordinate
    -6.492329999999999,       !- Vertex 3 Xcoordinate
    6.904224,                 !- Vertex 3 Ycoordinate
    2.1,                      !- Vertex 3 Zcoordinate
    -6.492329999999999,       !- Vertex 4 Xcoordinate
    6.904224,                 !- Vertex 4 Ycoordinate
    3.9;                      !- Vertex 4 Zcoordinate

FENESTRATIONSURFACE:DETAILED,
    Block Build0_Alt0 Storey 0 Wall 0004 window,    !- Name
    Window,                   !- Surface Type
    Project External Window,    !- Construction Name
    Block Build0_Alt0 Storey 0 Wall 0004,    !- Building Surface Name
    ,                         !- Outside Boundary Condition Object
    autocalculate,            !- View Factor to Ground
    ,                         !- Frame and Divider Name
    1.0,                      !- Multiplier
    autocalculate,            !- Number of Vertices
    -6.4920525,               !- Vertex 1 Xcoordinate
    6.894382,                 !- Vertex 1 Ycoordinate
    3.9,                      !- Vertex 1 Zcoordinate
    -6.4920525,               !- Vertex 2 Xcoordinate
    6.894382,                 !- Vertex 2 Ycoordinate
    2.1,                      !- Vertex 2 Zcoordinate
    2.5938524999999992,       !- Vertex 3 Xcoordinate
    -7.527182,                !- Vertex 3 Ycoordinate
    2.1,                      !- Vertex 3 Zcoordinate
    2.5938524999999992,       !- Vertex 4 Xcoordinate
    -7.527182,                !- Vertex 4 Ycoordinate
    3.9;                      !- Vertex 4 Zcoordinate

INTERNALMASS,
    Block Build0_Alt0 Storey 0IntMass,    !- Name
    HeatedZoneIntMassObj,     !- Construction Name
    Block Build0_Alt0 Storey 0,    !- Zone or ZoneList Name
    683;                      !- Surface Area

SHADING:SITE:DETAILED,
    Shading_V13_1,            !- Name
    ,                         !- Transmittance Schedule Name
    autocalculate,            !- Number of Vertices
    22.2694,                  !- Vertex 1 Xcoordinate
    9.8036,                   !- Vertex 1 Ycoordinate
    16.1,                     !- Vertex 1 Zcoordinate
    22.2694,                  !- Vertex 2 Xcoordinate
    9.8036,                   !- Vertex 2 Ycoordinate
    0,                        !- Vertex 2 Zcoordinate
    29.0274,                  !- Vertex 3 Xcoordinate
    2.2586,                   !- Vertex 3 Ycoordinate
    0,                        !- Vertex 3 Zcoordinate
    29.0274,                  !- Vertex 4 Xcoordinate
    2.2586,                   !- Vertex 4 Ycoordinate
    16.1;                     !- Vertex 4 Zcoordinate

SHADING:SITE:DETAILED,
    Shading_V21_1,            !- Name
    ,                         !- Transmittance Schedule Name
    autocalculate,            !- Number of Vertices
    -57.3156,                 !- Vertex 1 Xcoordinate
    -69.3204,                 !- Vertex 1 Ycoordinate
    6.9,                      !- Vertex 1 Zcoordinate
    -57.3156,                 !- Vertex 2 Xcoordinate
    -69.3204,                 !- Vertex 2 Ycoordinate
    0,                        !- Vertex 2 Zcoordinate
    -52.5346,                 !- Vertex 3 Xcoordinate
    -60.3094,                 !- Vertex 3 Ycoordinate
    0,                        !- Vertex 3 Zcoordinate
    -52.5346,                 !- Vertex 4 Xcoordinate
    -60.3094,                 !- Vertex 4 Ycoordinate
    6.9;                      !- Vertex 4 Zcoordinate

SHADING:SITE:DETAILED,
    Shading_V22_1,            !- Name
    ,                         !- Transmittance Schedule Name
    autocalculate,            !- Number of Vertices
    -52.5346,                 !- Vertex 1 Xcoordinate
    -60.3094,                 !- Vertex 1 Ycoordinate
    6.9,                      !- Vertex 1 Zcoordinate
    -52.5346,                 !- Vertex 2 Xcoordinate
    -60.3094,                 !- Vertex 2 Ycoordinate
    0,                        !- Vertex 2 Zcoordinate
    -75.1536,                 !- Vertex 3 Xcoordinate
    -48.2134,                 !- Vertex 3 Ycoordinate
    0,                        !- Vertex 3 Zcoordinate
    -75.1536,                 !- Vertex 4 Xcoordinate
    -48.2134,                 !- Vertex 4 Ycoordinate
    6.9;                      !- Vertex 4 Zcoordinate

SHADING:SITE:DETAILED,
    Shading_V62_1,            !- Name
    ,                         !- Transmittance Schedule Name
    autocalculate,            !- Number of Vertices
    109.5514,                 !- Vertex 1 Xcoordinate
    -54.3564,                 !- Vertex 1 Ycoordinate
    11.6,                     !- Vertex 1 Zcoordinate
    109.5514,                 !- Vertex 2 Xcoordinate
    -54.3564,                 !- Vertex 2 Ycoordinate
    0,                        !- Vertex 2 Zcoordinate
    108.7346,                 !- Vertex 3 Xcoordinate
    -65.0685,                 !- Vertex 3 Ycoordinate
    0,                        !- Vertex 3 Zcoordinate
    108.7346,                 !- Vertex 4 Xcoordinate
    -65.0685,                 !- Vertex 4 Ycoordinate
    11.6;                     !- Vertex 4 Zcoordinate

SHADING:SITE:DETAILED,
    Shading_V83_1,            !- Name
    ,                         !- Transmittance Schedule Name
    autocalculate,            !- Number of Vertices
    -0.5126,                  !- Vertex 1 Xcoordinate
    -33.8184,                 !- Vertex 1 Ycoordinate
    8,                        !- Vertex 1 Zcoordinate
    -0.5126,                  !- Vertex 2 Xcoordinate
    -33.8184,                 !- Vertex 2 Ycoordinate
    0,                        !- Vertex 2 Zcoordinate
    -7.3086,                  !- Vertex 3 Xcoordinate
    -24.4854,                 !- Vertex 3 Ycoordinate
    0,                        !- Vertex 3 Zcoordinate
    -7.3086,                  !- Vertex 4 Xcoordinate
    -24.4854,                 !- Vertex 4 Ycoordinate
    8;                        !- Vertex 4 Zcoordinate

SHADING:SITE:DETAILED,
    Shading_V84_1,            !- Name
    ,                         !- Transmittance Schedule Name
    autocalculate,            !- Number of Vertices
    -7.3086,                  !- Vertex 1 Xcoordinate
    -24.4854,                 !- Vertex 1 Ycoordinate
    8,                        !- Vertex 1 Zcoordinate
    -7.3086,                  !- Vertex 2 Xcoordinate
    -24.4854,                 !- Vertex 2 Ycoordinate
    0,                        !- Vertex 2 Zcoordinate
    -15.8356,                 !- Vertex 3 Xcoordinate
    -30.6554,                 !- Vertex 3 Ycoordinate
    0,                        !- Vertex 3 Zcoordinate
    -15.8356,                 !- Vertex 4 Xcoordinate
    -30.6554,                 !- Vertex 4 Ycoordinate
    8;                        !- Vertex 4 Zcoordinate

SHADING:SITE:DETAILED,
    Shading_V172_1,           !- Name
    ,                         !- Transmittance Schedule Name
    autocalculate,            !- Number of Vertices
    61.2768,                  !- Vertex 1 Xcoordinate
    1.7352,                   !- Vertex 1 Ycoordinate
    19.2,                     !- Vertex 1 Zcoordinate
    61.2768,                  !- Vertex 2 Xcoordinate
    1.7352,                   !- Vertex 2 Ycoordinate
    0,                        !- Vertex 2 Zcoordinate
    66.4494,                  !- Vertex 3 Xcoordinate
    -4.2854,                  !- Vertex 3 Ycoordinate
    0,                        !- Vertex 3 Zcoordinate
    66.4494,                  !- Vertex 4 Xcoordinate
    -4.2854,                  !- Vertex 4 Ycoordinate
    19.2;                     !- Vertex 4 Zcoordinate

SHADING:SITE:DETAILED,
    Shading_V173_1,           !- Name
    ,                         !- Transmittance Schedule Name
    autocalculate,            !- Number of Vertices
    66.4494,                  !- Vertex 1 Xcoordinate
    -4.2854,                  !- Vertex 1 Ycoordinate
    19.2,                     !- Vertex 1 Zcoordinate
    66.4494,                  !- Vertex 2 Xcoordinate
    -4.2854,                  !- Vertex 2 Ycoordinate
    0,                        !- Vertex 2 Zcoordinate
    59.2744,                  !- Vertex 3 Xcoordinate
    -10.4064,                 !- Vertex 3 Ycoordinate
    0,                        !- Vertex 3 Zcoordinate
    59.2744,                  !- Vertex 4 Xcoordinate
    -10.4064,                 !- Vertex 4 Ycoordinate
    19.2;                     !- Vertex 4 Zcoordinate

SHADING:SITE:DETAILED,
    Shading_V174_1,           !- Name
    ,                         !- Transmittance Schedule Name
    autocalculate,            !- Number of Vertices
    59.2744,                  !- Vertex 1 Xcoordinate
    -10.4064,                 !- Vertex 1 Ycoordinate
    19.2,                     !- Vertex 1 Zcoordinate
    59.2744,                  !- Vertex 2 Xcoordinate
    -10.4064,                 !- Vertex 2 Ycoordinate
    0,                        !- Vertex 2 Zcoordinate
    67.5774,                  !- Vertex 3 Xcoordinate
    -20.0334,                 !- Vertex 3 Ycoordinate
    0,                        !- Vertex 3 Zcoordinate
    67.5774,                  !- Vertex 4 Xcoordinate
    -20.0334,                 !- Vertex 4 Ycoordinate
    19.2;                     !- Vertex 4 Zcoordinate

SHADING:SITE:DETAILED,
    Shading_V289_1,           !- Name
    ,                         !- Transmittance Schedule Name
    autocalculate,            !- Number of Vertices
    17.6664,                  !- Vertex 1 Xcoordinate
    -107.3944,                !- Vertex 1 Ycoordinate
    7.8,                      !- Vertex 1 Zcoordinate
    17.6664,                  !- Vertex 2 Xcoordinate
    -107.3944,                !- Vertex 2 Ycoordinate
    0,                        !- Vertex 2 Zcoordinate
    9.1204,                   !- Vertex 3 Xcoordinate
    -109.4404,                !- Vertex 3 Ycoordinate
    0,                        !- Vertex 3 Zcoordinate
    9.1204,                   !- Vertex 4 Xcoordinate
    -109.4404,                !- Vertex 4 Ycoordinate
    7.8;                      !- Vertex 4 Zcoordinate

SHADING:SITE:DETAILED,
    Shading_V292_1,           !- Name
    ,                         !- Transmittance Schedule Name
    autocalculate,            !- Number of Vertices
    21.6824,                  !- Vertex 1 Xcoordinate
    -124.3554,                !- Vertex 1 Ycoordinate
    7.8,                      !- Vertex 1 Zcoordinate
    21.6824,                  !- Vertex 2 Xcoordinate
    -124.3554,                !- Vertex 2 Ycoordinate
    0,                        !- Vertex 2 Zcoordinate
    17.6664,                  !- Vertex 3 Xcoordinate
    -107.3944,                !- Vertex 3 Ycoordinate
    0,                        !- Vertex 3 Zcoordinate
    17.6664,                  !- Vertex 4 Xcoordinate
    -107.3944,                !- Vertex 4 Ycoordinate
    7.8;                      !- Vertex 4 Zcoordinate

SHADING:SITE:DETAILED,
    Shading_V308_1,           !- Name
    ,                         !- Transmittance Schedule Name
    autocalculate,            !- Number of Vertices
    85.5524,                  !- Vertex 1 Xcoordinate
    -26.4454,                 !- Vertex 1 Ycoordinate
    18.8,                     !- Vertex 1 Zcoordinate
    85.5524,                  !- Vertex 2 Xcoordinate
    -26.4454,                 !- Vertex 2 Ycoordinate
    0,                        !- Vertex 2 Zcoordinate
    90.5614,                  !- Vertex 3 Xcoordinate
    -32.2134,                 !- Vertex 3 Ycoordinate
    0,                        !- Vertex 3 Zcoordinate
    90.5614,                  !- Vertex 4 Xcoordinate
    -32.2134,                 !- Vertex 4 Ycoordinate
    18.8;                     !- Vertex 4 Zcoordinate

SHADING:SITE:DETAILED,
    Shading_V309_1,           !- Name
    ,                         !- Transmittance Schedule Name
    autocalculate,            !- Number of Vertices
    90.5614,                  !- Vertex 1 Xcoordinate
    -32.2134,                 !- Vertex 1 Ycoordinate
    18.8,                     !- Vertex 1 Zcoordinate
    90.5614,                  !- Vertex 2 Xcoordinate
    -32.2134,                 !- Vertex 2 Ycoordinate
    0,                        !- Vertex 2 Zcoordinate
    83.3364,                  !- Vertex 3 Xcoordinate
    -38.4074,                 !- Vertex 3 Ycoordinate
    0,                        !- Vertex 3 Zcoordinate
    83.3364,                  !- Vertex 4 Xcoordinate
    -38.4074,                 !- Vertex 4 Ycoordinate
    18.8;                     !- Vertex 4 Zcoordinate

SHADING:SITE:DETAILED,
    Shading_V310_1,           !- Name
    ,                         !- Transmittance Schedule Name
    autocalculate,            !- Number of Vertices
    83.3364,                  !- Vertex 1 Xcoordinate
    -38.4074,                 !- Vertex 1 Ycoordinate
    18.8,                     !- Vertex 1 Zcoordinate
    83.3364,                  !- Vertex 2 Xcoordinate
    -38.4074,                 !- Vertex 2 Ycoordinate
    0,                        !- Vertex 2 Zcoordinate
    91.6514,                  !- Vertex 3 Xcoordinate
    -48.0774,                 !- Vertex 3 Ycoordinate
    0,                        !- Vertex 3 Zcoordinate
    91.6514,                  !- Vertex 4 Xcoordinate
    -48.0774,                 !- Vertex 4 Ycoordinate
    18.8;                     !- Vertex 4 Zcoordinate

SHADING:SITE:DETAILED,
    Shading_V347_1,           !- Name
    ,                         !- Transmittance Schedule Name
    autocalculate,            !- Number of Vertices
    47.4525,                  !- Vertex 1 Xcoordinate
    8.8867,                   !- Vertex 1 Ycoordinate
    12.2,                     !- Vertex 1 Zcoordinate
    47.4525,                  !- Vertex 2 Xcoordinate
    8.8867,                   !- Vertex 2 Ycoordinate
    0,                        !- Vertex 2 Zcoordinate
    55.6634,                  !- Vertex 3 Xcoordinate
    8.2686,                   !- Vertex 3 Ycoordinate
    0,                        !- Vertex 3 Zcoordinate
    55.6634,                  !- Vertex 4 Xcoordinate
    8.2686,                   !- Vertex 4 Ycoordinate
    12.2;                     !- Vertex 4 Zcoordinate

SHADING:SITE:DETAILED,
    Shading_V348_1,           !- Name
    ,                         !- Transmittance Schedule Name
    autocalculate,            !- Number of Vertices
    55.6634,                  !- Vertex 1 Xcoordinate
    8.2686,                   !- Vertex 1 Ycoordinate
    12.2,                     !- Vertex 1 Zcoordinate
    55.6634,                  !- Vertex 2 Xcoordinate
    8.2686,                   !- Vertex 2 Ycoordinate
    0,                        !- Vertex 2 Zcoordinate
    61.2768,                  !- Vertex 3 Xcoordinate
    1.7352,                   !- Vertex 3 Ycoordinate
    0,                        !- Vertex 3 Zcoordinate
    61.2768,                  !- Vertex 4 Xcoordinate
    1.7352,                   !- Vertex 4 Ycoordinate
    12.2;                     !- Vertex 4 Zcoordinate

SHADING:SITE:DETAILED,
    Shading_V452_1,           !- Name
    ,                         !- Transmittance Schedule Name
    autocalculate,            !- Number of Vertices
    -15.3296,                 !- Vertex 1 Xcoordinate
    -130.0854,                !- Vertex 1 Ycoordinate
    6.4,                      !- Vertex 1 Zcoordinate
    -15.3296,                 !- Vertex 2 Xcoordinate
    -130.0854,                !- Vertex 2 Ycoordinate
    0,                        !- Vertex 2 Zcoordinate
    -22.1586,                 !- Vertex 3 Xcoordinate
    -101.9444,                !- Vertex 3 Ycoordinate
    0,                        !- Vertex 3 Zcoordinate
    -22.1586,                 !- Vertex 4 Xcoordinate
    -101.9444,                !- Vertex 4 Ycoordinate
    6.4;                      !- Vertex 4 Zcoordinate

SHADING:SITE:DETAILED,
    Shading_V453_1,           !- Name
    ,                         !- Transmittance Schedule Name
    autocalculate,            !- Number of Vertices
    108.7346,                 !- Vertex 1 Xcoordinate
    -65.0685,                 !- Vertex 1 Ycoordinate
    18.8,                     !- Vertex 1 Zcoordinate
    108.7346,                 !- Vertex 2 Xcoordinate
    -65.0685,                 !- Vertex 2 Ycoordinate
    0,                        !- Vertex 2 Zcoordinate
    108.1364,                 !- Vertex 3 Xcoordinate
    -72.9134,                 !- Vertex 3 Ycoordinate
    0,                        !- Vertex 3 Zcoordinate
    108.1364,                 !- Vertex 4 Xcoordinate
    -72.9134,                 !- Vertex 4 Ycoordinate
    18.8;                     !- Vertex 4 Zcoordinate

SHADING:SITE:DETAILED,
    Shading_V454_1,           !- Name
    ,                         !- Transmittance Schedule Name
    autocalculate,            !- Number of Vertices
    108.1364,                 !- Vertex 1 Xcoordinate
    -72.9134,                 !- Vertex 1 Ycoordinate
    18.8,                     !- Vertex 1 Zcoordinate
    108.1364,                 !- Vertex 2 Xcoordinate
    -72.9134,                 !- Vertex 2 Ycoordinate
    0,                        !- Vertex 2 Zcoordinate
    98.7184,                  !- Vertex 3 Xcoordinate
    -72.2124,                 !- Vertex 3 Ycoordinate
    0,                        !- Vertex 3 Zcoordinate
    98.7184,                  !- Vertex 4 Xcoordinate
    -72.2124,                 !- Vertex 4 Ycoordinate
    18.8;                     !- Vertex 4 Zcoordinate

SHADING:SITE:DETAILED,
    Shading_V455_1,           !- Name
    ,                         !- Transmittance Schedule Name
    autocalculate,            !- Number of Vertices
    98.7184,                  !- Vertex 1 Xcoordinate
    -72.2124,                 !- Vertex 1 Ycoordinate
    18.8,                     !- Vertex 1 Zcoordinate
    98.7184,                  !- Vertex 2 Xcoordinate
    -72.2124,                 !- Vertex 2 Ycoordinate
    0,                        !- Vertex 2 Zcoordinate
    97.7734,                  !- Vertex 3 Xcoordinate
    -84.8374,                 !- Vertex 3 Ycoordinate
    0,                        !- Vertex 3 Zcoordinate
    97.7734,                  !- Vertex 4 Xcoordinate
    -84.8374,                 !- Vertex 4 Ycoordinate
    18.8;                     !- Vertex 4 Zcoordinate

SHADING:SITE:DETAILED,
    Shading_V503_1,           !- Name
    ,                         !- Transmittance Schedule Name
    autocalculate,            !- Number of Vertices
    41.3964,                  !- Vertex 1 Xcoordinate
    -39.9994,                 !- Vertex 1 Ycoordinate
    8.3,                      !- Vertex 1 Zcoordinate
    41.3964,                  !- Vertex 2 Xcoordinate
    -39.9994,                 !- Vertex 2 Ycoordinate
    0,                        !- Vertex 2 Zcoordinate
    33.2724,                  !- Vertex 3 Xcoordinate
    -31.8154,                 !- Vertex 3 Ycoordinate
    0,                        !- Vertex 3 Zcoordinate
    33.2724,                  !- Vertex 4 Xcoordinate
    -31.8154,                 !- Vertex 4 Ycoordinate
    8.3;                      !- Vertex 4 Zcoordinate

SHADING:SITE:DETAILED,
    Shading_V504_1,           !- Name
    ,                         !- Transmittance Schedule Name
    autocalculate,            !- Number of Vertices
    33.2724,                  !- Vertex 1 Xcoordinate
    -31.8154,                 !- Vertex 1 Ycoordinate
    8.3,                      !- Vertex 1 Zcoordinate
    33.2724,                  !- Vertex 2 Xcoordinate
    -31.8154,                 !- Vertex 2 Ycoordinate
    0,                        !- Vertex 2 Zcoordinate
    25.8604,                  !- Vertex 3 Xcoordinate
    -39.2724,                 !- Vertex 3 Ycoordinate
    0,                        !- Vertex 3 Zcoordinate
    25.8604,                  !- Vertex 4 Xcoordinate
    -39.2724,                 !- Vertex 4 Ycoordinate
    8.3;                      !- Vertex 4 Zcoordinate

SHADING:SITE:DETAILED,
    Shading_V2_1,             !- Name
    ,                         !- Transmittance Schedule Name
    autocalculate,            !- Number of Vertices
    6.9344,                   !- Vertex 1 Xcoordinate
    27.7826,                  !- Vertex 1 Ycoordinate
    15.8,                     !- Vertex 1 Zcoordinate
    6.9344,                   !- Vertex 2 Xcoordinate
    27.7826,                  !- Vertex 2 Ycoordinate
    0,                        !- Vertex 2 Zcoordinate
    13.5144,                  !- Vertex 3 Xcoordinate
    20.0546,                  !- Vertex 3 Ycoordinate
    0,                        !- Vertex 3 Zcoordinate
    13.5144,                  !- Vertex 4 Xcoordinate
    20.0546,                  !- Vertex 4 Ycoordinate
    15.8;                     !- Vertex 4 Zcoordinate

SHADING:SITE:DETAILED,
    Shading_V3_1,             !- Name
    ,                         !- Transmittance Schedule Name
    autocalculate,            !- Number of Vertices
    13.5144,                  !- Vertex 1 Xcoordinate
    20.0546,                  !- Vertex 1 Ycoordinate
    15.8,                     !- Vertex 1 Zcoordinate
    13.5144,                  !- Vertex 2 Xcoordinate
    20.0546,                  !- Vertex 2 Ycoordinate
    0,                        !- Vertex 2 Zcoordinate
    21.0124,                  !- Vertex 3 Xcoordinate
    26.5146,                  !- Vertex 3 Ycoordinate
    0,                        !- Vertex 3 Zcoordinate
    21.0124,                  !- Vertex 4 Xcoordinate
    26.5146,                  !- Vertex 4 Ycoordinate
    15.8;                     !- Vertex 4 Zcoordinate

SHADING:SITE:DETAILED,
    Shading_V4_1,             !- Name
    ,                         !- Transmittance Schedule Name
    autocalculate,            !- Number of Vertices
    21.0124,                  !- Vertex 1 Xcoordinate
    26.5146,                  !- Vertex 1 Ycoordinate
    15.8,                     !- Vertex 1 Zcoordinate
    21.0124,                  !- Vertex 2 Xcoordinate
    26.5146,                  !- Vertex 2 Ycoordinate
    0,                        !- Vertex 2 Zcoordinate
    24.7174,                  !- Vertex 3 Xcoordinate
    22.1866,                  !- Vertex 3 Ycoordinate
    0,                        !- Vertex 3 Zcoordinate
    24.7174,                  !- Vertex 4 Xcoordinate
    22.1866,                  !- Vertex 4 Ycoordinate
    15.8;                     !- Vertex 4 Zcoordinate

SHADING:SITE:DETAILED,
    Shading_V5_1,             !- Name
    ,                         !- Transmittance Schedule Name
    autocalculate,            !- Number of Vertices
    24.7174,                  !- Vertex 1 Xcoordinate
    22.1866,                  !- Vertex 1 Ycoordinate
    15.8,                     !- Vertex 1 Zcoordinate
    24.7174,                  !- Vertex 2 Xcoordinate
    22.1866,                  !- Vertex 2 Ycoordinate
    0,                        !- Vertex 2 Zcoordinate
    31.5094,                  !- Vertex 3 Xcoordinate
    27.9996,                  !- Vertex 3 Ycoordinate
    0,                        !- Vertex 3 Zcoordinate
    31.5094,                  !- Vertex 4 Xcoordinate
    27.9996,                  !- Vertex 4 Ycoordinate
    15.8;                     !- Vertex 4 Zcoordinate

SHADING:SITE:DETAILED,
    Shading_V10_1,            !- Name
    ,                         !- Transmittance Schedule Name
    autocalculate,            !- Number of Vertices
    34.0384,                  !- Vertex 1 Xcoordinate
    25.0466,                  !- Vertex 1 Ycoordinate
    16.1,                     !- Vertex 1 Zcoordinate
    34.0384,                  !- Vertex 2 Xcoordinate
    25.0466,                  !- Vertex 2 Ycoordinate
    0,                        !- Vertex 2 Zcoordinate
    27.2854,                  !- Vertex 3 Xcoordinate
    19.1846,                  !- Vertex 3 Ycoordinate
    0,                        !- Vertex 3 Zcoordinate
    27.2854,                  !- Vertex 4 Xcoordinate
    19.1846,                  !- Vertex 4 Ycoordinate
    16.1;                     !- Vertex 4 Zcoordinate

SHADING:SITE:DETAILED,
    Shading_V11_1,            !- Name
    ,                         !- Transmittance Schedule Name
    autocalculate,            !- Number of Vertices
    27.2854,                  !- Vertex 1 Xcoordinate
    19.1846,                  !- Vertex 1 Ycoordinate
    16.1,                     !- Vertex 1 Zcoordinate
    27.2854,                  !- Vertex 2 Xcoordinate
    19.1846,                  !- Vertex 2 Ycoordinate
    0,                        !- Vertex 2 Zcoordinate
    29.7784,                  !- Vertex 3 Xcoordinate
    16.2726,                  !- Vertex 3 Ycoordinate
    0,                        !- Vertex 3 Zcoordinate
    29.7784,                  !- Vertex 4 Xcoordinate
    16.2726,                  !- Vertex 4 Ycoordinate
    16.1;                     !- Vertex 4 Zcoordinate

SHADING:SITE:DETAILED,
    Shading_V12_1,            !- Name
    ,                         !- Transmittance Schedule Name
    autocalculate,            !- Number of Vertices
    29.7784,                  !- Vertex 1 Xcoordinate
    16.2726,                  !- Vertex 1 Ycoordinate
    16.1,                     !- Vertex 1 Zcoordinate
    29.7784,                  !- Vertex 2 Xcoordinate
    16.2726,                  !- Vertex 2 Ycoordinate
    0,                        !- Vertex 2 Zcoordinate
    22.2694,                  !- Vertex 3 Xcoordinate
    9.8036,                   !- Vertex 3 Ycoordinate
    0,                        !- Vertex 3 Zcoordinate
    22.2694,                  !- Vertex 4 Xcoordinate
    9.8036,                   !- Vertex 4 Ycoordinate
    16.1;                     !- Vertex 4 Zcoordinate

SHADING:SITE:DETAILED,
    Shading_V225_1,           !- Name
    ,                         !- Transmittance Schedule Name
    autocalculate,            !- Number of Vertices
    114.1434,                 !- Vertex 1 Xcoordinate
    103.3166,                 !- Vertex 1 Ycoordinate
    14.3,                     !- Vertex 1 Zcoordinate
    114.1434,                 !- Vertex 2 Xcoordinate
    103.3166,                 !- Vertex 2 Ycoordinate
    0,                        !- Vertex 2 Zcoordinate
    121.7404,                 !- Vertex 3 Xcoordinate
    109.8176,                 !- Vertex 3 Ycoordinate
    0,                        !- Vertex 3 Zcoordinate
    121.7404,                 !- Vertex 4 Xcoordinate
    109.8176,                 !- Vertex 4 Ycoordinate
    14.3;                     !- Vertex 4 Zcoordinate

SHADING:SITE:DETAILED,
    Shading_V228_1,           !- Name
    ,                         !- Transmittance Schedule Name
    autocalculate,            !- Number of Vertices
    -54.4836,                 !- Vertex 1 Xcoordinate
    100.9576,                 !- Vertex 1 Ycoordinate
    11.3,                     !- Vertex 1 Zcoordinate
    -54.4836,                 !- Vertex 2 Xcoordinate
    100.9576,                 !- Vertex 2 Ycoordinate
    0,                        !- Vertex 2 Zcoordinate
    -48.4026,                 !- Vertex 3 Xcoordinate
    93.9326,                  !- Vertex 3 Ycoordinate
    0,                        !- Vertex 3 Zcoordinate
    -48.4026,                 !- Vertex 4 Xcoordinate
    93.9326,                  !- Vertex 4 Ycoordinate
    11.3;                     !- Vertex 4 Zcoordinate

SHADING:SITE:DETAILED,
    Shading_V229_1,           !- Name
    ,                         !- Transmittance Schedule Name
    autocalculate,            !- Number of Vertices
    -48.4026,                 !- Vertex 1 Xcoordinate
    93.9326,                  !- Vertex 1 Ycoordinate
    11.3,                     !- Vertex 1 Zcoordinate
    -48.4026,                 !- Vertex 2 Xcoordinate
    93.9326,                  !- Vertex 2 Ycoordinate
    0,                        !- Vertex 2 Zcoordinate
    -40.7626,                 !- Vertex 3 Xcoordinate
    100.5196,                 !- Vertex 3 Ycoordinate
    0,                        !- Vertex 3 Zcoordinate
    -40.7626,                 !- Vertex 4 Xcoordinate
    100.5196,                 !- Vertex 4 Ycoordinate
    11.3;                     !- Vertex 4 Zcoordinate

SHADING:SITE:DETAILED,
    Shading_V253_1,           !- Name
    ,                         !- Transmittance Schedule Name
    autocalculate,            !- Number of Vertices
    138.7314,                 !- Vertex 1 Xcoordinate
    124.7686,                 !- Vertex 1 Ycoordinate
    16.1,                     !- Vertex 1 Zcoordinate
    138.7314,                 !- Vertex 2 Xcoordinate
    124.7686,                 !- Vertex 2 Ycoordinate
    0,                        !- Vertex 2 Zcoordinate
    143.8164,                 !- Vertex 3 Xcoordinate
    129.1156,                 !- Vertex 3 Ycoordinate
    0,                        !- Vertex 3 Zcoordinate
    143.8164,                 !- Vertex 4 Xcoordinate
    129.1156,                 !- Vertex 4 Ycoordinate
    16.1;                     !- Vertex 4 Zcoordinate

SHADING:SITE:DETAILED,
    Shading_V280_1,           !- Name
    ,                         !- Transmittance Schedule Name
    autocalculate,            !- Number of Vertices
    -33.3396,                 !- Vertex 1 Xcoordinate
    97.1966,                  !- Vertex 1 Ycoordinate
    18.7,                     !- Vertex 1 Zcoordinate
    -33.3396,                 !- Vertex 2 Xcoordinate
    97.1966,                  !- Vertex 2 Ycoordinate
    0,                        !- Vertex 2 Zcoordinate
    -25.0756,                 !- Vertex 3 Xcoordinate
    87.5736,                  !- Vertex 3 Ycoordinate
    0,                        !- Vertex 3 Zcoordinate
    -25.0756,                 !- Vertex 4 Xcoordinate
    87.5736,                  !- Vertex 4 Ycoordinate
    18.7;                     !- Vertex 4 Zcoordinate

SHADING:SITE:DETAILED,
    Shading_V281_1,           !- Name
    ,                         !- Transmittance Schedule Name
    autocalculate,            !- Number of Vertices
    -25.0756,                 !- Vertex 1 Xcoordinate
    87.5736,                  !- Vertex 1 Ycoordinate
    18.7,                     !- Vertex 1 Zcoordinate
    -25.0756,                 !- Vertex 2 Xcoordinate
    87.5736,                  !- Vertex 2 Ycoordinate
    0,                        !- Vertex 2 Zcoordinate
    -17.9046,                 !- Vertex 3 Xcoordinate
    93.7396,                  !- Vertex 3 Ycoordinate
    0,                        !- Vertex 3 Zcoordinate
    -17.9046,                 !- Vertex 4 Xcoordinate
    93.7396,                  !- Vertex 4 Ycoordinate
    18.7;                     !- Vertex 4 Zcoordinate

SHADING:SITE:DETAILED,
    Shading_V282_1,           !- Name
    ,                         !- Transmittance Schedule Name
    autocalculate,            !- Number of Vertices
    -17.9046,                 !- Vertex 1 Xcoordinate
    93.7396,                  !- Vertex 1 Ycoordinate
    18.7,                     !- Vertex 1 Zcoordinate
    -17.9046,                 !- Vertex 2 Xcoordinate
    93.7396,                  !- Vertex 2 Ycoordinate
    0,                        !- Vertex 2 Zcoordinate
    -12.9216,                 !- Vertex 3 Xcoordinate
    87.9366,                  !- Vertex 3 Ycoordinate
    0,                        !- Vertex 3 Zcoordinate
    -12.9216,                 !- Vertex 4 Xcoordinate
    87.9366,                  !- Vertex 4 Ycoordinate
    18.7;                     !- Vertex 4 Zcoordinate

SHADING:SITE:DETAILED,
    Shading_V371_1,           !- Name
    ,                         !- Transmittance Schedule Name
    autocalculate,            !- Number of Vertices
    126.2924,                 !- Vertex 1 Xcoordinate
    104.4996,                 !- Vertex 1 Ycoordinate
    14.2,                     !- Vertex 1 Zcoordinate
    126.2924,                 !- Vertex 2 Xcoordinate
    104.4996,                 !- Vertex 2 Ycoordinate
    0,                        !- Vertex 2 Zcoordinate
    118.6944,                 !- Vertex 3 Xcoordinate
    97.9986,                  !- Vertex 3 Ycoordinate
    0,                        !- Vertex 3 Zcoordinate
    118.6944,                 !- Vertex 4 Xcoordinate
    97.9986,                  !- Vertex 4 Ycoordinate
    14.2;                     !- Vertex 4 Zcoordinate

SHADING:SITE:DETAILED,
    Shading_V372_1,           !- Name
    ,                         !- Transmittance Schedule Name
    autocalculate,            !- Number of Vertices
    118.6944,                 !- Vertex 1 Xcoordinate
    97.9986,                  !- Vertex 1 Ycoordinate
    14.2,                     !- Vertex 1 Zcoordinate
    118.6944,                 !- Vertex 2 Xcoordinate
    97.9986,                  !- Vertex 2 Ycoordinate
    0,                        !- Vertex 2 Zcoordinate
    125.9474,                 !- Vertex 3 Xcoordinate
    89.5216,                  !- Vertex 3 Ycoordinate
    0,                        !- Vertex 3 Zcoordinate
    125.9474,                 !- Vertex 4 Xcoordinate
    89.5216,                  !- Vertex 4 Ycoordinate
    14.2;                     !- Vertex 4 Zcoordinate

SHADING:SITE:DETAILED,
    Shading_V514_1,           !- Name
    ,                         !- Transmittance Schedule Name
    autocalculate,            !- Number of Vertices
    -9.2486,                  !- Vertex 1 Xcoordinate
    69.2126,                  !- Vertex 1 Ycoordinate
    19,                       !- Vertex 1 Zcoordinate
    -9.2486,                  !- Vertex 2 Xcoordinate
    69.2126,                  !- Vertex 2 Ycoordinate
    0,                        !- Vertex 2 Zcoordinate
    -0.9406,                  !- Vertex 3 Xcoordinate
    59.6046,                  !- Vertex 3 Ycoordinate
    0,                        !- Vertex 3 Zcoordinate
    -0.9406,                  !- Vertex 4 Xcoordinate
    59.6046,                  !- Vertex 4 Ycoordinate
    19;                       !- Vertex 4 Zcoordinate

SHADING:SITE:DETAILED,
    Shading_V515_1,           !- Name
    ,                         !- Transmittance Schedule Name
    autocalculate,            !- Number of Vertices
    -0.9406,                  !- Vertex 1 Xcoordinate
    59.6046,                  !- Vertex 1 Ycoordinate
    19,                       !- Vertex 1 Zcoordinate
    -0.9406,                  !- Vertex 2 Xcoordinate
    59.6046,                  !- Vertex 2 Ycoordinate
    0,                        !- Vertex 2 Zcoordinate
    6.1794,                   !- Vertex 3 Xcoordinate
    65.7766,                  !- Vertex 3 Ycoordinate
    0,                        !- Vertex 3 Zcoordinate
    6.1794,                   !- Vertex 4 Xcoordinate
    65.7766,                  !- Vertex 4 Ycoordinate
    19;                       !- Vertex 4 Zcoordinate

SHADING:SITE:DETAILED,
    Shading_V25_1,            !- Name
    ,                         !- Transmittance Schedule Name
    autocalculate,            !- Number of Vertices
    -22.2926,                 !- Vertex 1 Xcoordinate
    7.0756,                   !- Vertex 1 Ycoordinate
    9,                        !- Vertex 1 Zcoordinate
    -22.2926,                 !- Vertex 2 Xcoordinate
    7.0756,                   !- Vertex 2 Ycoordinate
    0,                        !- Vertex 2 Zcoordinate
    -13.5596,                 !- Vertex 3 Xcoordinate
    12.4916,                  !- Vertex 3 Ycoordinate
    0,                        !- Vertex 3 Zcoordinate
    -13.5596,                 !- Vertex 4 Xcoordinate
    12.4916,                  !- Vertex 4 Ycoordinate
    9;                        !- Vertex 4 Zcoordinate

SHADING:SITE:DETAILED,
    Shading_V26_1,            !- Name
    ,                         !- Transmittance Schedule Name
    autocalculate,            !- Number of Vertices
    -13.5596,                 !- Vertex 1 Xcoordinate
    12.4916,                  !- Vertex 1 Ycoordinate
    9,                        !- Vertex 1 Zcoordinate
    -13.5596,                 !- Vertex 2 Xcoordinate
    12.4916,                  !- Vertex 2 Ycoordinate
    0,                        !- Vertex 2 Zcoordinate
    -22.7446,                 !- Vertex 3 Xcoordinate
    27.3546,                  !- Vertex 3 Ycoordinate
    0,                        !- Vertex 3 Zcoordinate
    -22.7446,                 !- Vertex 4 Xcoordinate
    27.3546,                  !- Vertex 4 Ycoordinate
    9;                        !- Vertex 4 Zcoordinate

SHADING:SITE:DETAILED,
    Shading_V92_1,            !- Name
    ,                         !- Transmittance Schedule Name
    autocalculate,            !- Number of Vertices
    12.1545,                  !- Vertex 1 Xcoordinate
    59.0608,                  !- Vertex 1 Ycoordinate
    12,                       !- Vertex 1 Zcoordinate
    12.1545,                  !- Vertex 2 Xcoordinate
    59.0608,                  !- Vertex 2 Ycoordinate
    0,                        !- Vertex 2 Zcoordinate
    17.0174,                  !- Vertex 3 Xcoordinate
    53.5956,                  !- Vertex 3 Ycoordinate
    0,                        !- Vertex 3 Zcoordinate
    17.0174,                  !- Vertex 4 Xcoordinate
    53.5956,                  !- Vertex 4 Ycoordinate
    12;                       !- Vertex 4 Zcoordinate

SHADING:SITE:DETAILED,
    Shading_V93_1,            !- Name
    ,                         !- Transmittance Schedule Name
    autocalculate,            !- Number of Vertices
    17.0174,                  !- Vertex 1 Xcoordinate
    53.5956,                  !- Vertex 1 Ycoordinate
    12,                       !- Vertex 1 Zcoordinate
    17.0174,                  !- Vertex 2 Xcoordinate
    53.5956,                  !- Vertex 2 Ycoordinate
    0,                        !- Vertex 2 Zcoordinate
    16.3721,                  !- Vertex 3 Xcoordinate
    44.84,                    !- Vertex 3 Ycoordinate
    0,                        !- Vertex 3 Zcoordinate
    16.3721,                  !- Vertex 4 Xcoordinate
    44.84,                    !- Vertex 4 Ycoordinate
    12;                       !- Vertex 4 Zcoordinate

SHADING:SITE:DETAILED,
    Shading_V189_1,           !- Name
    ,                         !- Transmittance Schedule Name
    autocalculate,            !- Number of Vertices
    -110.0456,                !- Vertex 1 Xcoordinate
    105.1356,                 !- Vertex 1 Ycoordinate
    12.7,                     !- Vertex 1 Zcoordinate
    -110.0456,                !- Vertex 2 Xcoordinate
    105.1356,                 !- Vertex 2 Ycoordinate
    0,                        !- Vertex 2 Zcoordinate
    -103.1316,                !- Vertex 3 Xcoordinate
    104.6166,                 !- Vertex 3 Ycoordinate
    0,                        !- Vertex 3 Zcoordinate
    -103.1316,                !- Vertex 4 Xcoordinate
    104.6166,                 !- Vertex 4 Ycoordinate
    12.7;                     !- Vertex 4 Zcoordinate

SHADING:SITE:DETAILED,
    Shading_V190_1,           !- Name
    ,                         !- Transmittance Schedule Name
    autocalculate,            !- Number of Vertices
    -103.1316,                !- Vertex 1 Xcoordinate
    104.6166,                 !- Vertex 1 Ycoordinate
    12.7,                     !- Vertex 1 Zcoordinate
    -103.1316,                !- Vertex 2 Xcoordinate
    104.6166,                 !- Vertex 2 Ycoordinate
    0,                        !- Vertex 2 Zcoordinate
    -102.3746,                !- Vertex 3 Xcoordinate
    114.6676,                 !- Vertex 3 Ycoordinate
    0,                        !- Vertex 3 Zcoordinate
    -102.3746,                !- Vertex 4 Xcoordinate
    114.6676,                 !- Vertex 4 Ycoordinate
    12.7;                     !- Vertex 4 Zcoordinate

SHADING:SITE:DETAILED,
    Shading_V227_1,           !- Name
    ,                         !- Transmittance Schedule Name
    autocalculate,            !- Number of Vertices
    -65.2511,                 !- Vertex 1 Xcoordinate
    101.7563,                 !- Vertex 1 Ycoordinate
    11.3,                     !- Vertex 1 Zcoordinate
    -65.2511,                 !- Vertex 2 Xcoordinate
    101.7563,                 !- Vertex 2 Ycoordinate
    0,                        !- Vertex 2 Zcoordinate
    -54.4836,                 !- Vertex 3 Xcoordinate
    100.9576,                 !- Vertex 3 Ycoordinate
    0,                        !- Vertex 3 Zcoordinate
    -54.4836,                 !- Vertex 4 Xcoordinate
    100.9576,                 !- Vertex 4 Ycoordinate
    11.3;                     !- Vertex 4 Zcoordinate

SHADING:SITE:DETAILED,
    Shading_V274_1,           !- Name
    ,                         !- Transmittance Schedule Name
    autocalculate,            !- Number of Vertices
    -86.6256,                 !- Vertex 1 Xcoordinate
    93.9466,                  !- Vertex 1 Ycoordinate
    17.1,                     !- Vertex 1 Zcoordinate
    -86.6256,                 !- Vertex 2 Xcoordinate
    93.9466,                  !- Vertex 2 Ycoordinate
    0,                        !- Vertex 2 Zcoordinate
    -73.9836,                 !- Vertex 3 Xcoordinate
    92.9596,                  !- Vertex 3 Ycoordinate
    0,                        !- Vertex 3 Zcoordinate
    -73.9836,                 !- Vertex 4 Xcoordinate
    92.9596,                  !- Vertex 4 Ycoordinate
    17.1;                     !- Vertex 4 Zcoordinate

SHADING:SITE:DETAILED,
    Shading_V275_1,           !- Name
    ,                         !- Transmittance Schedule Name
    autocalculate,            !- Number of Vertices
    -73.9836,                 !- Vertex 1 Xcoordinate
    92.9596,                  !- Vertex 1 Ycoordinate
    17.1,                     !- Vertex 1 Zcoordinate
    -73.9836,                 !- Vertex 2 Xcoordinate
    92.9596,                  !- Vertex 2 Ycoordinate
    0,                        !- Vertex 2 Zcoordinate
    -73.2496,                 !- Vertex 3 Xcoordinate
    102.3496,                 !- Vertex 3 Ycoordinate
    0,                        !- Vertex 3 Zcoordinate
    -73.2496,                 !- Vertex 4 Xcoordinate
    102.3496,                 !- Vertex 4 Ycoordinate
    17.1;                     !- Vertex 4 Zcoordinate

SHADING:SITE:DETAILED,
    Shading_V276_1,           !- Name
    ,                         !- Transmittance Schedule Name
    autocalculate,            !- Number of Vertices
    -73.2496,                 !- Vertex 1 Xcoordinate
    102.3496,                 !- Vertex 1 Ycoordinate
    17.1,                     !- Vertex 1 Zcoordinate
    -73.2496,                 !- Vertex 2 Xcoordinate
    102.3496,                 !- Vertex 2 Ycoordinate
    0,                        !- Vertex 2 Zcoordinate
    -65.2511,                 !- Vertex 3 Xcoordinate
    101.7563,                 !- Vertex 3 Ycoordinate
    0,                        !- Vertex 3 Zcoordinate
    -65.2511,                 !- Vertex 4 Xcoordinate
    101.7563,                 !- Vertex 4 Ycoordinate
    17.1;                     !- Vertex 4 Zcoordinate

SHADING:SITE:DETAILED,
    Shading_V381_1,           !- Name
    ,                         !- Transmittance Schedule Name
    autocalculate,            !- Number of Vertices
    -54.4206,                 !- Vertex 1 Xcoordinate
    -32.7694,                 !- Vertex 1 Ycoordinate
    8.6,                      !- Vertex 1 Zcoordinate
    -54.4206,                 !- Vertex 2 Xcoordinate
    -32.7694,                 !- Vertex 2 Ycoordinate
    0,                        !- Vertex 2 Zcoordinate
    -68.3116,                 !- Vertex 3 Xcoordinate
    -14.5154,                 !- Vertex 3 Ycoordinate
    0,                        !- Vertex 3 Zcoordinate
    -68.3116,                 !- Vertex 4 Xcoordinate
    -14.5154,                 !- Vertex 4 Ycoordinate
    8.6;                      !- Vertex 4 Zcoordinate

SHADING:SITE:DETAILED,
    Shading_V388_1,           !- Name
    ,                         !- Transmittance Schedule Name
    autocalculate,            !- Number of Vertices
    -92.1086,                 !- Vertex 1 Xcoordinate
    -25.0114,                 !- Vertex 1 Ycoordinate
    10.4,                     !- Vertex 1 Zcoordinate
    -92.1086,                 !- Vertex 2 Xcoordinate
    -25.0114,                 !- Vertex 2 Ycoordinate
    0,                        !- Vertex 2 Zcoordinate
    -95.6116,                 !- Vertex 3 Xcoordinate
    -1.5394,                  !- Vertex 3 Ycoordinate
    0,                        !- Vertex 3 Zcoordinate
    -95.6116,                 !- Vertex 4 Xcoordinate
    -1.5394,                  !- Vertex 4 Ycoordinate
    10.4;                     !- Vertex 4 Zcoordinate

SHADING:SITE:DETAILED,
    Shading_V516_1,           !- Name
    ,                         !- Transmittance Schedule Name
    autocalculate,            !- Number of Vertices
    6.1794,                   !- Vertex 1 Xcoordinate
    65.7766,                  !- Vertex 1 Ycoordinate
    19,                       !- Vertex 1 Zcoordinate
    6.1794,                   !- Vertex 2 Xcoordinate
    65.7766,                  !- Vertex 2 Ycoordinate
    0,                        !- Vertex 2 Zcoordinate
    12.1545,                  !- Vertex 3 Xcoordinate
    59.0608,                  !- Vertex 3 Ycoordinate
    0,                        !- Vertex 3 Zcoordinate
    12.1545,                  !- Vertex 4 Xcoordinate
    59.0608,                  !- Vertex 4 Ycoordinate
    19;                       !- Vertex 4 Zcoordinate

SHADING:SITE:DETAILED,
    Shading_V380_1,           !- Name
    ,                         !- Transmittance Schedule Name
    autocalculate,            !- Number of Vertices
    -62.6136,                 !- Vertex 1 Xcoordinate
    -39.0544,                 !- Vertex 1 Ycoordinate
    8.6,                      !- Vertex 1 Zcoordinate
    -62.6136,                 !- Vertex 2 Xcoordinate
    -39.0544,                 !- Vertex 2 Ycoordinate
    0,                        !- Vertex 2 Zcoordinate
    -54.4206,                 !- Vertex 3 Xcoordinate
    -32.7694,                 !- Vertex 3 Ycoordinate
    0,                        !- Vertex 3 Zcoordinate
    -54.4206,                 !- Vertex 4 Xcoordinate
    -32.7694,                 !- Vertex 4 Ycoordinate
    8.6;                      !- Vertex 4 Zcoordinate

SHADING:SITE:DETAILED,
    Shading_V408_1,           !- Name
    ,                         !- Transmittance Schedule Name
    autocalculate,            !- Number of Vertices
    -81.0736,                 !- Vertex 1 Xcoordinate
    21.7506,                  !- Vertex 1 Ycoordinate
    10.2,                     !- Vertex 1 Zcoordinate
    -81.0736,                 !- Vertex 2 Xcoordinate
    21.7506,                  !- Vertex 2 Ycoordinate
    0,                        !- Vertex 2 Zcoordinate
    -73.5986,                 !- Vertex 3 Xcoordinate
    28.6486,                  !- Vertex 3 Ycoordinate
    0,                        !- Vertex 3 Zcoordinate
    -73.5986,                 !- Vertex 4 Xcoordinate
    28.6486,                  !- Vertex 4 Ycoordinate
    10.2;                     !- Vertex 4 Zcoordinate

ELECTRICEQUIPMENT,
    Block Build0_Alt0 Storey 0Load,    !- Name
    Block Build0_Alt0 Storey 0,    !- Zone or ZoneList Name
    LoadSchedule,             !- Schedule Name
    Watts/Area,               !- Design Level Calculation Method
    ,                         !- Design Level
    0.02,                     !- Watts per Zone Floor Area
    ,                         !- Watts per Person
    0,                        !- Fraction Latent
    0,                        !- Fraction Radiant
    0,                        !- Fraction Lost
    General;                  !- EndUse Subcategory

ZONEINFILTRATION:FLOWCOEFFICIENT,
    Block Build0_Alt0 Storey 0Leak,    !- Name
    Block Build0_Alt0 Storey 0,    !- Zone Name
    AlwaysON,                 !- Schedule Name
    3.645662e-02,             !- Flow Coefficient
    0.078,                    !- Stack Coefficient
    0.667,                    !- Pressure Exponent
    0.17,                     !- Wind Coefficient
    0.5;                      !- Shelter Factor

ZONEVENTILATION:DESIGNFLOWRATE,
    Block Build0_Alt0 Storey 0FreeCool,    !- Name
    Block Build0_Alt0 Storey 0,    !- Zone or ZoneList Name
    AlwaysON,                 !- Schedule Name
    AirChanges/Hour,          !- Design Flow Rate Calculation Method
    ,                         !- Design Flow Rate
    ,                         !- Flow Rate per Zone Floor Area
    ,                         !- Flow Rate per Person
    4,                        !- Air Changes per Hour
    Natural,                  !- Ventilation Type
    0,                        !- Fan Pressure Rise
    1,                        !- Fan Total Efficiency
    1,                        !- Constant Term Coefficient
    0,                        !- Temperature Term Coefficient
    0,                        !- Velocity Term Coefficient
    0,                        !- Velocity Squared Term Coefficient
    26,                       !- Minimum Indoor Temperature
    ,                         !- Minimum Indoor Temperature Schedule Name
    100,                      !- Maximum Indoor Temperature
    ,                         !- Maximum Indoor Temperature Schedule Name
    1,                        !- Delta Temperature
    ,                         !- Delta Temperature Schedule Name
    -100,                     !- Minimum Outdoor Temperature
    ,                         !- Minimum Outdoor Temperature Schedule Name
    100,                      !- Maximum Outdoor Temperature
    ,                         !- Maximum Outdoor Temperature Schedule Name
    40;                       !- Maximum Wind Speed

HVACTEMPLATE:THERMOSTAT,
    ResidZone,                !- Name
    ,                         !- Heating Setpoint Schedule Name
    21,                       !- Constant Heating Setpoint
    ,                         !- Cooling Setpoint Schedule Name
    50;                       !- Constant Cooling Setpoint

HVACTEMPLATE:ZONE:IDEALLOADSAIRSYSTEM,
    Block Build0_Alt0 Storey 0,    !- Zone Name
    ResidZone,                !- Template Thermostat Name
    ,                         !- System Availability Schedule Name
    50,                       !- Maximum Heating Supply Air Temperature
    13,                       !- Minimum Cooling Supply Air Temperature
    0.0156,                   !- Maximum Heating Supply Air Humidity Ratio
    0.0077,                   !- Minimum Cooling Supply Air Humidity Ratio
    NoLimit,                  !- Heating Limit
    ,                         !- Maximum Heating Air Flow Rate
    8533.871475,              !- Maximum Sensible Heating Capacity
    NoLimit,                  !- Cooling Limit
    ,                         !- Maximum Cooling Air Flow Rate
    ,                         !- Maximum Total Cooling Capacity
    ,                         !- Heating Availability Schedule Name
    ,                         !- Cooling Availability Schedule Name
    ConstantSensibleHeatRatio,    !- Dehumidification Control Type
    0.7,                      !- Cooling Sensible Heat Ratio
    60,                       !- Dehumidification Setpoint
    None,                     !- Humidification Control Type
    30,                       !- Humidification Setpoint
    Flow/Area,                !- Outdoor Air Method
    0.007,                    !- Outdoor Air Flow Rate per Person
    0.0007,                   !- Outdoor Air Flow Rate per Zone Floor Area
    0,                        !- Outdoor Air Flow Rate per Zone
    ,                         !- Design Specification Outdoor Air Object Name
    None,                     !- Demand Controlled Ventilation Type
    NoEconomizer,             !- Outdoor Air Economizer Type
    None,                     !- Heat Recovery Type
    0,                        !- Sensible Heat Recovery Effectiveness
    0;                        !- Latent Heat Recovery Effectiveness

OUTDOORAIR:NODE,
    Block Build0_Alt0 Storey 0 IDEAL LOADS OUTDOOR AIR INLET,    !- Name
    -1,                       !- Height Above Ground
    ,                         !- Drybulb Temperature Schedule Name
    ,                         !- Wetbulb Temperature Schedule Name
    ,                         !- Wind Speed Schedule Name
    ,                         !- Wind Direction Schedule Name
    ,                         !- Wind Pressure Coefficient Curve Name
    No,                       !- Symmetric Wind Pressure Coefficient Curve
    Absolute;                 !- Wind Angle Type

ENERGYMANAGEMENTSYSTEM:SENSOR,
    T0,                       !- Name
    Block Build0_Alt0 Storey 0,    !- OutputVariable or OutputMeter Index Key Name
    Zone Mean Air Temperature;    !- OutputVariable or OutputMeter Name

ENERGYMANAGEMENTSYSTEM:SENSOR,
    Pow0,                     !- Name
    Block Build0_Alt0 Storey 0 IDEAL LOADS AIR SYSTEM,    !- OutputVariable or OutputMeter Index Key Name
    Zone Ideal Loads Supply Air Total Heating Rate;    !- OutputVariable or OutputMeter Name

ENERGYMANAGEMENTSYSTEM:SENSOR,
    DHWPow,                   !- Name
    DHW,                      !- OutputVariable or OutputMeter Index Key Name
    Water Use Equipment Heating Rate;    !- OutputVariable or OutputMeter Name

ENERGYMANAGEMENTSYSTEM:PROGRAMCALLINGMANAGER,
    Average Building Temperature,    !- Name
    EndOfZoneTimestepBeforeZoneReporting,    !- EnergyPlus Model Calling Point
    AverageZoneTemps;         !- Program Name 1

ENERGYMANAGEMENTSYSTEM:PROGRAMCALLINGMANAGER,
    Compute Total Building Heat Pow,    !- Name
    EndOfZoneTimestepBeforeZoneReporting,    !- EnergyPlus Model Calling Point
    TotZonePow;               !- Program Name 1

ENERGYMANAGEMENTSYSTEM:PROGRAMCALLINGMANAGER,
    Compute Total DHW Heat Pow,    !- Name
    EndOfZoneTimestepBeforeZoneReporting,    !- EnergyPlus Model Calling Point
    prgmDHWPow;               !- Program Name 1

ENERGYMANAGEMENTSYSTEM:PROGRAM,
    AverageZoneTemps,         !- Name
    SET SumNumerator = T0*Vol0,    !- Program Line 1
    SET SumDenominator  = Vol0,    !- Program Line 2
    SET AverageBuildingTemp  = SumNumerator / SumDenominator;    !- Program Line 3

ENERGYMANAGEMENTSYSTEM:PROGRAM,
    TotZonePow,               !- Name
    SET TotBuildPow = Pow0;    !- Program Line 1

ENERGYMANAGEMENTSYSTEM:PROGRAM,
    prgmDHWPow,               !- Name
    SET TotDHWPow = DHWPow;    !- Program Line 1

ENERGYMANAGEMENTSYSTEM:GLOBALVARIABLE,
    AverageBuildingTemp;      !- Erl Variable 1 Name

ENERGYMANAGEMENTSYSTEM:GLOBALVARIABLE,
    TotBuildPow;              !- Erl Variable 1 Name

ENERGYMANAGEMENTSYSTEM:GLOBALVARIABLE,
    TotDHWPow;                !- Erl Variable 1 Name

ENERGYMANAGEMENTSYSTEM:OUTPUTVARIABLE,
    Mean Heated Zones Air Temperature,    !- Name
    AverageBuildingTemp,      !- EMS Variable Name
    Averaged,                 !- Type of Data in Variable
    ZoneTimeStep;             !- Update Frequency

ENERGYMANAGEMENTSYSTEM:OUTPUTVARIABLE,
    Total Building Heating Power,    !- Name
    TotBuildPow,              !- EMS Variable Name
    Averaged,                 !- Type of Data in Variable
    ZoneTimeStep;             !- Update Frequency

ENERGYMANAGEMENTSYSTEM:OUTPUTVARIABLE,
    Total DHW Heating Power,    !- Name
    TotDHWPow,                !- EMS Variable Name
    Averaged,                 !- Type of Data in Variable
    ZoneTimeStep;             !- Update Frequency

ENERGYMANAGEMENTSYSTEM:INTERNALVARIABLE,
    Vol0,                     !- Name
    Block Build0_Alt0 Storey 0,    !- Internal Data Index Key Name
    Zone Air Volume;          !- Internal Data Type

WATERUSE:EQUIPMENT,
    DHW,                      !- Name
    General,                  !- EndUse Subcategory
    1.358811e-09,             !- Peak Flow Rate
    WaterTaps,                !- Flow Rate Fraction Schedule Name
    TargetWaterTemp,          !- Target Temperature Schedule Name
    HotWaterTemp,             !- Hot Water Supply Temperature Schedule Name
    ColdWaterTemp;            !- Cold Water Supply Temperature Schedule Name

Output:VariableDictionary,
    Regular;                  !- Key Field

OUTPUT:ENERGYMANAGEMENTSYSTEM,
    Verbose,                  !- Actuator Availability Dictionary Reporting
    Verbose,                  !- Internal Variable Availability Dictionary Reporting
    Verbose;                  !- EMS Runtime Language Debug Output Level

Output:Table:SummaryReports,
    AllSummary;               !- Report 1 Name

OutputControl:Table:Style,
    HTML;                     !- Column Separator

OUTPUT:VARIABLE,
    *,                        !- Key Value
    Site Outdoor Air Drybulb Temperature,    !- Variable Name
    Hourly;                   !- Reporting Frequency

OUTPUT:VARIABLE,
    *,                        !- Key Value
    Site Outdoor Air Relative Humidity,    !- Variable Name
    Hourly;                   !- Reporting Frequency

OUTPUT:VARIABLE,
    *,                        !- Key Value
    Site Outdoor Air Barometric Pressure,    !- Variable Name
    Hourly;                   !- Reporting Frequency

OUTPUT:VARIABLE,
    *,                        !- Key Value
    Site Wind Speed,          !- Variable Name
    Hourly;                   !- Reporting Frequency

OUTPUT:VARIABLE,
    *,                        !- Key Value
    Site Diffuse Solar Radiation Rate per Area,    !- Variable Name
    Hourly;                   !- Reporting Frequency

OUTPUT:VARIABLE,
    *,                        !- Key Value
    Site Direct Solar Radiation Rate per Area,    !- Variable Name
    Hourly;                   !- Reporting Frequency

OUTPUT:VARIABLE,
    *,                        !- Key Value
    Zone Electric Equipment Electric Power,    !- Variable Name
    Hourly;                   !- Reporting Frequency

OUTPUT:VARIABLE,
    *,                        !- Key Value
    Zone Electric Equipment Total Heating Rate,    !- Variable Name
    Hourly;                   !- Reporting Frequency

OUTPUT:VARIABLE,
    *,                        !- Key Value
    Surface Outside Face Incident Solar Radiation Rate per Area,    !- Variable Name
    Hourly;                   !- Reporting Frequency

OUTPUT:VARIABLE,
    *,                        !- Key Value
    Surface Outside Face Incident Beam Solar Radiation Rate per Area,    !- Variable Name
    Hourly;                   !- Reporting Frequency

OUTPUT:VARIABLE,
    *,                        !- Key Value
    Zone Ideal Loads Supply Air Total Heating Rate,    !- Variable Name
    Hourly;                   !- Reporting Frequency

OUTPUT:VARIABLE,
    *,                        !- Key Value
    Water Use Equipment Hot Water Mass Flow Rate,    !- Variable Name
    Hourly;                   !- Reporting Frequency

OUTPUT:VARIABLE,
    *,                        !- Key Value
    Water Use Equipment Cold Water Mass Flow Rate,    !- Variable Name
    Hourly;                   !- Reporting Frequency

OUTPUT:VARIABLE,
    *,                        !- Key Value
    Water Use Equipment Hot Water Temperature,    !- Variable Name
    Hourly;                   !- Reporting Frequency

OUTPUT:VARIABLE,
    *,                        !- Key Value
    Water Use Equipment Cold Water Temperature,    !- Variable Name
    Hourly;                   !- Reporting Frequency

OUTPUT:VARIABLE,
    *,                        !- Key Value
    Water Use Equipment Heating Rate,    !- Variable Name
    Hourly;                   !- Reporting Frequency

OUTPUT:VARIABLE,
    *,                        !- Key Value
    Mean Heated Zones Air Temperature,    !- Variable Name
    Hourly;                   !- Reporting Frequency

OUTPUT:VARIABLE,
    *,                        !- Key Value
    Total Building Heating Power,    !- Variable Name
    Hourly;                   !- Reporting Frequency

OUTPUT:VARIABLE,
    *,                        !- Key Value
    Total DHW Heating Power,    !- Variable Name
    Hourly;                   !- Reporting Frequency

OUTPUT:DIAGNOSTICS,
    DISPLAYEXTRAWARNINGS,     !- Key 1
    DisplayAdvancedReportVariables;    !- Key 2