!- Darwin Line endings 

Version,
    9.5;                      !- Version Identifier

SimulationControl,
    No,                       !- Do Zone Sizing Calculation
    No,                       !- Do System Sizing Calculation
    No,                       !- Do Plant Sizing Calculation
    No,                       !- Run Simulation for Sizing Periods
    Yes,                      !- Run Simulation for Weather File Run Periods
    No,                       !- Do HVAC Sizing Simulation for Sizing Periods
    1;                        !- Maximum Number of HVAC Sizing Simulation Passes

Building,
    None,                     !- Name
    0,                        !- North Axis
    Suburbs,                  !- Terrain
    0.04,                     !- Loads Convergence Tolerance Value
    0.4,                      !- Temperature Convergence Tolerance Value
    FullExterior,             !- Solar Distribution
    25,                       !- Maximum Number of Warmup Days
    6;                        !- Minimum Number of Warmup Days

SHADOWCALCULATION,
    PolygonClipping,          !- Shading Calculation Method
    Periodic,                 !- Shading Calculation Update Frequency Method
    20,                       !- Shading Calculation Update Frequency
    25000,                    !- Maximum Figures in Shadow Overlap Calculations
    SutherlandHodgman,        !- Polygon Clipping Algorithm
    512,                      !- Pixel Counting Resolution
    SimpleSkyDiffuseModeling,    !- Sky Diffuse Modeling Algorithm
    No,                       !- Output External Shading Calculation Results
    No,                       !- Disable SelfShading Within Shading Zone Groups
    No;                       !- Disable SelfShading From Shading Zone Groups to Other Zones

Timestep,
    4;                        !- Number of Timesteps per Hour

Site:Location,
    WeatherData/USA_CA_San.Francisco.Intl.AP.724940_TMY3.epw,    !- Name
    37.62,                    !- Latitude
    -122.4,                   !- Longitude
    -8,                       !- Time Zone
    2;                        !- Elevation

SizingPeriod:DesignDay,
    DENVER_STAPLETON Ann Htg 99.6% Condns DB,    !- Name
    12,                       !- Month
    21,                       !- Day of Month
    WinterDesignDay,          !- Day Type
    -20,                      !- Maximum DryBulb Temperature
    0,                        !- Daily DryBulb Temperature Range
    ,                         !- DryBulb Temperature Range Modifier Type
    ,                         !- DryBulb Temperature Range Modifier Day Schedule Name
    Wetbulb,                  !- Humidity Condition Type
    -20,                      !- Wetbulb or DewPoint at Maximum DryBulb
    ,                         !- Humidity Condition Day Schedule Name
    ,                         !- Humidity Ratio at Maximum DryBulb
    ,                         !- Enthalpy at Maximum DryBulb
    ,                         !- Daily WetBulb Temperature Range
    100594,                   !- Barometric Pressure
    2.3,                      !- Wind Speed
    180,                      !- Wind Direction
    No,                       !- Rain Indicator
    No,                       !- Snow Indicator
    No,                       !- Daylight Saving Time Indicator
    ASHRAEClearSky,           !- Solar Model Indicator
    ,                         !- Beam Solar Day Schedule Name
    ,                         !- Diffuse Solar Day Schedule Name
    ,                         !- ASHRAE Clear Sky Optical Depth for Beam Irradiance taub
    ,                         !- ASHRAE Clear Sky Optical Depth for Diffuse Irradiance taud
    0;                        !- Sky Clearness

SizingPeriod:DesignDay,
    DENVER_STAPLETON Ann Clg .4% Condns DB=>MWB,    !- Name
    7,                        !- Month
    21,                       !- Day of Month
    SummerDesignDay,          !- Day Type
    34.1,                     !- Maximum DryBulb Temperature
    15.2,                     !- Daily DryBulb Temperature Range
    ,                         !- DryBulb Temperature Range Modifier Type
    ,                         !- DryBulb Temperature Range Modifier Day Schedule Name
    Wetbulb,                  !- Humidity Condition Type
    15.8,                     !- Wetbulb or DewPoint at Maximum DryBulb
    ,                         !- Humidity Condition Day Schedule Name
    ,                         !- Humidity Ratio at Maximum DryBulb
    ,                         !- Enthalpy at Maximum DryBulb
    ,                         !- Daily WetBulb Temperature Range
    100594,                   !- Barometric Pressure
    4,                        !- Wind Speed
    120,                      !- Wind Direction
    No,                       !- Rain Indicator
    No,                       !- Snow Indicator
    No,                       !- Daylight Saving Time Indicator
    ASHRAEClearSky,           !- Solar Model Indicator
    ,                         !- Beam Solar Day Schedule Name
    ,                         !- Diffuse Solar Day Schedule Name
    ,                         !- ASHRAE Clear Sky Optical Depth for Beam Irradiance taub
    ,                         !- ASHRAE Clear Sky Optical Depth for Diffuse Irradiance taud
    1;                        !- Sky Clearness

RunPeriod,
    Run Period 1,             !- Name
    1,                        !- Begin Month
    1,                        !- Begin Day of Month
    ,                         !- Begin Year
    12,                       !- End Month
    31,                       !- End Day of Month
    ,                         !- End Year
    Tuesday,                  !- Day of Week for Start Day
    Yes,                      !- Use Weather File Holidays and Special Days
    Yes,                      !- Use Weather File Daylight Saving Period
    No,                       !- Apply Weekend Holiday Rule
    Yes,                      !- Use Weather File Rain Indicators
    Yes;                      !- Use Weather File Snow Indicators

SITE:GROUNDTEMPERATURE:BUILDINGSURFACE,
    15,                       !- January Ground Temperature
    15,                       !- February Ground Temperature
    15,                       !- March Ground Temperature
    15,                       !- April Ground Temperature
    15,                       !- May Ground Temperature
    15,                       !- June Ground Temperature
    15,                       !- July Ground Temperature
    15,                       !- August Ground Temperature
    15,                       !- September Ground Temperature
    15,                       !- October Ground Temperature
    15,                       !- November Ground Temperature
    15;                       !- December Ground Temperature

SCHEDULETYPELIMITS,
    Any Number,               !- Name
    ,                         !- Lower Limit Value
    ,                         !- Upper Limit Value
    ,                         !- Numeric Type
    Dimensionless;            !- Unit Type

SCHEDULE:COMPACT,
    AlwaysON,                 !- Name
    Any Number,               !- Schedule Type Limits Name
    Through: 12/31,           !- Field 1
    For: AllDays,             !- Field 2
    Until: 24:00,             !- Field 3
    1;                        !- Field 4

SCHEDULE:COMPACT,
    OccupActivity,            !- Name
    Any Number,               !- Schedule Type Limits Name
    Through: 12/31,           !- Field 1
    For: AllDays,             !- Field 2
    Until: 24:00,             !- Field 3
    70;                       !- Field 4

SCHEDULE:COMPACT,
    HotWaterTemp,             !- Name
    Any Number,               !- Schedule Type Limits Name
    Through: 12/31,           !- Field 1
    For: AllDays,             !- Field 2
    Until: 24:00,             !- Field 3
    55;                       !- Field 4

SCHEDULE:COMPACT,
    TargetWaterTemp,          !- Name
    Any Number,               !- Schedule Type Limits Name
    Through: 12/31,           !- Field 1
    For: AllDays,             !- Field 2
    Until: 24:00,             !- Field 3
    37;                       !- Field 4

SCHEDULE:FILE,
    LoadSchedule,             !- Name
    Any Number,               !- Schedule Type Limits Name
    /Users/alizad/PycharmProjects/mubes-ubem/examples/ForTest/InputFiles/Building18_winter.txt,    !- File Name
    1,                        !- Column Number
    0,                        !- Rows to Skip at Top
    8760,                     !- Number of Hours of Data
    Comma,                    !- Column Separator
    No;                       !- Interpolate to Timestep

SCHEDULE:FILE,
    Watertaps,                !- Name
    Any Number,               !- Schedule Type Limits Name
    /Users/alizad/PycharmProjects/mubes-ubem/examples/ForTest/InputFiles/domestic_hot_water_40_apartments.txt,    !- File Name
    1,                        !- Column Number
    0,                        !- Rows to Skip at Top
    8760,                     !- Number of Hours of Data
    Comma,                    !- Column Separator
    No;                       !- Interpolate to Timestep

SCHEDULE:FILE,
    ColdWaterTemp,            !- Name
    Any Number,               !- Schedule Type Limits Name
    /Users/alizad/PycharmProjects/mubes-ubem/examples/ForTest/InputFiles/cold_water_temperature_stockholm.txt,    !- File Name
    1,                        !- Column Number
    0,                        !- Rows to Skip at Top
    8760,                     !- Number of Hours of Data
    Comma,                    !- Column Separator
    No;                       !- Interpolate to Timestep

MATERIAL,
    DefaultMaterial,          !- Name
    Rough,                    !- Roughness
    0.1,                      !- Thickness
    0.1,                      !- Conductivity
    1000,                     !- Density
    1000,                     !- Specific Heat
    0.9,                      !- Thermal Absorptance
    0.7,                      !- Solar Absorptance
    0.7;                      !- Visible Absorptance

MATERIAL,
    Basement Floor,           !- Name
    Rough,                    !- Roughness
    0.1,                      !- Thickness
    0.9,                      !- Conductivity
    2300,                     !- Density
    1000,                     !- Specific Heat
    0.9,                      !- Thermal Absorptance
    0.7,                      !- Solar Absorptance
    0.7;                      !- Visible Absorptance

MATERIAL,
    Heated1rstFloor Inertia,    !- Name
    Rough,                    !- Roughness
    0.1,                      !- Thickness
    0.9,                      !- Conductivity
    2300,                     !- Density
    1000,                     !- Specific Heat
    0.9,                      !- Thermal Absorptance
    0.7,                      !- Solar Absorptance
    0.7;                      !- Visible Absorptance

MATERIAL,
    Heated1rstFloor Insulation,    !- Name
    Rough,                    !- Roughness
    0.15,                     !- Thickness
    0.035,                    !- Conductivity
    150,                      !- Density
    1000,                     !- Specific Heat
    0.9,                      !- Thermal Absorptance
    0.7,                      !- Solar Absorptance
    0.7;                      !- Visible Absorptance

MATERIAL,
    Roof Insulation,          !- Name
    Rough,                    !- Roughness
    0.3,                      !- Thickness
    0.03,                     !- Conductivity
    150,                      !- Density
    1000,                     !- Specific Heat
    0.9,                      !- Thermal Absorptance
    0.7,                      !- Solar Absorptance
    0.7;                      !- Visible Absorptance

MATERIAL,
    Wall Inertia,             !- Name
    Rough,                    !- Roughness
    0.2,                      !- Thickness
    0.9,                      !- Conductivity
    2300,                     !- Density
    1000,                     !- Specific Heat
    0.9,                      !- Thermal Absorptance
    0.7,                      !- Solar Absorptance
    0.7;                      !- Visible Absorptance

MATERIAL,
    Wall Insulation,          !- Name
    Rough,                    !- Roughness
    0.2,                      !- Thickness
    0.03,                     !- Conductivity
    150,                      !- Density
    1000,                     !- Specific Heat
    0.9,                      !- Thermal Absorptance
    0.7,                      !- Solar Absorptance
    0.7;                      !- Visible Absorptance

MATERIAL,
    HeatedZoneIntMass,        !- Name
    Rough,                    !- Roughness
    0.1,                      !- Thickness
    0.3,                      !- Conductivity
    600,                      !- Density
    1400,                     !- Specific Heat
    0.9,                      !- Thermal Absorptance
    0.7,                      !- Solar Absorptance
    0.7;                      !- Visible Absorptance

MATERIAL,
    NonHeatedZoneIntMass,     !- Name
    Rough,                    !- Roughness
    0.1,                      !- Thickness
    0.3,                      !- Conductivity
    600,                      !- Density
    1400,                     !- Specific Heat
    0.9,                      !- Thermal Absorptance
    0.7,                      !- Solar Absorptance
    0.7;                      !- Visible Absorptance

MATERIAL,
    AirWallMaterial,          !- Name
    MediumSmooth,             !- Roughness
    0.01,                     !- Thickness
    0.6,                      !- Conductivity
    800,                      !- Density
    1000,                     !- Specific Heat
    0.95,                     !- Thermal Absorptance
    0.7,                      !- Solar Absorptance
    0.7;                      !- Visible Absorptance

WINDOWMATERIAL:SIMPLEGLAZINGSYSTEM,
    DefaultGlazing,           !- Name
    2.7,                      !- UFactor
    0.763,                    !- Solar Heat Gain Coefficient
    0.8;                      !- Visible Transmittance

WINDOWMATERIAL:SIMPLEGLAZINGSYSTEM,
    Window,                   !- Name
    1.9,                      !- UFactor
    0.7,                      !- Solar Heat Gain Coefficient
    0.8;                      !- Visible Transmittance

CONSTRUCTION,
    Project Wall,             !- Name
    Wall Inertia,             !- Outside Layer
    Wall Insulation;          !- Layer 2

CONSTRUCTION,
    Project Basement Wall,    !- Name
    Wall Inertia;             !- Outside Layer

CONSTRUCTION,
    Project Basement Floor,    !- Name
    Basement Floor;           !- Outside Layer

CONSTRUCTION,
    Project Flat Roof,        !- Name
    Roof Insulation;          !- Outside Layer

CONSTRUCTION,
    Project External Window,    !- Name
    Window;                   !- Outside Layer

CONSTRUCTION,
    Project Heated1rstFloor,    !- Name
    Heated1rstFloor Inertia,    !- Outside Layer
    Heated1rstFloor Insulation;    !- Layer 2

CONSTRUCTION,
    Project Heated1rstFloor Rev,    !- Name
    Heated1rstFloor Insulation,    !- Outside Layer
    Heated1rstFloor Inertia;    !- Layer 2

CONSTRUCTION,
    HeatedZoneIntMassObj,     !- Name
    HeatedZoneIntMass;        !- Outside Layer

CONSTRUCTION,
    NonHeatedZoneIntMassObj,    !- Name
    NonHeatedZoneIntMass;     !- Outside Layer

GlobalGeometryRules,
    UpperLeftCorner,          !- Starting Vertex Position
    CounterClockWise,         !- Vertex Entry Direction
    World;                    !- Coordinate System

ZONE,
    Block Build0_Alt0 Storey -1,    !- Name
    0,                        !- Direction of Relative North
    0,                        !- X Origin
    0,                        !- Y Origin
    0,                        !- Z Origin
    1,                        !- Type
    1,                        !- Multiplier
    autocalculate,            !- Ceiling Height
    autocalculate,            !- Volume
    autocalculate,            !- Floor Area
    ,                         !- Zone Inside Convection Algorithm
    ,                         !- Zone Outside Convection Algorithm
    Yes;                      !- Part of Total Floor Area

ZONE,
    Block Build0_Alt0 Storey 0,    !- Name
    0,                        !- Direction of Relative North
    0,                        !- X Origin
    0,                        !- Y Origin
    0,                        !- Z Origin
    1,                        !- Type
    1,                        !- Multiplier
    autocalculate,            !- Ceiling Height
    autocalculate,            !- Volume
    autocalculate,            !- Floor Area
    ,                         !- Zone Inside Convection Algorithm
    ,                         !- Zone Outside Convection Algorithm
    Yes;                      !- Part of Total Floor Area

BUILDINGSURFACE:DETAILED,
    Block Build0_Alt0 Storey -1 Wall 0001,    !- Name
    wall,                     !- Surface Type
    Project Basement Wall,    !- Construction Name
    Block Build0_Alt0 Storey -1,    !- Zone Name
    ground,                   !- Outside Boundary Condition
    ,                         !- Outside Boundary Condition Object
    NoSun,                    !- Sun Exposure
    NoWind,                   !- Wind Exposure
    autocalculate,            !- View Factor to Ground
    autocalculate,            !- Number of Vertices
    -12.1026,                 !- Vertex 1 Xcoordinate
    21.4497,                  !- Vertex 1 Ycoordinate
    0,                        !- Vertex 1 Zcoordinate
    -12.1026,                 !- Vertex 2 Xcoordinate
    21.4497,                  !- Vertex 2 Ycoordinate
    -2.5,                     !- Vertex 2 Zcoordinate
    -5.1326,                  !- Vertex 3 Xcoordinate
    20.9347,                  !- Vertex 3 Ycoordinate
    -2.5,                     !- Vertex 3 Zcoordinate
    -5.1326,                  !- Vertex 4 Xcoordinate
    20.9347,                  !- Vertex 4 Ycoordinate
    0;                        !- Vertex 4 Zcoordinate

BUILDINGSURFACE:DETAILED,
    Block Build0_Alt0 Storey -1 Wall 0002,    !- Name
    wall,                     !- Surface Type
    Project Basement Wall,    !- Construction Name
    Block Build0_Alt0 Storey -1,    !- Zone Name
    ground,                   !- Outside Boundary Condition
    ,                         !- Outside Boundary Condition Object
    NoSun,                    !- Sun Exposure
    NoWind,                   !- Wind Exposure
    autocalculate,            !- View Factor to Ground
    autocalculate,            !- Number of Vertices
    -5.1326,                  !- Vertex 1 Xcoordinate
    20.9347,                  !- Vertex 1 Ycoordinate
    0,                        !- Vertex 1 Zcoordinate
    -5.1326,                  !- Vertex 2 Xcoordinate
    20.9347,                  !- Vertex 2 Ycoordinate
    -2.5,                     !- Vertex 2 Zcoordinate
    -6.6196,                  !- Vertex 3 Xcoordinate
    0.9397,                   !- Vertex 3 Ycoordinate
    -2.5,                     !- Vertex 3 Zcoordinate
    -6.6196,                  !- Vertex 4 Xcoordinate
    0.9397,                   !- Vertex 4 Ycoordinate
    0;                        !- Vertex 4 Zcoordinate

BUILDINGSURFACE:DETAILED,
    Block Build0_Alt0 Storey -1 Wall 0003,    !- Name
    wall,                     !- Surface Type
    Project Basement Wall,    !- Construction Name
    Block Build0_Alt0 Storey -1,    !- Zone Name
    ground,                   !- Outside Boundary Condition
    ,                         !- Outside Boundary Condition Object
    NoSun,                    !- Sun Exposure
    NoWind,                   !- Wind Exposure
    autocalculate,            !- View Factor to Ground
    autocalculate,            !- Number of Vertices
    -6.6196,                  !- Vertex 1 Xcoordinate
    0.9397,                   !- Vertex 1 Ycoordinate
    0,                        !- Vertex 1 Zcoordinate
    -6.6196,                  !- Vertex 2 Xcoordinate
    0.9397,                   !- Vertex 2 Ycoordinate
    -2.5,                     !- Vertex 2 Zcoordinate
    -10.6816,                 !- Vertex 3 Xcoordinate
    -2.5173,                  !- Vertex 3 Ycoordinate
    -2.5,                     !- Vertex 3 Zcoordinate
    -10.6816,                 !- Vertex 4 Xcoordinate
    -2.5173,                  !- Vertex 4 Ycoordinate
    0;                        !- Vertex 4 Zcoordinate

BUILDINGSURFACE:DETAILED,
    Block Build0_Alt0 Storey -1 Wall 0004,    !- Name
    wall,                     !- Surface Type
    Project Basement Wall,    !- Construction Name
    Block Build0_Alt0 Storey -1,    !- Zone Name
    ground,                   !- Outside Boundary Condition
    ,                         !- Outside Boundary Condition Object
    NoSun,                    !- Sun Exposure
    NoWind,                   !- Wind Exposure
    autocalculate,            !- View Factor to Ground
    autocalculate,            !- Number of Vertices
    -10.6816,                 !- Vertex 1 Xcoordinate
    -2.5173,                  !- Vertex 1 Ycoordinate
    0,                        !- Vertex 1 Zcoordinate
    -10.6816,                 !- Vertex 2 Xcoordinate
    -2.5173,                  !- Vertex 2 Ycoordinate
    -2.5,                     !- Vertex 2 Zcoordinate
    -6.0296,                  !- Vertex 3 Xcoordinate
    -7.9353,                  !- Vertex 3 Ycoordinate
    -2.5,                     !- Vertex 3 Zcoordinate
    -6.0296,                  !- Vertex 4 Xcoordinate
    -7.9353,                  !- Vertex 4 Ycoordinate
    0;                        !- Vertex 4 Zcoordinate

BUILDINGSURFACE:DETAILED,
    Block Build0_Alt0 Storey -1 Wall 0005,    !- Name
    wall,                     !- Surface Type
    Project Basement Wall,    !- Construction Name
    Block Build0_Alt0 Storey -1,    !- Zone Name
    ground,                   !- Outside Boundary Condition
    ,                         !- Outside Boundary Condition Object
    NoSun,                    !- Sun Exposure
    NoWind,                   !- Wind Exposure
    autocalculate,            !- View Factor to Ground
    autocalculate,            !- Number of Vertices
    -6.0296,                  !- Vertex 1 Xcoordinate
    -7.9353,                  !- Vertex 1 Ycoordinate
    0,                        !- Vertex 1 Zcoordinate
    -6.0296,                  !- Vertex 2 Xcoordinate
    -7.9353,                  !- Vertex 2 Ycoordinate
    -2.5,                     !- Vertex 2 Zcoordinate
    -2.9856,                  !- Vertex 3 Xcoordinate
    -5.3373,                  !- Vertex 3 Ycoordinate
    -2.5,                     !- Vertex 3 Zcoordinate
    -2.9856,                  !- Vertex 4 Xcoordinate
    -5.3373,                  !- Vertex 4 Ycoordinate
    0;                        !- Vertex 4 Zcoordinate

BUILDINGSURFACE:DETAILED,
    Block Build0_Alt0 Storey -1 Wall 0006,    !- Name
    wall,                     !- Surface Type
    Project Basement Wall,    !- Construction Name
    Block Build0_Alt0 Storey -1,    !- Zone Name
    ground,                   !- Outside Boundary Condition
    ,                         !- Outside Boundary Condition Object
    NoSun,                    !- Sun Exposure
    NoWind,                   !- Wind Exposure
    autocalculate,            !- View Factor to Ground
    autocalculate,            !- Number of Vertices
    -2.9856,                  !- Vertex 1 Xcoordinate
    -5.3373,                  !- Vertex 1 Ycoordinate
    0,                        !- Vertex 1 Zcoordinate
    -2.9856,                  !- Vertex 2 Xcoordinate
    -5.3373,                  !- Vertex 2 Ycoordinate
    -2.5,                     !- Vertex 2 Zcoordinate
    19.8774,                  !- Vertex 3 Xcoordinate
    -31.9733,                 !- Vertex 3 Ycoordinate
    -2.5,                     !- Vertex 3 Zcoordinate
    19.8774,                  !- Vertex 4 Xcoordinate
    -31.9733,                 !- Vertex 4 Ycoordinate
    0;                        !- Vertex 4 Zcoordinate

BUILDINGSURFACE:DETAILED,
    Block Build0_Alt0 Storey -1 Wall 0007,    !- Name
    wall,                     !- Surface Type
    Project Basement Wall,    !- Construction Name
    Block Build0_Alt0 Storey -1,    !- Zone Name
    ground,                   !- Outside Boundary Condition
    ,                         !- Outside Boundary Condition Object
    NoSun,                    !- Sun Exposure
    NoWind,                   !- Wind Exposure
    autocalculate,            !- View Factor to Ground
    autocalculate,            !- Number of Vertices
    19.8774,                  !- Vertex 1 Xcoordinate
    -31.9733,                 !- Vertex 1 Ycoordinate
    0,                        !- Vertex 1 Zcoordinate
    19.8774,                  !- Vertex 2 Xcoordinate
    -31.9733,                 !- Vertex 2 Ycoordinate
    -2.5,                     !- Vertex 2 Zcoordinate
    27.5624,                  !- Vertex 3 Xcoordinate
    -25.3973,                 !- Vertex 3 Ycoordinate
    -2.5,                     !- Vertex 3 Zcoordinate
    27.5624,                  !- Vertex 4 Xcoordinate
    -25.3973,                 !- Vertex 4 Ycoordinate
    0;                        !- Vertex 4 Zcoordinate

BUILDINGSURFACE:DETAILED,
    Block Build0_Alt0 Storey -1 Wall 0008,    !- Name
    wall,                     !- Surface Type
    Project Basement Wall,    !- Construction Name
    Block Build0_Alt0 Storey -1,    !- Zone Name
    ground,                   !- Outside Boundary Condition
    ,                         !- Outside Boundary Condition Object
    NoSun,                    !- Sun Exposure
    NoWind,                   !- Wind Exposure
    autocalculate,            !- View Factor to Ground
    autocalculate,            !- Number of Vertices
    27.5624,                  !- Vertex 1 Xcoordinate
    -25.3973,                 !- Vertex 1 Ycoordinate
    0,                        !- Vertex 1 Zcoordinate
    27.5624,                  !- Vertex 2 Xcoordinate
    -25.3973,                 !- Vertex 2 Ycoordinate
    -2.5,                     !- Vertex 2 Zcoordinate
    23.4814,                  !- Vertex 3 Xcoordinate
    -20.6553,                 !- Vertex 3 Ycoordinate
    -2.5,                     !- Vertex 3 Zcoordinate
    23.4814,                  !- Vertex 4 Xcoordinate
    -20.6553,                 !- Vertex 4 Ycoordinate
    0;                        !- Vertex 4 Zcoordinate

BUILDINGSURFACE:DETAILED,
    Block Build0_Alt0 Storey -1 Wall 0009,    !- Name
    wall,                     !- Surface Type
    Project Basement Wall,    !- Construction Name
    Block Build0_Alt0 Storey -1,    !- Zone Name
    ground,                   !- Outside Boundary Condition
    ,                         !- Outside Boundary Condition Object
    NoSun,                    !- Sun Exposure
    NoWind,                   !- Wind Exposure
    autocalculate,            !- View Factor to Ground
    autocalculate,            !- Number of Vertices
    23.4814,                  !- Vertex 1 Xcoordinate
    -20.6553,                 !- Vertex 1 Ycoordinate
    0,                        !- Vertex 1 Zcoordinate
    23.4814,                  !- Vertex 2 Xcoordinate
    -20.6553,                 !- Vertex 2 Ycoordinate
    -2.5,                     !- Vertex 2 Zcoordinate
    29.4354,                  !- Vertex 3 Xcoordinate
    -15.5173,                 !- Vertex 3 Ycoordinate
    -2.5,                     !- Vertex 3 Zcoordinate
    29.4354,                  !- Vertex 4 Xcoordinate
    -15.5173,                 !- Vertex 4 Ycoordinate
    0;                        !- Vertex 4 Zcoordinate

BUILDINGSURFACE:DETAILED,
    Block Build0_Alt0 Storey -1 Wall 0010,    !- Name
    wall,                     !- Surface Type
    Project Basement Wall,    !- Construction Name
    Block Build0_Alt0 Storey -1,    !- Zone Name
    ground,                   !- Outside Boundary Condition
    ,                         !- Outside Boundary Condition Object
    NoSun,                    !- Sun Exposure
    NoWind,                   !- Wind Exposure
    autocalculate,            !- View Factor to Ground
    autocalculate,            !- Number of Vertices
    29.4354,                  !- Vertex 1 Xcoordinate
    -15.5173,                 !- Vertex 1 Ycoordinate
    0,                        !- Vertex 1 Zcoordinate
    29.4354,                  !- Vertex 2 Xcoordinate
    -15.5173,                 !- Vertex 2 Ycoordinate
    -2.5,                     !- Vertex 2 Zcoordinate
    24.1924,                  !- Vertex 3 Xcoordinate
    -9.3903,                  !- Vertex 3 Ycoordinate
    -2.5,                     !- Vertex 3 Zcoordinate
    24.1924,                  !- Vertex 4 Xcoordinate
    -9.3903,                  !- Vertex 4 Ycoordinate
    0;                        !- Vertex 4 Zcoordinate

BUILDINGSURFACE:DETAILED,
    Block Build0_Alt0 Storey -1 Wall 0011,    !- Name
    wall,                     !- Surface Type
    Project Basement Wall,    !- Construction Name
    Block Build0_Alt0 Storey -1,    !- Zone Name
    ground,                   !- Outside Boundary Condition
    ,                         !- Outside Boundary Condition Object
    NoSun,                    !- Sun Exposure
    NoWind,                   !- Wind Exposure
    autocalculate,            !- View Factor to Ground
    autocalculate,            !- Number of Vertices
    24.1924,                  !- Vertex 1 Xcoordinate
    -9.3903,                  !- Vertex 1 Ycoordinate
    0,                        !- Vertex 1 Zcoordinate
    24.1924,                  !- Vertex 2 Xcoordinate
    -9.3903,                  !- Vertex 2 Ycoordinate
    -2.5,                     !- Vertex 2 Zcoordinate
    18.1984,                  !- Vertex 3 Xcoordinate
    -14.4723,                 !- Vertex 3 Ycoordinate
    -2.5,                     !- Vertex 3 Zcoordinate
    18.1984,                  !- Vertex 4 Xcoordinate
    -14.4723,                 !- Vertex 4 Ycoordinate
    0;                        !- Vertex 4 Zcoordinate

BUILDINGSURFACE:DETAILED,
    Block Build0_Alt0 Storey -1 Wall 0012,    !- Name
    wall,                     !- Surface Type
    Project Basement Wall,    !- Construction Name
    Block Build0_Alt0 Storey -1,    !- Zone Name
    ground,                   !- Outside Boundary Condition
    ,                         !- Outside Boundary Condition Object
    NoSun,                    !- Sun Exposure
    NoWind,                   !- Wind Exposure
    autocalculate,            !- View Factor to Ground
    autocalculate,            !- Number of Vertices
    18.1984,                  !- Vertex 1 Xcoordinate
    -14.4723,                 !- Vertex 1 Ycoordinate
    0,                        !- Vertex 1 Zcoordinate
    18.1984,                  !- Vertex 2 Xcoordinate
    -14.4723,                 !- Vertex 2 Ycoordinate
    -2.5,                     !- Vertex 2 Zcoordinate
    3.5754,                   !- Vertex 3 Xcoordinate
    2.4287,                   !- Vertex 3 Ycoordinate
    -2.5,                     !- Vertex 3 Zcoordinate
    3.5754,                   !- Vertex 4 Xcoordinate
    2.4287,                   !- Vertex 4 Ycoordinate
    0;                        !- Vertex 4 Zcoordinate

BUILDINGSURFACE:DETAILED,
    Block Build0_Alt0 Storey -1 Wall 0013,    !- Name
    wall,                     !- Surface Type
    Project Basement Wall,    !- Construction Name
    Block Build0_Alt0 Storey -1,    !- Zone Name
    ground,                   !- Outside Boundary Condition
    ,                         !- Outside Boundary Condition Object
    NoSun,                    !- Sun Exposure
    NoWind,                   !- Wind Exposure
    autocalculate,            !- View Factor to Ground
    autocalculate,            !- Number of Vertices
    3.5754,                   !- Vertex 1 Xcoordinate
    2.4287,                   !- Vertex 1 Ycoordinate
    0,                        !- Vertex 1 Zcoordinate
    3.5754,                   !- Vertex 2 Xcoordinate
    2.4287,                   !- Vertex 2 Ycoordinate
    -2.5,                     !- Vertex 2 Zcoordinate
    4.8474,                   !- Vertex 3 Xcoordinate
    18.8287,                  !- Vertex 3 Ycoordinate
    -2.5,                     !- Vertex 3 Zcoordinate
    4.8474,                   !- Vertex 4 Xcoordinate
    18.8287,                  !- Vertex 4 Ycoordinate
    0;                        !- Vertex 4 Zcoordinate

BUILDINGSURFACE:DETAILED,
    Block Build0_Alt0 Storey -1 Wall 0014,    !- Name
    wall,                     !- Surface Type
    Project Basement Wall,    !- Construction Name
    Block Build0_Alt0 Storey -1,    !- Zone Name
    ground,                   !- Outside Boundary Condition
    ,                         !- Outside Boundary Condition Object
    NoSun,                    !- Sun Exposure
    NoWind,                   !- Wind Exposure
    autocalculate,            !- View Factor to Ground
    autocalculate,            !- Number of Vertices
    4.8474,                   !- Vertex 1 Xcoordinate
    18.8287,                  !- Vertex 1 Ycoordinate
    0,                        !- Vertex 1 Zcoordinate
    4.8474,                   !- Vertex 2 Xcoordinate
    18.8287,                  !- Vertex 2 Ycoordinate
    -2.5,                     !- Vertex 2 Zcoordinate
    14.2214,                  !- Vertex 3 Xcoordinate
    18.1057,                  !- Vertex 3 Ycoordinate
    -2.5,                     !- Vertex 3 Zcoordinate
    14.2214,                  !- Vertex 4 Xcoordinate
    18.1057,                  !- Vertex 4 Ycoordinate
    0;                        !- Vertex 4 Zcoordinate

BUILDINGSURFACE:DETAILED,
    Block Build0_Alt0 Storey -1 Wall 0015,    !- Name
    wall,                     !- Surface Type
    Project Basement Wall,    !- Construction Name
    Block Build0_Alt0 Storey -1,    !- Zone Name
    ground,                   !- Outside Boundary Condition
    ,                         !- Outside Boundary Condition Object
    NoSun,                    !- Sun Exposure
    NoWind,                   !- Wind Exposure
    autocalculate,            !- View Factor to Ground
    autocalculate,            !- Number of Vertices
    14.2214,                  !- Vertex 1 Xcoordinate
    18.1057,                  !- Vertex 1 Ycoordinate
    0,                        !- Vertex 1 Zcoordinate
    14.2214,                  !- Vertex 2 Xcoordinate
    18.1057,                  !- Vertex 2 Ycoordinate
    -2.5,                     !- Vertex 2 Zcoordinate
    15.1954,                  !- Vertex 3 Xcoordinate
    30.8197,                  !- Vertex 3 Ycoordinate
    -2.5,                     !- Vertex 3 Zcoordinate
    15.1954,                  !- Vertex 4 Xcoordinate
    30.8197,                  !- Vertex 4 Ycoordinate
    0;                        !- Vertex 4 Zcoordinate

BUILDINGSURFACE:DETAILED,
    Block Build0_Alt0 Storey -1 Wall 0016,    !- Name
    wall,                     !- Surface Type
    Project Basement Wall,    !- Construction Name
    Block Build0_Alt0 Storey -1,    !- Zone Name
    ground,                   !- Outside Boundary Condition
    ,                         !- Outside Boundary Condition Object
    NoSun,                    !- Sun Exposure
    NoWind,                   !- Wind Exposure
    autocalculate,            !- View Factor to Ground
    autocalculate,            !- Number of Vertices
    15.1954,                  !- Vertex 1 Xcoordinate
    30.8197,                  !- Vertex 1 Ycoordinate
    0,                        !- Vertex 1 Zcoordinate
    15.1954,                  !- Vertex 2 Xcoordinate
    30.8197,                  !- Vertex 2 Ycoordinate
    -2.5,                     !- Vertex 2 Zcoordinate
    5.8314,                   !- Vertex 3 Xcoordinate
    31.5417,                  !- Vertex 3 Ycoordinate
    -2.5,                     !- Vertex 3 Zcoordinate
    5.8314,                   !- Vertex 4 Xcoordinate
    31.5417,                  !- Vertex 4 Ycoordinate
    0;                        !- Vertex 4 Zcoordinate

BUILDINGSURFACE:DETAILED,
    Block Build0_Alt0 Storey -1 Wall 0017,    !- Name
    wall,                     !- Surface Type
    Project Basement Wall,    !- Construction Name
    Block Build0_Alt0 Storey -1,    !- Zone Name
    ground,                   !- Outside Boundary Condition
    ,                         !- Outside Boundary Condition Object
    NoSun,                    !- Sun Exposure
    NoWind,                   !- Wind Exposure
    autocalculate,            !- View Factor to Ground
    autocalculate,            !- Number of Vertices
    5.8314,                   !- Vertex 1 Xcoordinate
    31.5417,                  !- Vertex 1 Ycoordinate
    0,                        !- Vertex 1 Zcoordinate
    5.8314,                   !- Vertex 2 Xcoordinate
    31.5417,                  !- Vertex 2 Ycoordinate
    -2.5,                     !- Vertex 2 Zcoordinate
    6.4244,                   !- Vertex 3 Xcoordinate
    39.1637,                  !- Vertex 3 Ycoordinate
    -2.5,                     !- Vertex 3 Zcoordinate
    6.4244,                   !- Vertex 4 Xcoordinate
    39.1637,                  !- Vertex 4 Ycoordinate
    0;                        !- Vertex 4 Zcoordinate

BUILDINGSURFACE:DETAILED,
    Block Build0_Alt0 Storey -1 Wall 0018,    !- Name
    wall,                     !- Surface Type
    Project Basement Wall,    !- Construction Name
    Block Build0_Alt0 Storey -1,    !- Zone Name
    ground,                   !- Outside Boundary Condition
    ,                         !- Outside Boundary Condition Object
    NoSun,                    !- Sun Exposure
    NoWind,                   !- Wind Exposure
    autocalculate,            !- View Factor to Ground
    autocalculate,            !- Number of Vertices
    6.4244,                   !- Vertex 1 Xcoordinate
    39.1637,                  !- Vertex 1 Ycoordinate
    0,                        !- Vertex 1 Zcoordinate
    6.4244,                   !- Vertex 2 Xcoordinate
    39.1637,                  !- Vertex 2 Ycoordinate
    -2.5,                     !- Vertex 2 Zcoordinate
    -3.6836,                  !- Vertex 3 Xcoordinate
    39.8727,                  !- Vertex 3 Ycoordinate
    -2.5,                     !- Vertex 3 Zcoordinate
    -3.6836,                  !- Vertex 4 Xcoordinate
    39.8727,                  !- Vertex 4 Ycoordinate
    0;                        !- Vertex 4 Zcoordinate

BUILDINGSURFACE:DETAILED,
    Block Build0_Alt0 Storey -1 Wall 0019,    !- Name
    wall,                     !- Surface Type
    Project Basement Wall,    !- Construction Name
    Block Build0_Alt0 Storey -1,    !- Zone Name
    ground,                   !- Outside Boundary Condition
    ,                         !- Outside Boundary Condition Object
    NoSun,                    !- Sun Exposure
    NoWind,                   !- Wind Exposure
    autocalculate,            !- View Factor to Ground
    autocalculate,            !- Number of Vertices
    -3.6836,                  !- Vertex 1 Xcoordinate
    39.8727,                  !- Vertex 1 Ycoordinate
    0,                        !- Vertex 1 Zcoordinate
    -3.6836,                  !- Vertex 2 Xcoordinate
    39.8727,                  !- Vertex 2 Ycoordinate
    -2.5,                     !- Vertex 2 Zcoordinate
    -4.3676,                  !- Vertex 3 Xcoordinate
    30.9497,                  !- Vertex 3 Ycoordinate
    -2.5,                     !- Vertex 3 Zcoordinate
    -4.3676,                  !- Vertex 4 Xcoordinate
    30.9497,                  !- Vertex 4 Ycoordinate
    0;                        !- Vertex 4 Zcoordinate

BUILDINGSURFACE:DETAILED,
    Block Build0_Alt0 Storey -1 Wall 0020,    !- Name
    wall,                     !- Surface Type
    Project Basement Wall,    !- Construction Name
    Block Build0_Alt0 Storey -1,    !- Zone Name
    ground,                   !- Outside Boundary Condition
    ,                         !- Outside Boundary Condition Object
    NoSun,                    !- Sun Exposure
    NoWind,                   !- Wind Exposure
    autocalculate,            !- View Factor to Ground
    autocalculate,            !- Number of Vertices
    -4.3676,                  !- Vertex 1 Xcoordinate
    30.9497,                  !- Vertex 1 Ycoordinate
    0,                        !- Vertex 1 Zcoordinate
    -4.3676,                  !- Vertex 2 Xcoordinate
    30.9497,                  !- Vertex 2 Ycoordinate
    -2.5,                     !- Vertex 2 Zcoordinate
    -11.3356,                 !- Vertex 3 Xcoordinate
    31.5027,                  !- Vertex 3 Ycoordinate
    -2.5,                     !- Vertex 3 Zcoordinate
    -11.3356,                 !- Vertex 4 Xcoordinate
    31.5027,                  !- Vertex 4 Ycoordinate
    0;                        !- Vertex 4 Zcoordinate

BUILDINGSURFACE:DETAILED,
    Block Build0_Alt0 Storey -1 Wall 0021,    !- Name
    wall,                     !- Surface Type
    Project Basement Wall,    !- Construction Name
    Block Build0_Alt0 Storey -1,    !- Zone Name
    ground,                   !- Outside Boundary Condition
    ,                         !- Outside Boundary Condition Object
    NoSun,                    !- Sun Exposure
    NoWind,                   !- Wind Exposure
    autocalculate,            !- View Factor to Ground
    autocalculate,            !- Number of Vertices
    -11.3356,                 !- Vertex 1 Xcoordinate
    31.5027,                  !- Vertex 1 Ycoordinate
    0,                        !- Vertex 1 Zcoordinate
    -11.3356,                 !- Vertex 2 Xcoordinate
    31.5027,                  !- Vertex 2 Ycoordinate
    -2.5,                     !- Vertex 2 Zcoordinate
    -12.1026,                 !- Vertex 3 Xcoordinate
    21.4497,                  !- Vertex 3 Ycoordinate
    -2.5,                     !- Vertex 3 Zcoordinate
    -12.1026,                 !- Vertex 4 Xcoordinate
    21.4497,                  !- Vertex 4 Ycoordinate
    0;                        !- Vertex 4 Zcoordinate

BUILDINGSURFACE:DETAILED,
    Block Build0_Alt0 Storey -1 Floor 0001,    !- Name
    floor,                    !- Surface Type
    Project Basement Floor,    !- Construction Name
    Block Build0_Alt0 Storey -1,    !- Zone Name
    ground,                   !- Outside Boundary Condition
    ,                         !- Outside Boundary Condition Object
    NoSun,                    !- Sun Exposure
    NoWind,                   !- Wind Exposure
    autocalculate,            !- View Factor to Ground
    autocalculate,            !- Number of Vertices
    15.1954,                  !- Vertex 1 Xcoordinate
    30.8197,                  !- Vertex 1 Ycoordinate
    -2.5,                     !- Vertex 1 Zcoordinate
    14.2214,                  !- Vertex 2 Xcoordinate
    18.1057,                  !- Vertex 2 Ycoordinate
    -2.5,                     !- Vertex 2 Zcoordinate
    4.8474,                   !- Vertex 3 Xcoordinate
    18.8287,                  !- Vertex 3 Ycoordinate
    -2.5,                     !- Vertex 3 Zcoordinate
    3.5754,                   !- Vertex 4 Xcoordinate
    2.4287,                   !- Vertex 4 Ycoordinate
    -2.5,                     !- Vertex 4 Zcoordinate
    18.1984,                  !- Vertex 5 Xcoordinate
    -14.4723,                 !- Vertex 5 Ycoordinate
    -2.5,                     !- Vertex 5 Zcoordinate
    24.1924,                  !- Vertex 6 Xcoordinate
    -9.3903,                  !- Vertex 6 Ycoordinate
    -2.5,                     !- Vertex 6 Zcoordinate
    29.4354,                  !- Vertex 7 Xcoordinate
    -15.5173,                 !- Vertex 7 Ycoordinate
    -2.5,                     !- Vertex 7 Zcoordinate
    23.4814,                  !- Vertex 8 Xcoordinate
    -20.6553,                 !- Vertex 8 Ycoordinate
    -2.5,                     !- Vertex 8 Zcoordinate
    27.5624,                  !- Vertex 9 Xcoordinate
    -25.3973,                 !- Vertex 9 Ycoordinate
    -2.5,                     !- Vertex 9 Zcoordinate
    19.8774,                  !- Vertex 10 Xcoordinate
    -31.9733,                 !- Vertex 10 Ycoordinate
    -2.5,                     !- Vertex 10 Zcoordinate
    -2.9856,                  !- Vertex 11 Xcoordinate
    -5.3373,                  !- Vertex 11 Ycoordinate
    -2.5,                     !- Vertex 11 Zcoordinate
    -6.0296,                  !- Vertex 12 Xcoordinate
    -7.9353,                  !- Vertex 12 Ycoordinate
    -2.5,                     !- Vertex 12 Zcoordinate
    -10.6816,                 !- Vertex 13 Xcoordinate
    -2.5173,                  !- Vertex 13 Ycoordinate
    -2.5,                     !- Vertex 13 Zcoordinate
    -6.6196,                  !- Vertex 14 Xcoordinate
    0.9397,                   !- Vertex 14 Ycoordinate
    -2.5,                     !- Vertex 14 Zcoordinate
    -5.1326,                  !- Vertex 15 Xcoordinate
    20.9347,                  !- Vertex 15 Ycoordinate
    -2.5,                     !- Vertex 15 Zcoordinate
    -12.1026,                 !- Vertex 16 Xcoordinate
    21.4497,                  !- Vertex 16 Ycoordinate
    -2.5,                     !- Vertex 16 Zcoordinate
    -11.3356,                 !- Vertex 17 Xcoordinate
    31.5027,                  !- Vertex 17 Ycoordinate
    -2.5,                     !- Vertex 17 Zcoordinate
    -4.3676,                  !- Vertex 18 Xcoordinate
    30.9497,                  !- Vertex 18 Ycoordinate
    -2.5,                     !- Vertex 18 Zcoordinate
    -3.6836,                  !- Vertex 19 Xcoordinate
    39.8727,                  !- Vertex 19 Ycoordinate
    -2.5,                     !- Vertex 19 Zcoordinate
    6.4244,                   !- Vertex 20 Xcoordinate
    39.1637,                  !- Vertex 20 Ycoordinate
    -2.5,                     !- Vertex 20 Zcoordinate
    5.8314,                   !- Vertex 21 Xcoordinate
    31.5417,                  !- Vertex 21 Ycoordinate
    -2.5;                     !- Vertex 21 Zcoordinate

BUILDINGSURFACE:DETAILED,
    Block Build0_Alt0 Storey 0 Wall 0001,    !- Name
    wall,                     !- Surface Type
    Project Wall,             !- Construction Name
    Block Build0_Alt0 Storey 0,    !- Zone Name
    outdoors,                 !- Outside Boundary Condition
    ,                         !- Outside Boundary Condition Object
    SunExposed,               !- Sun Exposure
    WindExposed,              !- Wind Exposure
    autocalculate,            !- View Factor to Ground
    autocalculate,            !- Number of Vertices
    -12.1026,                 !- Vertex 1 Xcoordinate
    21.4497,                  !- Vertex 1 Ycoordinate
    18,                       !- Vertex 1 Zcoordinate
    -12.1026,                 !- Vertex 2 Xcoordinate
    21.4497,                  !- Vertex 2 Ycoordinate
    0,                        !- Vertex 2 Zcoordinate
    -5.1326,                  !- Vertex 3 Xcoordinate
    20.9347,                  !- Vertex 3 Ycoordinate
    0,                        !- Vertex 3 Zcoordinate
    -5.1326,                  !- Vertex 4 Xcoordinate
    20.9347,                  !- Vertex 4 Ycoordinate
    18;                       !- Vertex 4 Zcoordinate

BUILDINGSURFACE:DETAILED,
    Block Build0_Alt0 Storey 0 Wall 0002,    !- Name
    wall,                     !- Surface Type
    Project Wall,             !- Construction Name
    Block Build0_Alt0 Storey 0,    !- Zone Name
    outdoors,                 !- Outside Boundary Condition
    ,                         !- Outside Boundary Condition Object
    SunExposed,               !- Sun Exposure
    WindExposed,              !- Wind Exposure
    autocalculate,            !- View Factor to Ground
    autocalculate,            !- Number of Vertices
    -5.1326,                  !- Vertex 1 Xcoordinate
    20.9347,                  !- Vertex 1 Ycoordinate
    18,                       !- Vertex 1 Zcoordinate
    -5.1326,                  !- Vertex 2 Xcoordinate
    20.9347,                  !- Vertex 2 Ycoordinate
    0,                        !- Vertex 2 Zcoordinate
    -6.6196,                  !- Vertex 3 Xcoordinate
    0.9397,                   !- Vertex 3 Ycoordinate
    0,                        !- Vertex 3 Zcoordinate
    -6.6196,                  !- Vertex 4 Xcoordinate
    0.9397,                   !- Vertex 4 Ycoordinate
    18;                       !- Vertex 4 Zcoordinate

BUILDINGSURFACE:DETAILED,
    Block Build0_Alt0 Storey 0 Wall 0003,    !- Name
    wall,                     !- Surface Type
    Project Wall,             !- Construction Name
    Block Build0_Alt0 Storey 0,    !- Zone Name
    outdoors,                 !- Outside Boundary Condition
    ,                         !- Outside Boundary Condition Object
    SunExposed,               !- Sun Exposure
    WindExposed,              !- Wind Exposure
    autocalculate,            !- View Factor to Ground
    autocalculate,            !- Number of Vertices
    -6.6196,                  !- Vertex 1 Xcoordinate
    0.9397,                   !- Vertex 1 Ycoordinate
    18,                       !- Vertex 1 Zcoordinate
    -6.6196,                  !- Vertex 2 Xcoordinate
    0.9397,                   !- Vertex 2 Ycoordinate
    0,                        !- Vertex 2 Zcoordinate
    -10.6816,                 !- Vertex 3 Xcoordinate
    -2.5173,                  !- Vertex 3 Ycoordinate
    0,                        !- Vertex 3 Zcoordinate
    -10.6816,                 !- Vertex 4 Xcoordinate
    -2.5173,                  !- Vertex 4 Ycoordinate
    18;                       !- Vertex 4 Zcoordinate

BUILDINGSURFACE:DETAILED,
    Block Build0_Alt0 Storey 0 Wall 0004,    !- Name
    wall,                     !- Surface Type
    Project Wall,             !- Construction Name
    Block Build0_Alt0 Storey 0,    !- Zone Name
    outdoors,                 !- Outside Boundary Condition
    ,                         !- Outside Boundary Condition Object
    SunExposed,               !- Sun Exposure
    WindExposed,              !- Wind Exposure
    autocalculate,            !- View Factor to Ground
    autocalculate,            !- Number of Vertices
    -10.6816,                 !- Vertex 1 Xcoordinate
    -2.5173,                  !- Vertex 1 Ycoordinate
    18,                       !- Vertex 1 Zcoordinate
    -10.6816,                 !- Vertex 2 Xcoordinate
    -2.5173,                  !- Vertex 2 Ycoordinate
    0,                        !- Vertex 2 Zcoordinate
    -6.0296,                  !- Vertex 3 Xcoordinate
    -7.9353,                  !- Vertex 3 Ycoordinate
    0,                        !- Vertex 3 Zcoordinate
    -6.0296,                  !- Vertex 4 Xcoordinate
    -7.9353,                  !- Vertex 4 Ycoordinate
    18;                       !- Vertex 4 Zcoordinate

BUILDINGSURFACE:DETAILED,
    Block Build0_Alt0 Storey 0 Wall 0005,    !- Name
    wall,                     !- Surface Type
    Project Wall,             !- Construction Name
    Block Build0_Alt0 Storey 0,    !- Zone Name
    outdoors,                 !- Outside Boundary Condition
    ,                         !- Outside Boundary Condition Object
    SunExposed,               !- Sun Exposure
    WindExposed,              !- Wind Exposure
    autocalculate,            !- View Factor to Ground
    autocalculate,            !- Number of Vertices
    -6.0296,                  !- Vertex 1 Xcoordinate
    -7.9353,                  !- Vertex 1 Ycoordinate
    18,                       !- Vertex 1 Zcoordinate
    -6.0296,                  !- Vertex 2 Xcoordinate
    -7.9353,                  !- Vertex 2 Ycoordinate
    0,                        !- Vertex 2 Zcoordinate
    -2.9856,                  !- Vertex 3 Xcoordinate
    -5.3373,                  !- Vertex 3 Ycoordinate
    0,                        !- Vertex 3 Zcoordinate
    -2.9856,                  !- Vertex 4 Xcoordinate
    -5.3373,                  !- Vertex 4 Ycoordinate
    18;                       !- Vertex 4 Zcoordinate

BUILDINGSURFACE:DETAILED,
    Block Build0_Alt0 Storey 0 Wall 0006,    !- Name
    wall,                     !- Surface Type
    Project Wall,             !- Construction Name
    Block Build0_Alt0 Storey 0,    !- Zone Name
    outdoors,                 !- Outside Boundary Condition
    ,                         !- Outside Boundary Condition Object
    SunExposed,               !- Sun Exposure
    WindExposed,              !- Wind Exposure
    autocalculate,            !- View Factor to Ground
    autocalculate,            !- Number of Vertices
    -2.9856,                  !- Vertex 1 Xcoordinate
    -5.3373,                  !- Vertex 1 Ycoordinate
    18,                       !- Vertex 1 Zcoordinate
    -2.9856,                  !- Vertex 2 Xcoordinate
    -5.3373,                  !- Vertex 2 Ycoordinate
    0,                        !- Vertex 2 Zcoordinate
    19.8774,                  !- Vertex 3 Xcoordinate
    -31.9733,                 !- Vertex 3 Ycoordinate
    0,                        !- Vertex 3 Zcoordinate
    19.8774,                  !- Vertex 4 Xcoordinate
    -31.9733,                 !- Vertex 4 Ycoordinate
    18;                       !- Vertex 4 Zcoordinate

BUILDINGSURFACE:DETAILED,
    Block Build0_Alt0 Storey 0 Wall 0007,    !- Name
    wall,                     !- Surface Type
    Project Wall,             !- Construction Name
    Block Build0_Alt0 Storey 0,    !- Zone Name
    outdoors,                 !- Outside Boundary Condition
    ,                         !- Outside Boundary Condition Object
    SunExposed,               !- Sun Exposure
    WindExposed,              !- Wind Exposure
    autocalculate,            !- View Factor to Ground
    autocalculate,            !- Number of Vertices
    19.8774,                  !- Vertex 1 Xcoordinate
    -31.9733,                 !- Vertex 1 Ycoordinate
    18,                       !- Vertex 1 Zcoordinate
    19.8774,                  !- Vertex 2 Xcoordinate
    -31.9733,                 !- Vertex 2 Ycoordinate
    0,                        !- Vertex 2 Zcoordinate
    27.5624,                  !- Vertex 3 Xcoordinate
    -25.3973,                 !- Vertex 3 Ycoordinate
    0,                        !- Vertex 3 Zcoordinate
    27.5624,                  !- Vertex 4 Xcoordinate
    -25.3973,                 !- Vertex 4 Ycoordinate
    18;                       !- Vertex 4 Zcoordinate

BUILDINGSURFACE:DETAILED,
    Block Build0_Alt0 Storey 0 Wall 0008,    !- Name
    wall,                     !- Surface Type
    Project Wall,             !- Construction Name
    Block Build0_Alt0 Storey 0,    !- Zone Name
    outdoors,                 !- Outside Boundary Condition
    ,                         !- Outside Boundary Condition Object
    SunExposed,               !- Sun Exposure
    WindExposed,              !- Wind Exposure
    autocalculate,            !- View Factor to Ground
    autocalculate,            !- Number of Vertices
    27.5624,                  !- Vertex 1 Xcoordinate
    -25.3973,                 !- Vertex 1 Ycoordinate
    18,                       !- Vertex 1 Zcoordinate
    27.5624,                  !- Vertex 2 Xcoordinate
    -25.3973,                 !- Vertex 2 Ycoordinate
    0,                        !- Vertex 2 Zcoordinate
    23.4814,                  !- Vertex 3 Xcoordinate
    -20.6553,                 !- Vertex 3 Ycoordinate
    0,                        !- Vertex 3 Zcoordinate
    23.4814,                  !- Vertex 4 Xcoordinate
    -20.6553,                 !- Vertex 4 Ycoordinate
    18;                       !- Vertex 4 Zcoordinate

BUILDINGSURFACE:DETAILED,
    Block Build0_Alt0 Storey 0 Wall 0009,    !- Name
    wall,                     !- Surface Type
    Project Wall,             !- Construction Name
    Block Build0_Alt0 Storey 0,    !- Zone Name
    outdoors,                 !- Outside Boundary Condition
    ,                         !- Outside Boundary Condition Object
    SunExposed,               !- Sun Exposure
    WindExposed,              !- Wind Exposure
    autocalculate,            !- View Factor to Ground
    autocalculate,            !- Number of Vertices
    23.4814,                  !- Vertex 1 Xcoordinate
    -20.6553,                 !- Vertex 1 Ycoordinate
    18,                       !- Vertex 1 Zcoordinate
    23.4814,                  !- Vertex 2 Xcoordinate
    -20.6553,                 !- Vertex 2 Ycoordinate
    0,                        !- Vertex 2 Zcoordinate
    29.4354,                  !- Vertex 3 Xcoordinate
    -15.5173,                 !- Vertex 3 Ycoordinate
    0,                        !- Vertex 3 Zcoordinate
    29.4354,                  !- Vertex 4 Xcoordinate
    -15.5173,                 !- Vertex 4 Ycoordinate
    18;                       !- Vertex 4 Zcoordinate

BUILDINGSURFACE:DETAILED,
    Block Build0_Alt0 Storey 0 Wall 0010,    !- Name
    wall,                     !- Surface Type
    Project Wall,             !- Construction Name
    Block Build0_Alt0 Storey 0,    !- Zone Name
    outdoors,                 !- Outside Boundary Condition
    ,                         !- Outside Boundary Condition Object
    SunExposed,               !- Sun Exposure
    WindExposed,              !- Wind Exposure
    autocalculate,            !- View Factor to Ground
    autocalculate,            !- Number of Vertices
    29.4354,                  !- Vertex 1 Xcoordinate
    -15.5173,                 !- Vertex 1 Ycoordinate
    18,                       !- Vertex 1 Zcoordinate
    29.4354,                  !- Vertex 2 Xcoordinate
    -15.5173,                 !- Vertex 2 Ycoordinate
    0,                        !- Vertex 2 Zcoordinate
    24.1924,                  !- Vertex 3 Xcoordinate
    -9.3903,                  !- Vertex 3 Ycoordinate
    0,                        !- Vertex 3 Zcoordinate
    24.1924,                  !- Vertex 4 Xcoordinate
    -9.3903,                  !- Vertex 4 Ycoordinate
    18;                       !- Vertex 4 Zcoordinate

BUILDINGSURFACE:DETAILED,
    Block Build0_Alt0 Storey 0 Wall 0011,    !- Name
    wall,                     !- Surface Type
    Project Wall,             !- Construction Name
    Block Build0_Alt0 Storey 0,    !- Zone Name
    outdoors,                 !- Outside Boundary Condition
    ,                         !- Outside Boundary Condition Object
    SunExposed,               !- Sun Exposure
    WindExposed,              !- Wind Exposure
    autocalculate,            !- View Factor to Ground
    autocalculate,            !- Number of Vertices
    24.1924,                  !- Vertex 1 Xcoordinate
    -9.3903,                  !- Vertex 1 Ycoordinate
    18,                       !- Vertex 1 Zcoordinate
    24.1924,                  !- Vertex 2 Xcoordinate
    -9.3903,                  !- Vertex 2 Ycoordinate
    0,                        !- Vertex 2 Zcoordinate
    18.1984,                  !- Vertex 3 Xcoordinate
    -14.4723,                 !- Vertex 3 Ycoordinate
    0,                        !- Vertex 3 Zcoordinate
    18.1984,                  !- Vertex 4 Xcoordinate
    -14.4723,                 !- Vertex 4 Ycoordinate
    18;                       !- Vertex 4 Zcoordinate

BUILDINGSURFACE:DETAILED,
    Block Build0_Alt0 Storey 0 Wall 0012,    !- Name
    wall,                     !- Surface Type
    Project Wall,             !- Construction Name
    Block Build0_Alt0 Storey 0,    !- Zone Name
    outdoors,                 !- Outside Boundary Condition
    ,                         !- Outside Boundary Condition Object
    SunExposed,               !- Sun Exposure
    WindExposed,              !- Wind Exposure
    autocalculate,            !- View Factor to Ground
    autocalculate,            !- Number of Vertices
    18.1984,                  !- Vertex 1 Xcoordinate
    -14.4723,                 !- Vertex 1 Ycoordinate
    18,                       !- Vertex 1 Zcoordinate
    18.1984,                  !- Vertex 2 Xcoordinate
    -14.4723,                 !- Vertex 2 Ycoordinate
    0,                        !- Vertex 2 Zcoordinate
    3.5754,                   !- Vertex 3 Xcoordinate
    2.4287,                   !- Vertex 3 Ycoordinate
    0,                        !- Vertex 3 Zcoordinate
    3.5754,                   !- Vertex 4 Xcoordinate
    2.4287,                   !- Vertex 4 Ycoordinate
    18;                       !- Vertex 4 Zcoordinate

BUILDINGSURFACE:DETAILED,
    Block Build0_Alt0 Storey 0 Wall 0013,    !- Name
    wall,                     !- Surface Type
    Project Wall,             !- Construction Name
    Block Build0_Alt0 Storey 0,    !- Zone Name
    outdoors,                 !- Outside Boundary Condition
    ,                         !- Outside Boundary Condition Object
    SunExposed,               !- Sun Exposure
    WindExposed,              !- Wind Exposure
    autocalculate,            !- View Factor to Ground
    autocalculate,            !- Number of Vertices
    3.5754,                   !- Vertex 1 Xcoordinate
    2.4287,                   !- Vertex 1 Ycoordinate
    18,                       !- Vertex 1 Zcoordinate
    3.5754,                   !- Vertex 2 Xcoordinate
    2.4287,                   !- Vertex 2 Ycoordinate
    0,                        !- Vertex 2 Zcoordinate
    4.8474,                   !- Vertex 3 Xcoordinate
    18.8287,                  !- Vertex 3 Ycoordinate
    0,                        !- Vertex 3 Zcoordinate
    4.8474,                   !- Vertex 4 Xcoordinate
    18.8287,                  !- Vertex 4 Ycoordinate
    18;                       !- Vertex 4 Zcoordinate

BUILDINGSURFACE:DETAILED,
    Block Build0_Alt0 Storey 0 Wall 0014,    !- Name
    wall,                     !- Surface Type
    Project Wall,             !- Construction Name
    Block Build0_Alt0 Storey 0,    !- Zone Name
    outdoors,                 !- Outside Boundary Condition
    ,                         !- Outside Boundary Condition Object
    SunExposed,               !- Sun Exposure
    WindExposed,              !- Wind Exposure
    autocalculate,            !- View Factor to Ground
    autocalculate,            !- Number of Vertices
    4.8474,                   !- Vertex 1 Xcoordinate
    18.8287,                  !- Vertex 1 Ycoordinate
    18,                       !- Vertex 1 Zcoordinate
    4.8474,                   !- Vertex 2 Xcoordinate
    18.8287,                  !- Vertex 2 Ycoordinate
    0,                        !- Vertex 2 Zcoordinate
    14.2214,                  !- Vertex 3 Xcoordinate
    18.1057,                  !- Vertex 3 Ycoordinate
    0,                        !- Vertex 3 Zcoordinate
    14.2214,                  !- Vertex 4 Xcoordinate
    18.1057,                  !- Vertex 4 Ycoordinate
    18;                       !- Vertex 4 Zcoordinate

BUILDINGSURFACE:DETAILED,
    Block Build0_Alt0 Storey 0 Wall 0015,    !- Name
    wall,                     !- Surface Type
    Project Wall,             !- Construction Name
    Block Build0_Alt0 Storey 0,    !- Zone Name
    outdoors,                 !- Outside Boundary Condition
    ,                         !- Outside Boundary Condition Object
    SunExposed,               !- Sun Exposure
    WindExposed,              !- Wind Exposure
    autocalculate,            !- View Factor to Ground
    autocalculate,            !- Number of Vertices
    14.2214,                  !- Vertex 1 Xcoordinate
    18.1057,                  !- Vertex 1 Ycoordinate
    18,                       !- Vertex 1 Zcoordinate
    14.2214,                  !- Vertex 2 Xcoordinate
    18.1057,                  !- Vertex 2 Ycoordinate
    0,                        !- Vertex 2 Zcoordinate
    15.1954,                  !- Vertex 3 Xcoordinate
    30.8197,                  !- Vertex 3 Ycoordinate
    0,                        !- Vertex 3 Zcoordinate
    15.1954,                  !- Vertex 4 Xcoordinate
    30.8197,                  !- Vertex 4 Ycoordinate
    18;                       !- Vertex 4 Zcoordinate

BUILDINGSURFACE:DETAILED,
    Block Build0_Alt0 Storey 0 Wall 0016,    !- Name
    wall,                     !- Surface Type
    Project Wall,             !- Construction Name
    Block Build0_Alt0 Storey 0,    !- Zone Name
    outdoors,                 !- Outside Boundary Condition
    ,                         !- Outside Boundary Condition Object
    SunExposed,               !- Sun Exposure
    WindExposed,              !- Wind Exposure
    autocalculate,            !- View Factor to Ground
    autocalculate,            !- Number of Vertices
    15.1954,                  !- Vertex 1 Xcoordinate
    30.8197,                  !- Vertex 1 Ycoordinate
    18,                       !- Vertex 1 Zcoordinate
    15.1954,                  !- Vertex 2 Xcoordinate
    30.8197,                  !- Vertex 2 Ycoordinate
    0,                        !- Vertex 2 Zcoordinate
    5.8314,                   !- Vertex 3 Xcoordinate
    31.5417,                  !- Vertex 3 Ycoordinate
    0,                        !- Vertex 3 Zcoordinate
    5.8314,                   !- Vertex 4 Xcoordinate
    31.5417,                  !- Vertex 4 Ycoordinate
    18;                       !- Vertex 4 Zcoordinate

BUILDINGSURFACE:DETAILED,
    Block Build0_Alt0 Storey 0 Wall 0017,    !- Name
    wall,                     !- Surface Type
    Project Wall,             !- Construction Name
    Block Build0_Alt0 Storey 0,    !- Zone Name
    outdoors,                 !- Outside Boundary Condition
    ,                         !- Outside Boundary Condition Object
    SunExposed,               !- Sun Exposure
    WindExposed,              !- Wind Exposure
    autocalculate,            !- View Factor to Ground
    autocalculate,            !- Number of Vertices
    5.8314,                   !- Vertex 1 Xcoordinate
    31.5417,                  !- Vertex 1 Ycoordinate
    18,                       !- Vertex 1 Zcoordinate
    5.8314,                   !- Vertex 2 Xcoordinate
    31.5417,                  !- Vertex 2 Ycoordinate
    0,                        !- Vertex 2 Zcoordinate
    6.4244,                   !- Vertex 3 Xcoordinate
    39.1637,                  !- Vertex 3 Ycoordinate
    0,                        !- Vertex 3 Zcoordinate
    6.4244,                   !- Vertex 4 Xcoordinate
    39.1637,                  !- Vertex 4 Ycoordinate
    18;                       !- Vertex 4 Zcoordinate

BUILDINGSURFACE:DETAILED,
    Block Build0_Alt0 Storey 0 Wall 0018,    !- Name
    wall,                     !- Surface Type
    Project Wall,             !- Construction Name
    Block Build0_Alt0 Storey 0,    !- Zone Name
    outdoors,                 !- Outside Boundary Condition
    ,                         !- Outside Boundary Condition Object
    SunExposed,               !- Sun Exposure
    WindExposed,              !- Wind Exposure
    autocalculate,            !- View Factor to Ground
    autocalculate,            !- Number of Vertices
    6.4244,                   !- Vertex 1 Xcoordinate
    39.1637,                  !- Vertex 1 Ycoordinate
    18,                       !- Vertex 1 Zcoordinate
    6.4244,                   !- Vertex 2 Xcoordinate
    39.1637,                  !- Vertex 2 Ycoordinate
    0,                        !- Vertex 2 Zcoordinate
    -3.6836,                  !- Vertex 3 Xcoordinate
    39.8727,                  !- Vertex 3 Ycoordinate
    0,                        !- Vertex 3 Zcoordinate
    -3.6836,                  !- Vertex 4 Xcoordinate
    39.8727,                  !- Vertex 4 Ycoordinate
    18;                       !- Vertex 4 Zcoordinate

BUILDINGSURFACE:DETAILED,
    Block Build0_Alt0 Storey 0 Wall 0019,    !- Name
    wall,                     !- Surface Type
    Project Wall,             !- Construction Name
    Block Build0_Alt0 Storey 0,    !- Zone Name
    outdoors,                 !- Outside Boundary Condition
    ,                         !- Outside Boundary Condition Object
    SunExposed,               !- Sun Exposure
    WindExposed,              !- Wind Exposure
    autocalculate,            !- View Factor to Ground
    autocalculate,            !- Number of Vertices
    -3.6836,                  !- Vertex 1 Xcoordinate
    39.8727,                  !- Vertex 1 Ycoordinate
    18,                       !- Vertex 1 Zcoordinate
    -3.6836,                  !- Vertex 2 Xcoordinate
    39.8727,                  !- Vertex 2 Ycoordinate
    0,                        !- Vertex 2 Zcoordinate
    -4.3676,                  !- Vertex 3 Xcoordinate
    30.9497,                  !- Vertex 3 Ycoordinate
    0,                        !- Vertex 3 Zcoordinate
    -4.3676,                  !- Vertex 4 Xcoordinate
    30.9497,                  !- Vertex 4 Ycoordinate
    18;                       !- Vertex 4 Zcoordinate

BUILDINGSURFACE:DETAILED,
    Block Build0_Alt0 Storey 0 Wall 0020,    !- Name
    wall,                     !- Surface Type
    Project Wall,             !- Construction Name
    Block Build0_Alt0 Storey 0,    !- Zone Name
    outdoors,                 !- Outside Boundary Condition
    ,                         !- Outside Boundary Condition Object
    SunExposed,               !- Sun Exposure
    WindExposed,              !- Wind Exposure
    autocalculate,            !- View Factor to Ground
    autocalculate,            !- Number of Vertices
    -4.3676,                  !- Vertex 1 Xcoordinate
    30.9497,                  !- Vertex 1 Ycoordinate
    18,                       !- Vertex 1 Zcoordinate
    -4.3676,                  !- Vertex 2 Xcoordinate
    30.9497,                  !- Vertex 2 Ycoordinate
    0,                        !- Vertex 2 Zcoordinate
    -11.3356,                 !- Vertex 3 Xcoordinate
    31.5027,                  !- Vertex 3 Ycoordinate
    0,                        !- Vertex 3 Zcoordinate
    -11.3356,                 !- Vertex 4 Xcoordinate
    31.5027,                  !- Vertex 4 Ycoordinate
    18;                       !- Vertex 4 Zcoordinate

BUILDINGSURFACE:DETAILED,
    Block Build0_Alt0 Storey 0 Wall 0021,    !- Name
    wall,                     !- Surface Type
    Project Wall,             !- Construction Name
    Block Build0_Alt0 Storey 0,    !- Zone Name
    outdoors,                 !- Outside Boundary Condition
    ,                         !- Outside Boundary Condition Object
    SunExposed,               !- Sun Exposure
    WindExposed,              !- Wind Exposure
    autocalculate,            !- View Factor to Ground
    autocalculate,            !- Number of Vertices
    -11.3356,                 !- Vertex 1 Xcoordinate
    31.5027,                  !- Vertex 1 Ycoordinate
    18,                       !- Vertex 1 Zcoordinate
    -11.3356,                 !- Vertex 2 Xcoordinate
    31.5027,                  !- Vertex 2 Ycoordinate
    0,                        !- Vertex 2 Zcoordinate
    -12.1026,                 !- Vertex 3 Xcoordinate
    21.4497,                  !- Vertex 3 Ycoordinate
    0,                        !- Vertex 3 Zcoordinate
    -12.1026,                 !- Vertex 4 Xcoordinate
    21.4497,                  !- Vertex 4 Ycoordinate
    18;                       !- Vertex 4 Zcoordinate

BUILDINGSURFACE:DETAILED,
    Block Build0_Alt0 Storey -1 Ceiling 0001_1,    !- Name
    ceiling,                  !- Surface Type
    Project Heated1rstFloor Rev,    !- Construction Name
    Block Build0_Alt0 Storey -1,    !- Zone Name
    surface,                  !- Outside Boundary Condition
    Block Build0_Alt0 Storey 0 Floor 0001_1,    !- Outside Boundary Condition Object
    NoSun,                    !- Sun Exposure
    NoWind,                   !- Wind Exposure
    autocalculate,            !- View Factor to Ground
    autocalculate,            !- Number of Vertices
    27.562399999704212,       !- Vertex 1 Xcoordinate
    -2.539730e+01,            !- Vertex 1 Ycoordinate
    0,                        !- Vertex 1 Zcoordinate
    23.481399999931455,       !- Vertex 2 Xcoordinate
    -20.65529999975115,       !- Vertex 2 Ycoordinate
    0,                        !- Vertex 2 Zcoordinate
    29.435399999842048,       !- Vertex 3 Xcoordinate
    -1.551730e+01,            !- Vertex 3 Ycoordinate
    0,                        !- Vertex 3 Zcoordinate
    24.192399999592453,       !- Vertex 4 Xcoordinate
    -9.390299999620765,       !- Vertex 4 Ycoordinate
    0,                        !- Vertex 4 Zcoordinate
    18.198399999644607,       !- Vertex 5 Xcoordinate
    -1.447230e+01,            !- Vertex 5 Ycoordinate
    0,                        !- Vertex 5 Zcoordinate
    3.575399999972433,        !- Vertex 6 Xcoordinate
    2.4286999995820224,       !- Vertex 6 Ycoordinate
    0,                        !- Vertex 6 Zcoordinate
    4.847399999853224,        !- Vertex 7 Xcoordinate
    18.82869999995455,        !- Vertex 7 Ycoordinate
    0,                        !- Vertex 7 Zcoordinate
    14.22139999968931,        !- Vertex 8 Xcoordinate
    18.105699999723583,       !- Vertex 8 Ycoordinate
    0,                        !- Vertex 8 Zcoordinate
    15.19539999961853,        !- Vertex 9 Xcoordinate
    30.81969999987632,        !- Vertex 9 Ycoordinate
    0,                        !- Vertex 9 Zcoordinate
    5.831399999558926,        !- Vertex 10 Xcoordinate
    31.541699999943376,       !- Vertex 10 Ycoordinate
    0,                        !- Vertex 10 Zcoordinate
    6.424399999901652,        !- Vertex 11 Xcoordinate
    39.1636999999173,         !- Vertex 11 Ycoordinate
    0,                        !- Vertex 11 Zcoordinate
    -3.683599999640137,       !- Vertex 12 Xcoordinate
    39.87269999971613,        !- Vertex 12 Ycoordinate
    0,                        !- Vertex 12 Zcoordinate
    -4.367599999997765,       !- Vertex 13 Xcoordinate
    30.94969999976456,        !- Vertex 13 Ycoordinate
    0,                        !- Vertex 13 Zcoordinate
    -11.33559999987483,       !- Vertex 14 Xcoordinate
    31.502699999604374,       !- Vertex 14 Ycoordinate
    0,                        !- Vertex 14 Zcoordinate
    -12.10259999986738,       !- Vertex 15 Xcoordinate
    21.44969999976456,        !- Vertex 15 Ycoordinate
    0,                        !- Vertex 15 Zcoordinate
    -5.132599999662489,       !- Vertex 16 Xcoordinate
    20.934699999634176,       !- Vertex 16 Ycoordinate
    0,                        !- Vertex 16 Zcoordinate
    -6.619599999859929,       !- Vertex 17 Xcoordinate
    0.9396999999880791,       !- Vertex 17 Ycoordinate
    0,                        !- Vertex 17 Zcoordinate
    -1.068160e+01,            !- Vertex 18 Xcoordinate
    -2.517299999948591,       !- Vertex 18 Ycoordinate
    0,                        !- Vertex 18 Zcoordinate
    -6.029599999543279,       !- Vertex 19 Xcoordinate
    -7.93529999954626,        !- Vertex 19 Ycoordinate
    0,                        !- Vertex 19 Zcoordinate
    -2.985599999781698,       !- Vertex 20 Xcoordinate
    -5.337299999780953,       !- Vertex 20 Ycoordinate
    0,                        !- Vertex 20 Zcoordinate
    19.877399999648333,       !- Vertex 21 Xcoordinate
    -31.97329999972135,       !- Vertex 21 Ycoordinate
    0;                        !- Vertex 21 Zcoordinate

BUILDINGSURFACE:DETAILED,
    Block Build0_Alt0 Storey 0 Floor 0001_1,    !- Name
    floor,                    !- Surface Type
    Project Heated1rstFloor,    !- Construction Name
    Block Build0_Alt0 Storey 0,    !- Zone Name
    surface,                  !- Outside Boundary Condition
    Block Build0_Alt0 Storey -1 Ceiling 0001_1,    !- Outside Boundary Condition Object
    NoSun,                    !- Sun Exposure
    NoWind,                   !- Wind Exposure
    autocalculate,            !- View Factor to Ground
    autocalculate,            !- Number of Vertices
    15.19539999961853,        !- Vertex 1 Xcoordinate
    30.81969999987632,        !- Vertex 1 Ycoordinate
    0,                        !- Vertex 1 Zcoordinate
    14.22139999968931,        !- Vertex 2 Xcoordinate
    18.105699999723583,       !- Vertex 2 Ycoordinate
    0,                        !- Vertex 2 Zcoordinate
    4.847399999853224,        !- Vertex 3 Xcoordinate
    18.82869999995455,        !- Vertex 3 Ycoordinate
    0,                        !- Vertex 3 Zcoordinate
    3.575399999972433,        !- Vertex 4 Xcoordinate
    2.4286999995820224,       !- Vertex 4 Ycoordinate
    0,                        !- Vertex 4 Zcoordinate
    18.198399999644607,       !- Vertex 5 Xcoordinate
    -1.447230e+01,            !- Vertex 5 Ycoordinate
    0,                        !- Vertex 5 Zcoordinate
    24.192399999592453,       !- Vertex 6 Xcoordinate
    -9.390299999620765,       !- Vertex 6 Ycoordinate
    0,                        !- Vertex 6 Zcoordinate
    29.435399999842048,       !- Vertex 7 Xcoordinate
    -1.551730e+01,            !- Vertex 7 Ycoordinate
    0,                        !- Vertex 7 Zcoordinate
    23.481399999931455,       !- Vertex 8 Xcoordinate
    -20.65529999975115,       !- Vertex 8 Ycoordinate
    0,                        !- Vertex 8 Zcoordinate
    27.562399999704212,       !- Vertex 9 Xcoordinate
    -2.539730e+01,            !- Vertex 9 Ycoordinate
    0,                        !- Vertex 9 Zcoordinate
    19.877399999648333,       !- Vertex 10 Xcoordinate
    -31.97329999972135,       !- Vertex 10 Ycoordinate
    0,                        !- Vertex 10 Zcoordinate
    -2.985599999781698,       !- Vertex 11 Xcoordinate
    -5.337299999780953,       !- Vertex 11 Ycoordinate
    0,                        !- Vertex 11 Zcoordinate
    -6.029599999543279,       !- Vertex 12 Xcoordinate
    -7.93529999954626,        !- Vertex 12 Ycoordinate
    0,                        !- Vertex 12 Zcoordinate
    -1.068160e+01,            !- Vertex 13 Xcoordinate
    -2.517299999948591,       !- Vertex 13 Ycoordinate
    0,                        !- Vertex 13 Zcoordinate
    -6.619599999859929,       !- Vertex 14 Xcoordinate
    0.9396999999880791,       !- Vertex 14 Ycoordinate
    0,                        !- Vertex 14 Zcoordinate
    -5.132599999662489,       !- Vertex 15 Xcoordinate
    20.934699999634176,       !- Vertex 15 Ycoordinate
    0,                        !- Vertex 15 Zcoordinate
    -12.10259999986738,       !- Vertex 16 Xcoordinate
    21.44969999976456,        !- Vertex 16 Ycoordinate
    0,                        !- Vertex 16 Zcoordinate
    -11.33559999987483,       !- Vertex 17 Xcoordinate
    31.502699999604374,       !- Vertex 17 Ycoordinate
    0,                        !- Vertex 17 Zcoordinate
    -4.367599999997765,       !- Vertex 18 Xcoordinate
    30.94969999976456,        !- Vertex 18 Ycoordinate
    0,                        !- Vertex 18 Zcoordinate
    -3.683599999640137,       !- Vertex 19 Xcoordinate
    39.87269999971613,        !- Vertex 19 Ycoordinate
    0,                        !- Vertex 19 Zcoordinate
    6.424399999901652,        !- Vertex 20 Xcoordinate
    39.1636999999173,         !- Vertex 20 Ycoordinate
    0,                        !- Vertex 20 Zcoordinate
    5.831399999558926,        !- Vertex 21 Xcoordinate
    31.541699999943376,       !- Vertex 21 Ycoordinate
    0;                        !- Vertex 21 Zcoordinate

BUILDINGSURFACE:DETAILED,
    Block Build0_Alt0 Storey 0 Roof 0001_0,    !- Name
    roof,                     !- Surface Type
    Project Flat Roof,        !- Construction Name
    Block Build0_Alt0 Storey 0,    !- Zone Name
    outdoors,                 !- Outside Boundary Condition
    ,                         !- Outside Boundary Condition Object
    SunExposed,               !- Sun Exposure
    WindExposed,              !- Wind Exposure
    autocalculate,            !- View Factor to Ground
    autocalculate,            !- Number of Vertices
    -2.9856,                  !- Vertex 1 Xcoordinate
    -5.3373,                  !- Vertex 1 Ycoordinate
    18,                       !- Vertex 1 Zcoordinate
    -6.6196,                  !- Vertex 2 Xcoordinate
    0.9397,                   !- Vertex 2 Ycoordinate
    18,                       !- Vertex 2 Zcoordinate
    -10.6816,                 !- Vertex 3 Xcoordinate
    -2.5173,                  !- Vertex 3 Ycoordinate
    18,                       !- Vertex 3 Zcoordinate
    -6.0296,                  !- Vertex 4 Xcoordinate
    -7.9353,                  !- Vertex 4 Ycoordinate
    18;                       !- Vertex 4 Zcoordinate

BUILDINGSURFACE:DETAILED,
    Block Build0_Alt0 Storey 0 Roof 0001_1,    !- Name
    roof,                     !- Surface Type
    Project Flat Roof,        !- Construction Name
    Block Build0_Alt0 Storey 0,    !- Zone Name
    outdoors,                 !- Outside Boundary Condition
    ,                         !- Outside Boundary Condition Object
    SunExposed,               !- Sun Exposure
    WindExposed,              !- Wind Exposure
    autocalculate,            !- View Factor to Ground
    autocalculate,            !- Number of Vertices
    27.5624,                  !- Vertex 1 Xcoordinate
    -25.3973,                 !- Vertex 1 Ycoordinate
    18,                       !- Vertex 1 Zcoordinate
    23.4814,                  !- Vertex 2 Xcoordinate
    -20.6553,                 !- Vertex 2 Ycoordinate
    18,                       !- Vertex 2 Zcoordinate
    -2.9856,                  !- Vertex 3 Xcoordinate
    -5.3373,                  !- Vertex 3 Ycoordinate
    18,                       !- Vertex 3 Zcoordinate
    19.8774,                  !- Vertex 4 Xcoordinate
    -31.9733,                 !- Vertex 4 Ycoordinate
    18;                       !- Vertex 4 Zcoordinate

BUILDINGSURFACE:DETAILED,
    Block Build0_Alt0 Storey 0 Roof 0001_2,    !- Name
    roof,                     !- Surface Type
    Project Flat Roof,        !- Construction Name
    Block Build0_Alt0 Storey 0,    !- Zone Name
    outdoors,                 !- Outside Boundary Condition
    ,                         !- Outside Boundary Condition Object
    SunExposed,               !- Sun Exposure
    WindExposed,              !- Wind Exposure
    autocalculate,            !- View Factor to Ground
    autocalculate,            !- Number of Vertices
    29.4354,                  !- Vertex 1 Xcoordinate
    -15.5173,                 !- Vertex 1 Ycoordinate
    18,                       !- Vertex 1 Zcoordinate
    24.1924,                  !- Vertex 2 Xcoordinate
    -9.3903,                  !- Vertex 2 Ycoordinate
    18,                       !- Vertex 2 Zcoordinate
    18.1984,                  !- Vertex 3 Xcoordinate
    -14.4723,                 !- Vertex 3 Ycoordinate
    18,                       !- Vertex 3 Zcoordinate
    23.4814,                  !- Vertex 4 Xcoordinate
    -20.6553,                 !- Vertex 4 Ycoordinate
    18;                       !- Vertex 4 Zcoordinate

BUILDINGSURFACE:DETAILED,
    Block Build0_Alt0 Storey 0 Roof 0001_3,    !- Name
    roof,                     !- Surface Type
    Project Flat Roof,        !- Construction Name
    Block Build0_Alt0 Storey 0,    !- Zone Name
    outdoors,                 !- Outside Boundary Condition
    ,                         !- Outside Boundary Condition Object
    SunExposed,               !- Sun Exposure
    WindExposed,              !- Wind Exposure
    autocalculate,            !- View Factor to Ground
    autocalculate,            !- Number of Vertices
    -5.1326,                  !- Vertex 1 Xcoordinate
    20.9347,                  !- Vertex 1 Ycoordinate
    18,                       !- Vertex 1 Zcoordinate
    -4.3676,                  !- Vertex 2 Xcoordinate
    30.9497,                  !- Vertex 2 Ycoordinate
    18,                       !- Vertex 2 Zcoordinate
    -11.3356,                 !- Vertex 3 Xcoordinate
    31.5027,                  !- Vertex 3 Ycoordinate
    18,                       !- Vertex 3 Zcoordinate
    -12.1026,                 !- Vertex 4 Xcoordinate
    21.4497,                  !- Vertex 4 Ycoordinate
    18;                       !- Vertex 4 Zcoordinate

BUILDINGSURFACE:DETAILED,
    Block Build0_Alt0 Storey 0 Roof 0001_4,    !- Name
    roof,                     !- Surface Type
    Project Flat Roof,        !- Construction Name
    Block Build0_Alt0 Storey 0,    !- Zone Name
    outdoors,                 !- Outside Boundary Condition
    ,                         !- Outside Boundary Condition Object
    SunExposed,               !- Sun Exposure
    WindExposed,              !- Wind Exposure
    autocalculate,            !- View Factor to Ground
    autocalculate,            !- Number of Vertices
    5.8314,                   !- Vertex 1 Xcoordinate
    31.5417,                  !- Vertex 1 Ycoordinate
    18,                       !- Vertex 1 Zcoordinate
    6.4244,                   !- Vertex 2 Xcoordinate
    39.1637,                  !- Vertex 2 Ycoordinate
    18,                       !- Vertex 2 Zcoordinate
    -3.6836,                  !- Vertex 3 Xcoordinate
    39.8727,                  !- Vertex 3 Ycoordinate
    18,                       !- Vertex 3 Zcoordinate
    -4.3676,                  !- Vertex 4 Xcoordinate
    30.9497,                  !- Vertex 4 Ycoordinate
    18;                       !- Vertex 4 Zcoordinate

BUILDINGSURFACE:DETAILED,
    Block Build0_Alt0 Storey 0 Roof 0001_5,    !- Name
    roof,                     !- Surface Type
    Project Flat Roof,        !- Construction Name
    Block Build0_Alt0 Storey 0,    !- Zone Name
    outdoors,                 !- Outside Boundary Condition
    ,                         !- Outside Boundary Condition Object
    SunExposed,               !- Sun Exposure
    WindExposed,              !- Wind Exposure
    autocalculate,            !- View Factor to Ground
    autocalculate,            !- Number of Vertices
    23.4814,                  !- Vertex 1 Xcoordinate
    -20.6553,                 !- Vertex 1 Ycoordinate
    18,                       !- Vertex 1 Zcoordinate
    18.1984,                  !- Vertex 2 Xcoordinate
    -14.4723,                 !- Vertex 2 Ycoordinate
    18,                       !- Vertex 2 Zcoordinate
    3.5754,                   !- Vertex 3 Xcoordinate
    2.4287,                   !- Vertex 3 Ycoordinate
    18,                       !- Vertex 3 Zcoordinate
    -2.9856,                  !- Vertex 4 Xcoordinate
    -5.3373,                  !- Vertex 4 Ycoordinate
    18;                       !- Vertex 4 Zcoordinate

BUILDINGSURFACE:DETAILED,
    Block Build0_Alt0 Storey 0 Roof 0001_6,    !- Name
    roof,                     !- Surface Type
    Project Flat Roof,        !- Construction Name
    Block Build0_Alt0 Storey 0,    !- Zone Name
    outdoors,                 !- Outside Boundary Condition
    ,                         !- Outside Boundary Condition Object
    SunExposed,               !- Sun Exposure
    WindExposed,              !- Wind Exposure
    autocalculate,            !- View Factor to Ground
    autocalculate,            !- Number of Vertices
    14.2214,                  !- Vertex 1 Xcoordinate
    18.1057,                  !- Vertex 1 Ycoordinate
    18,                       !- Vertex 1 Zcoordinate
    15.1954,                  !- Vertex 2 Xcoordinate
    30.8197,                  !- Vertex 2 Ycoordinate
    18,                       !- Vertex 2 Zcoordinate
    5.8314,                   !- Vertex 3 Xcoordinate
    31.5417,                  !- Vertex 3 Ycoordinate
    18,                       !- Vertex 3 Zcoordinate
    4.8474,                   !- Vertex 4 Xcoordinate
    18.8287,                  !- Vertex 4 Ycoordinate
    18;                       !- Vertex 4 Zcoordinate

BUILDINGSURFACE:DETAILED,
    Block Build0_Alt0 Storey 0 Roof 0001_7,    !- Name
    roof,                     !- Surface Type
    Project Flat Roof,        !- Construction Name
    Block Build0_Alt0 Storey 0,    !- Zone Name
    outdoors,                 !- Outside Boundary Condition
    ,                         !- Outside Boundary Condition Object
    SunExposed,               !- Sun Exposure
    WindExposed,              !- Wind Exposure
    autocalculate,            !- View Factor to Ground
    autocalculate,            !- Number of Vertices
    3.5754,                   !- Vertex 1 Xcoordinate
    2.4287,                   !- Vertex 1 Ycoordinate
    18,                       !- Vertex 1 Zcoordinate
    4.8474,                   !- Vertex 2 Xcoordinate
    18.8287,                  !- Vertex 2 Ycoordinate
    18,                       !- Vertex 2 Zcoordinate
    5.8314,                   !- Vertex 3 Xcoordinate
    31.5417,                  !- Vertex 3 Ycoordinate
    18,                       !- Vertex 3 Zcoordinate
    -4.3676,                  !- Vertex 4 Xcoordinate
    30.9497,                  !- Vertex 4 Ycoordinate
    18,                       !- Vertex 4 Zcoordinate
    -5.1326,                  !- Vertex 5 Xcoordinate
    20.9347,                  !- Vertex 5 Ycoordinate
    18,                       !- Vertex 5 Zcoordinate
    -6.6196,                  !- Vertex 6 Xcoordinate
    0.9397,                   !- Vertex 6 Ycoordinate
    18,                       !- Vertex 6 Zcoordinate
    -2.9856,                  !- Vertex 7 Xcoordinate
    -5.3373,                  !- Vertex 7 Ycoordinate
    18;                       !- Vertex 7 Zcoordinate

FENESTRATIONSURFACE:DETAILED,
    Block Build0_Alt0 Storey 0 Wall 0001 window,    !- Name
    Window,                   !- Surface Type
    Project External Window,    !- Construction Name
    Block Build0_Alt0 Storey 0 Wall 0001,    !- Building Surface Name
    ,                         !- Outside Boundary Condition Object
    autocalculate,            !- View Factor to Ground
    ,                         !- Frame and Divider Name
    1.0,                      !- Multiplier
    autocalculate,            !- Number of Vertices
    -1.209912e+01,            !- Vertex 1 Xcoordinate
    21.4494425,               !- Vertex 1 Ycoordinate
    11.7,                     !- Vertex 1 Zcoordinate
    -1.209912e+01,            !- Vertex 2 Xcoordinate
    21.4494425,               !- Vertex 2 Ycoordinate
    6.300000000000001,        !- Vertex 2 Zcoordinate
    -5.136085,                !- Vertex 3 Xcoordinate
    20.9349575,               !- Vertex 3 Ycoordinate
    6.300000000000001,        !- Vertex 3 Zcoordinate
    -5.136085,                !- Vertex 4 Xcoordinate
    20.9349575,               !- Vertex 4 Ycoordinate
    11.7;                     !- Vertex 4 Zcoordinate

FENESTRATIONSURFACE:DETAILED,
    Block Build0_Alt0 Storey 0 Wall 0002 window,    !- Name
    Window,                   !- Surface Type
    Project External Window,    !- Construction Name
    Block Build0_Alt0 Storey 0 Wall 0002,    !- Building Surface Name
    ,                         !- Outside Boundary Condition Object
    autocalculate,            !- View Factor to Ground
    ,                         !- Frame and Divider Name
    1.0,                      !- Multiplier
    autocalculate,            !- Number of Vertices
    -5.133344e+00,            !- Vertex 1 Xcoordinate
    20.9247025,               !- Vertex 1 Ycoordinate
    11.7,                     !- Vertex 1 Zcoordinate
    -5.133344e+00,            !- Vertex 2 Xcoordinate
    20.9247025,               !- Vertex 2 Ycoordinate
    6.300000000000001,        !- Vertex 2 Zcoordinate
    -6.6188565,               !- Vertex 3 Xcoordinate
    0.949697500000001,        !- Vertex 3 Ycoordinate
    6.300000000000001,        !- Vertex 3 Zcoordinate
    -6.6188565,               !- Vertex 4 Xcoordinate
    0.949697500000001,        !- Vertex 4 Ycoordinate
    11.7;                     !- Vertex 4 Zcoordinate

FENESTRATIONSURFACE:DETAILED,
    Block Build0_Alt0 Storey 0 Wall 0003 window,    !- Name
    Window,                   !- Surface Type
    Project External Window,    !- Construction Name
    Block Build0_Alt0 Storey 0 Wall 0003,    !- Building Surface Name
    ,                         !- Outside Boundary Condition Object
    autocalculate,            !- View Factor to Ground
    ,                         !- Frame and Divider Name
    1.0,                      !- Multiplier
    autocalculate,            !- Number of Vertices
    -6.621631000000001,       !- Vertex 1 Xcoordinate
    0.9379714999999998,       !- Vertex 1 Ycoordinate
    11.7,                     !- Vertex 1 Zcoordinate
    -6.621631000000001,       !- Vertex 2 Xcoordinate
    0.9379714999999998,       !- Vertex 2 Ycoordinate
    6.300000000000001,        !- Vertex 2 Zcoordinate
    -1.067957e+01,            !- Vertex 3 Xcoordinate
    -2.5155715,               !- Vertex 3 Ycoordinate
    6.300000000000001,        !- Vertex 3 Zcoordinate
    -1.067957e+01,            !- Vertex 4 Xcoordinate
    -2.5155715,               !- Vertex 4 Ycoordinate
    11.7;                     !- Vertex 4 Zcoordinate

FENESTRATIONSURFACE:DETAILED,
    Block Build0_Alt0 Storey 0 Wall 0004 window,    !- Name
    Window,                   !- Surface Type
    Project External Window,    !- Construction Name
    Block Build0_Alt0 Storey 0 Wall 0004,    !- Building Surface Name
    ,                         !- Outside Boundary Condition Object
    autocalculate,            !- View Factor to Ground
    ,                         !- Frame and Divider Name
    1.0,                      !- Multiplier
    autocalculate,            !- Number of Vertices
    -10.679274,               !- Vertex 1 Xcoordinate
    -2.520009,                !- Vertex 1 Ycoordinate
    11.7,                     !- Vertex 1 Zcoordinate
    -10.679274,               !- Vertex 2 Xcoordinate
    -2.520009,                !- Vertex 2 Ycoordinate
    6.300000000000001,        !- Vertex 2 Zcoordinate
    -6.031926,                !- Vertex 3 Xcoordinate
    -7.932591,                !- Vertex 3 Ycoordinate
    6.300000000000001,        !- Vertex 3 Zcoordinate
    -6.031926,                !- Vertex 4 Xcoordinate
    -7.932591,                !- Vertex 4 Ycoordinate
    11.7;                     !- Vertex 4 Zcoordinate

FENESTRATIONSURFACE:DETAILED,
    Block Build0_Alt0 Storey 0 Wall 0005 window,    !- Name
    Window,                   !- Surface Type
    Project External Window,    !- Construction Name
    Block Build0_Alt0 Storey 0 Wall 0005,    !- Building Surface Name
    ,                         !- Outside Boundary Condition Object
    autocalculate,            !- View Factor to Ground
    ,                         !- Frame and Divider Name
    1.0,                      !- Multiplier
    autocalculate,            !- Number of Vertices
    -6.028078000000001,       !- Vertex 1 Xcoordinate
    -7.934001,                !- Vertex 1 Ycoordinate
    11.7,                     !- Vertex 1 Zcoordinate
    -6.028078000000001,       !- Vertex 2 Xcoordinate
    -7.934001,                !- Vertex 2 Ycoordinate
    6.300000000000001,        !- Vertex 2 Zcoordinate
    -2.987122,                !- Vertex 3 Xcoordinate
    -5.338599,                !- Vertex 3 Ycoordinate
    6.300000000000001,        !- Vertex 3 Zcoordinate
    -2.987122,                !- Vertex 4 Xcoordinate
    -5.338599,                !- Vertex 4 Ycoordinate
    11.7;                     !- Vertex 4 Zcoordinate

FENESTRATIONSURFACE:DETAILED,
    Block Build0_Alt0 Storey 0 Wall 0006 window,    !- Name
    Window,                   !- Surface Type
    Project External Window,    !- Construction Name
    Block Build0_Alt0 Storey 0 Wall 0006,    !- Building Surface Name
    ,                         !- Outside Boundary Condition Object
    autocalculate,            !- View Factor to Ground
    ,                         !- Frame and Divider Name
    1.0,                      !- Multiplier
    autocalculate,            !- Number of Vertices
    -2.974168e+00,            !- Vertex 1 Xcoordinate
    -5.350617999999999,       !- Vertex 1 Ycoordinate
    11.7,                     !- Vertex 1 Zcoordinate
    -2.974168e+00,            !- Vertex 2 Xcoordinate
    -5.350617999999999,       !- Vertex 2 Ycoordinate
    6.300000000000001,        !- Vertex 2 Zcoordinate
    19.8659685,               !- Vertex 3 Xcoordinate
    -3.195998e+01,            !- Vertex 3 Ycoordinate
    6.300000000000001,        !- Vertex 3 Zcoordinate
    19.8659685,               !- Vertex 4 Xcoordinate
    -3.195998e+01,            !- Vertex 4 Ycoordinate
    11.7;                     !- Vertex 4 Zcoordinate

FENESTRATIONSURFACE:DETAILED,
    Block Build0_Alt0 Storey 0 Wall 0007 window,    !- Name
    Window,                   !- Surface Type
    Project External Window,    !- Construction Name
    Block Build0_Alt0 Storey 0 Wall 0007,    !- Building Surface Name
    ,                         !- Outside Boundary Condition Object
    autocalculate,            !- View Factor to Ground
    ,                         !- Frame and Divider Name
    1.0,                      !- Multiplier
    autocalculate,            !- Number of Vertices
    19.881242500000003,       !- Vertex 1 Xcoordinate
    -3.197001e+01,            !- Vertex 1 Ycoordinate
    11.7,                     !- Vertex 1 Zcoordinate
    19.881242500000003,       !- Vertex 2 Xcoordinate
    -3.197001e+01,            !- Vertex 2 Ycoordinate
    6.300000000000001,        !- Vertex 2 Zcoordinate
    27.5585575,               !- Vertex 3 Xcoordinate
    -2.540059e+01,            !- Vertex 3 Ycoordinate
    6.300000000000001,        !- Vertex 3 Zcoordinate
    27.5585575,               !- Vertex 4 Xcoordinate
    -2.540059e+01,            !- Vertex 4 Ycoordinate
    11.7;                     !- Vertex 4 Zcoordinate

FENESTRATIONSURFACE:DETAILED,
    Block Build0_Alt0 Storey 0 Wall 0008 window,    !- Name
    Window,                   !- Surface Type
    Project External Window,    !- Construction Name
    Block Build0_Alt0 Storey 0 Wall 0008,    !- Building Surface Name
    ,                         !- Outside Boundary Condition Object
    autocalculate,            !- View Factor to Ground
    ,                         !- Frame and Divider Name
    1.0,                      !- Multiplier
    autocalculate,            !- Number of Vertices
    27.5603595,               !- Vertex 1 Xcoordinate
    -25.394929,               !- Vertex 1 Ycoordinate
    11.7,                     !- Vertex 1 Zcoordinate
    27.5603595,               !- Vertex 2 Xcoordinate
    -25.394929,               !- Vertex 2 Ycoordinate
    6.300000000000001,        !- Vertex 2 Zcoordinate
    23.4834405,               !- Vertex 3 Xcoordinate
    -20.657671,               !- Vertex 3 Ycoordinate
    6.300000000000001,        !- Vertex 3 Zcoordinate
    23.4834405,               !- Vertex 4 Xcoordinate
    -20.657671,               !- Vertex 4 Ycoordinate
    11.7;                     !- Vertex 4 Zcoordinate

FENESTRATIONSURFACE:DETAILED,
    Block Build0_Alt0 Storey 0 Wall 0009 window,    !- Name
    Window,                   !- Surface Type
    Project External Window,    !- Construction Name
    Block Build0_Alt0 Storey 0 Wall 0009,    !- Building Surface Name
    ,                         !- Outside Boundary Condition Object
    autocalculate,            !- View Factor to Ground
    ,                         !- Frame and Divider Name
    1.0,                      !- Multiplier
    autocalculate,            !- Number of Vertices
    23.484377000000002,       !- Vertex 1 Xcoordinate
    -20.652731,               !- Vertex 1 Ycoordinate
    11.7,                     !- Vertex 1 Zcoordinate
    23.484377000000002,       !- Vertex 2 Xcoordinate
    -20.652731,               !- Vertex 2 Ycoordinate
    6.300000000000001,        !- Vertex 2 Zcoordinate
    29.432423,                !- Vertex 3 Xcoordinate
    -15.519869,               !- Vertex 3 Ycoordinate
    6.300000000000001,        !- Vertex 3 Zcoordinate
    29.432423,                !- Vertex 4 Xcoordinate
    -15.519869,               !- Vertex 4 Ycoordinate
    11.7;                     !- Vertex 4 Zcoordinate

FENESTRATIONSURFACE:DETAILED,
    Block Build0_Alt0 Storey 0 Wall 0010 window,    !- Name
    Window,                   !- Surface Type
    Project External Window,    !- Construction Name
    Block Build0_Alt0 Storey 0 Wall 0010,    !- Building Surface Name
    ,                         !- Outside Boundary Condition Object
    autocalculate,            !- View Factor to Ground
    ,                         !- Frame and Divider Name
    1.0,                      !- Multiplier
    autocalculate,            !- Number of Vertices
    29.4327785,               !- Vertex 1 Xcoordinate
    -15.5142365,              !- Vertex 1 Ycoordinate
    11.7,                     !- Vertex 1 Zcoordinate
    29.4327785,               !- Vertex 2 Xcoordinate
    -15.5142365,              !- Vertex 2 Ycoordinate
    6.300000000000001,        !- Vertex 2 Zcoordinate
    24.1950215,               !- Vertex 3 Xcoordinate
    -9.3933635,               !- Vertex 3 Ycoordinate
    6.300000000000001,        !- Vertex 3 Zcoordinate
    24.1950215,               !- Vertex 4 Xcoordinate
    -9.3933635,               !- Vertex 4 Ycoordinate
    11.7;                     !- Vertex 4 Zcoordinate

FENESTRATIONSURFACE:DETAILED,
    Block Build0_Alt0 Storey 0 Wall 0011 window,    !- Name
    Window,                   !- Surface Type
    Project External Window,    !- Construction Name
    Block Build0_Alt0 Storey 0 Wall 0011,    !- Building Surface Name
    ,                         !- Outside Boundary Condition Object
    autocalculate,            !- View Factor to Ground
    ,                         !- Frame and Divider Name
    1.0,                      !- Multiplier
    autocalculate,            !- Number of Vertices
    24.189403,                !- Vertex 1 Xcoordinate
    -9.392841,                !- Vertex 1 Ycoordinate
    11.7,                     !- Vertex 1 Zcoordinate
    24.189403,                !- Vertex 2 Xcoordinate
    -9.392841,                !- Vertex 2 Ycoordinate
    6.300000000000001,        !- Vertex 2 Zcoordinate
    18.201397,                !- Vertex 3 Xcoordinate
    -14.469759,               !- Vertex 3 Ycoordinate
    6.300000000000001,        !- Vertex 3 Zcoordinate
    18.201397,                !- Vertex 4 Xcoordinate
    -14.469759,               !- Vertex 4 Ycoordinate
    11.7;                     !- Vertex 4 Zcoordinate

FENESTRATIONSURFACE:DETAILED,
    Block Build0_Alt0 Storey 0 Wall 0012 window,    !- Name
    Window,                   !- Surface Type
    Project External Window,    !- Construction Name
    Block Build0_Alt0 Storey 0 Wall 0012,    !- Building Surface Name
    ,                         !- Outside Boundary Condition Object
    autocalculate,            !- View Factor to Ground
    ,                         !- Frame and Divider Name
    1.0,                      !- Multiplier
    autocalculate,            !- Number of Vertices
    18.1910885,               !- Vertex 1 Xcoordinate
    -14.4638495,              !- Vertex 1 Ycoordinate
    11.7,                     !- Vertex 1 Zcoordinate
    18.1910885,               !- Vertex 2 Xcoordinate
    -14.4638495,              !- Vertex 2 Ycoordinate
    6.300000000000001,        !- Vertex 2 Zcoordinate
    3.5827115000000003,       !- Vertex 3 Xcoordinate
    2.4202495000000006,       !- Vertex 3 Ycoordinate
    6.300000000000001,        !- Vertex 3 Zcoordinate
    3.5827115000000003,       !- Vertex 4 Xcoordinate
    2.4202495000000006,       !- Vertex 4 Ycoordinate
    11.7;                     !- Vertex 4 Zcoordinate

FENESTRATIONSURFACE:DETAILED,
    Block Build0_Alt0 Storey 0 Wall 0013 window,    !- Name
    Window,                   !- Surface Type
    Project External Window,    !- Construction Name
    Block Build0_Alt0 Storey 0 Wall 0013,    !- Building Surface Name
    ,                         !- Outside Boundary Condition Object
    autocalculate,            !- View Factor to Ground
    ,                         !- Frame and Divider Name
    1.0,                      !- Multiplier
    autocalculate,            !- Number of Vertices
    3.576036,                 !- Vertex 1 Xcoordinate
    2.4368999999999996,       !- Vertex 1 Ycoordinate
    11.7,                     !- Vertex 1 Zcoordinate
    3.576036,                 !- Vertex 2 Xcoordinate
    2.4368999999999996,       !- Vertex 2 Ycoordinate
    6.300000000000001,        !- Vertex 2 Zcoordinate
    4.846764,                 !- Vertex 3 Xcoordinate
    18.820500000000003,       !- Vertex 3 Ycoordinate
    6.300000000000001,        !- Vertex 3 Zcoordinate
    4.846764,                 !- Vertex 4 Xcoordinate
    18.820500000000003,       !- Vertex 4 Ycoordinate
    11.7;                     !- Vertex 4 Zcoordinate

FENESTRATIONSURFACE:DETAILED,
    Block Build0_Alt0 Storey 0 Wall 0014 window,    !- Name
    Window,                   !- Surface Type
    Project External Window,    !- Construction Name
    Block Build0_Alt0 Storey 0 Wall 0014,    !- Building Surface Name
    ,                         !- Outside Boundary Condition Object
    autocalculate,            !- View Factor to Ground
    ,                         !- Frame and Divider Name
    1.0,                      !- Multiplier
    autocalculate,            !- Number of Vertices
    4.852087,                 !- Vertex 1 Xcoordinate
    18.8283385,               !- Vertex 1 Ycoordinate
    11.7,                     !- Vertex 1 Zcoordinate
    4.852087,                 !- Vertex 2 Xcoordinate
    18.8283385,               !- Vertex 2 Ycoordinate
    6.300000000000001,        !- Vertex 2 Zcoordinate
    14.216712999999999,       !- Vertex 3 Xcoordinate
    18.1060615,               !- Vertex 3 Ycoordinate
    6.300000000000001,        !- Vertex 3 Zcoordinate
    14.216712999999999,       !- Vertex 4 Xcoordinate
    18.1060615,               !- Vertex 4 Ycoordinate
    11.7;                     !- Vertex 4 Zcoordinate

FENESTRATIONSURFACE:DETAILED,
    Block Build0_Alt0 Storey 0 Wall 0015 window,    !- Name
    Window,                   !- Surface Type
    Project External Window,    !- Construction Name
    Block Build0_Alt0 Storey 0 Wall 0015,    !- Building Surface Name
    ,                         !- Outside Boundary Condition Object
    autocalculate,            !- View Factor to Ground
    ,                         !- Frame and Divider Name
    1.0,                      !- Multiplier
    autocalculate,            !- Number of Vertices
    14.221886999999999,       !- Vertex 1 Xcoordinate
    18.112057,                !- Vertex 1 Ycoordinate
    11.7,                     !- Vertex 1 Zcoordinate
    14.221886999999999,       !- Vertex 2 Xcoordinate
    18.112057,                !- Vertex 2 Ycoordinate
    6.300000000000001,        !- Vertex 2 Zcoordinate
    15.194913,                !- Vertex 3 Xcoordinate
    30.813343,                !- Vertex 3 Ycoordinate
    6.300000000000001,        !- Vertex 3 Zcoordinate
    15.194913,                !- Vertex 4 Xcoordinate
    30.813343,                !- Vertex 4 Ycoordinate
    11.7;                     !- Vertex 4 Zcoordinate

FENESTRATIONSURFACE:DETAILED,
    Block Build0_Alt0 Storey 0 Wall 0016 window,    !- Name
    Window,                   !- Surface Type
    Project External Window,    !- Construction Name
    Block Build0_Alt0 Storey 0 Wall 0016,    !- Building Surface Name
    ,                         !- Outside Boundary Condition Object
    autocalculate,            !- View Factor to Ground
    ,                         !- Frame and Divider Name
    1.0,                      !- Multiplier
    autocalculate,            !- Number of Vertices
    15.190718,                !- Vertex 1 Xcoordinate
    30.820061000000003,       !- Vertex 1 Ycoordinate
    11.7,                     !- Vertex 1 Zcoordinate
    15.190718,                !- Vertex 2 Xcoordinate
    30.820061000000003,       !- Vertex 2 Ycoordinate
    6.300000000000001,        !- Vertex 2 Zcoordinate
    5.836082,                 !- Vertex 3 Xcoordinate
    31.541338999999997,       !- Vertex 3 Ycoordinate
    6.300000000000001,        !- Vertex 3 Zcoordinate
    5.836082,                 !- Vertex 4 Xcoordinate
    31.541338999999997,       !- Vertex 4 Ycoordinate
    11.7;                     !- Vertex 4 Zcoordinate

FENESTRATIONSURFACE:DETAILED,
    Block Build0_Alt0 Storey 0 Wall 0017 window,    !- Name
    Window,                   !- Surface Type
    Project External Window,    !- Construction Name
    Block Build0_Alt0 Storey 0 Wall 0017,    !- Building Surface Name
    ,                         !- Outside Boundary Condition Object
    autocalculate,            !- View Factor to Ground
    ,                         !- Frame and Divider Name
    1.0,                      !- Multiplier
    autocalculate,            !- Number of Vertices
    5.8316965000000005,       !- Vertex 1 Xcoordinate
    31.545510999999998,       !- Vertex 1 Ycoordinate
    11.7,                     !- Vertex 1 Zcoordinate
    5.8316965000000005,       !- Vertex 2 Xcoordinate
    31.545510999999998,       !- Vertex 2 Ycoordinate
    6.300000000000001,        !- Vertex 2 Zcoordinate
    6.4241035,                !- Vertex 3 Xcoordinate
    39.159889,                !- Vertex 3 Ycoordinate
    6.300000000000001,        !- Vertex 3 Zcoordinate
    6.4241035,                !- Vertex 4 Xcoordinate
    39.159889,                !- Vertex 4 Ycoordinate
    11.7;                     !- Vertex 4 Zcoordinate

FENESTRATIONSURFACE:DETAILED,
    Block Build0_Alt0 Storey 0 Wall 0018 window,    !- Name
    Window,                   !- Surface Type
    Project External Window,    !- Construction Name
    Block Build0_Alt0 Storey 0 Wall 0018,    !- Building Surface Name
    ,                         !- Outside Boundary Condition Object
    autocalculate,            !- View Factor to Ground
    ,                         !- Frame and Divider Name
    1.0,                      !- Multiplier
    autocalculate,            !- Number of Vertices
    6.419346,                 !- Vertex 1 Xcoordinate
    39.1640545,               !- Vertex 1 Ycoordinate
    11.7,                     !- Vertex 1 Zcoordinate
    6.419346,                 !- Vertex 2 Xcoordinate
    39.1640545,               !- Vertex 2 Ycoordinate
    6.300000000000001,        !- Vertex 2 Zcoordinate
    -3.678546,                !- Vertex 3 Xcoordinate
    39.8723455,               !- Vertex 3 Ycoordinate
    6.300000000000001,        !- Vertex 3 Zcoordinate
    -3.678546,                !- Vertex 4 Xcoordinate
    39.8723455,               !- Vertex 4 Ycoordinate
    11.7;                     !- Vertex 4 Zcoordinate

FENESTRATIONSURFACE:DETAILED,
    Block Build0_Alt0 Storey 0 Wall 0019 window,    !- Name
    Window,                   !- Surface Type
    Project External Window,    !- Construction Name
    Block Build0_Alt0 Storey 0 Wall 0019,    !- Building Surface Name
    ,                         !- Outside Boundary Condition Object
    autocalculate,            !- View Factor to Ground
    ,                         !- Frame and Divider Name
    1.0,                      !- Multiplier
    autocalculate,            !- Number of Vertices
    -3.683942,                !- Vertex 1 Xcoordinate
    39.868238500000004,       !- Vertex 1 Ycoordinate
    11.7,                     !- Vertex 1 Zcoordinate
    -3.683942,                !- Vertex 2 Xcoordinate
    39.868238500000004,       !- Vertex 2 Ycoordinate
    6.300000000000001,        !- Vertex 2 Zcoordinate
    -4.367258e+00,            !- Vertex 3 Xcoordinate
    30.954161499999998,       !- Vertex 3 Ycoordinate
    6.300000000000001,        !- Vertex 3 Zcoordinate
    -4.367258e+00,            !- Vertex 4 Xcoordinate
    30.954161499999998,       !- Vertex 4 Ycoordinate
    11.7;                     !- Vertex 4 Zcoordinate

FENESTRATIONSURFACE:DETAILED,
    Block Build0_Alt0 Storey 0 Wall 0020 window,    !- Name
    Window,                   !- Surface Type
    Project External Window,    !- Construction Name
    Block Build0_Alt0 Storey 0 Wall 0020,    !- Building Surface Name
    ,                         !- Outside Boundary Condition Object
    autocalculate,            !- View Factor to Ground
    ,                         !- Frame and Divider Name
    1.0,                      !- Multiplier
    autocalculate,            !- Number of Vertices
    -4.371084,                !- Vertex 1 Xcoordinate
    30.9499765,               !- Vertex 1 Ycoordinate
    11.7,                     !- Vertex 1 Zcoordinate
    -4.371084,                !- Vertex 2 Xcoordinate
    30.9499765,               !- Vertex 2 Ycoordinate
    6.300000000000001,        !- Vertex 2 Zcoordinate
    -11.332116,               !- Vertex 3 Xcoordinate
    31.5024235,               !- Vertex 3 Ycoordinate
    6.300000000000001,        !- Vertex 3 Zcoordinate
    -11.332116,               !- Vertex 4 Xcoordinate
    31.5024235,               !- Vertex 4 Ycoordinate
    11.7;                     !- Vertex 4 Zcoordinate

FENESTRATIONSURFACE:DETAILED,
    Block Build0_Alt0 Storey 0 Wall 0021 window,    !- Name
    Window,                   !- Surface Type
    Project External Window,    !- Construction Name
    Block Build0_Alt0 Storey 0 Wall 0021,    !- Building Surface Name
    ,                         !- Outside Boundary Condition Object
    autocalculate,            !- View Factor to Ground
    ,                         !- Frame and Divider Name
    1.0,                      !- Multiplier
    autocalculate,            !- Number of Vertices
    -11.3359835,              !- Vertex 1 Xcoordinate
    31.4976735,               !- Vertex 1 Ycoordinate
    11.7,                     !- Vertex 1 Zcoordinate
    -11.3359835,              !- Vertex 2 Xcoordinate
    31.4976735,               !- Vertex 2 Ycoordinate
    6.300000000000001,        !- Vertex 2 Zcoordinate
    -12.1022165,              !- Vertex 3 Xcoordinate
    21.4547265,               !- Vertex 3 Ycoordinate
    6.300000000000001,        !- Vertex 3 Zcoordinate
    -12.1022165,              !- Vertex 4 Xcoordinate
    21.4547265,               !- Vertex 4 Ycoordinate
    11.7;                     !- Vertex 4 Zcoordinate

INTERNALMASS,
    Block Build0_Alt0 Storey -1IntMass,    !- Name
    NonHeatedZoneIntMassObj,    !- Construction Name
    Block Build0_Alt0 Storey -1,    !- Zone or ZoneList Name
    2136;                     !- Surface Area

INTERNALMASS,
    Block Build0_Alt0 Storey 0IntMass,    !- Name
    HeatedZoneIntMassObj,     !- Construction Name
    Block Build0_Alt0 Storey 0,    !- Zone or ZoneList Name
    12813;                    !- Surface Area

SHADING:SITE:DETAILED,
    Shading_V63_1,            !- Name
    ,                         !- Transmittance Schedule Name
    autocalculate,            !- Number of Vertices
    -23.1446,                 !- Vertex 1 Xcoordinate
    -49.1903,                 !- Vertex 1 Ycoordinate
    15,                       !- Vertex 1 Zcoordinate
    -23.1446,                 !- Vertex 2 Xcoordinate
    -49.1903,                 !- Vertex 2 Ycoordinate
    0,                        !- Vertex 2 Zcoordinate
    -28.6716,                 !- Vertex 3 Xcoordinate
    -42.7953,                 !- Vertex 3 Ycoordinate
    0,                        !- Vertex 3 Zcoordinate
    -28.6716,                 !- Vertex 4 Xcoordinate
    -42.7953,                 !- Vertex 4 Ycoordinate
    15;                       !- Vertex 4 Zcoordinate

SHADING:SITE:DETAILED,
    Shading_V64_1,            !- Name
    ,                         !- Transmittance Schedule Name
    autocalculate,            !- Number of Vertices
    -28.6716,                 !- Vertex 1 Xcoordinate
    -42.7953,                 !- Vertex 1 Ycoordinate
    15,                       !- Vertex 1 Zcoordinate
    -28.6716,                 !- Vertex 2 Xcoordinate
    -42.7953,                 !- Vertex 2 Ycoordinate
    0,                        !- Vertex 2 Zcoordinate
    -35.2486,                 !- Vertex 3 Xcoordinate
    -48.4783,                 !- Vertex 3 Ycoordinate
    0,                        !- Vertex 3 Zcoordinate
    -35.2486,                 !- Vertex 4 Xcoordinate
    -48.4783,                 !- Vertex 4 Ycoordinate
    15;                       !- Vertex 4 Zcoordinate

SHADING:SITE:DETAILED,
    Shading_V82_1,            !- Name
    ,                         !- Transmittance Schedule Name
    autocalculate,            !- Number of Vertices
    -6.2706,                  !- Vertex 1 Xcoordinate
    -34.6493,                 !- Vertex 1 Ycoordinate
    15,                       !- Vertex 1 Zcoordinate
    -6.2706,                  !- Vertex 2 Xcoordinate
    -34.6493,                 !- Vertex 2 Ycoordinate
    0,                        !- Vertex 2 Zcoordinate
    -23.1446,                 !- Vertex 3 Xcoordinate
    -49.1903,                 !- Vertex 3 Ycoordinate
    0,                        !- Vertex 3 Zcoordinate
    -23.1446,                 !- Vertex 4 Xcoordinate
    -49.1903,                 !- Vertex 4 Ycoordinate
    15;                       !- Vertex 4 Zcoordinate

SHADING:SITE:DETAILED,
    Shading_V190_1,           !- Name
    ,                         !- Transmittance Schedule Name
    autocalculate,            !- Number of Vertices
    -138.5666,                !- Vertex 1 Xcoordinate
    -74.9213,                 !- Vertex 1 Ycoordinate
    12.7,                     !- Vertex 1 Zcoordinate
    -138.5666,                !- Vertex 2 Xcoordinate
    -74.9213,                 !- Vertex 2 Ycoordinate
    0,                        !- Vertex 2 Zcoordinate
    -137.8096,                !- Vertex 3 Xcoordinate
    -64.8703,                 !- Vertex 3 Ycoordinate
    0,                        !- Vertex 3 Zcoordinate
    -137.8096,                !- Vertex 4 Xcoordinate
    -64.8703,                 !- Vertex 4 Ycoordinate
    12.7;                     !- Vertex 4 Zcoordinate

SHADING:SITE:DETAILED,
    Shading_V191_1,           !- Name
    ,                         !- Transmittance Schedule Name
    autocalculate,            !- Number of Vertices
    -137.8096,                !- Vertex 1 Xcoordinate
    -64.8703,                 !- Vertex 1 Ycoordinate
    12.7,                     !- Vertex 1 Zcoordinate
    -137.8096,                !- Vertex 2 Xcoordinate
    -64.8703,                 !- Vertex 2 Ycoordinate
    0,                        !- Vertex 2 Zcoordinate
    -145.9996,                !- Vertex 3 Xcoordinate
    -64.2533,                 !- Vertex 3 Ycoordinate
    0,                        !- Vertex 3 Zcoordinate
    -145.9996,                !- Vertex 4 Xcoordinate
    -64.2533,                 !- Vertex 4 Ycoordinate
    12.7;                     !- Vertex 4 Zcoordinate

SHADING:SITE:DETAILED,
    Shading_V192_1,           !- Name
    ,                         !- Transmittance Schedule Name
    autocalculate,            !- Number of Vertices
    -145.9996,                !- Vertex 1 Xcoordinate
    -64.2533,                 !- Vertex 1 Ycoordinate
    12.7,                     !- Vertex 1 Zcoordinate
    -145.9996,                !- Vertex 2 Xcoordinate
    -64.2533,                 !- Vertex 2 Ycoordinate
    0,                        !- Vertex 2 Zcoordinate
    -145.5506,                !- Vertex 3 Xcoordinate
    -57.8693,                 !- Vertex 3 Ycoordinate
    0,                        !- Vertex 3 Zcoordinate
    -145.5506,                !- Vertex 4 Xcoordinate
    -57.8693,                 !- Vertex 4 Ycoordinate
    12.7;                     !- Vertex 4 Zcoordinate

SHADING:SITE:DETAILED,
    Shading_V193_1,           !- Name
    ,                         !- Transmittance Schedule Name
    autocalculate,            !- Number of Vertices
    -145.5506,                !- Vertex 1 Xcoordinate
    -57.8693,                 !- Vertex 1 Ycoordinate
    12.7,                     !- Vertex 1 Zcoordinate
    -145.5506,                !- Vertex 2 Xcoordinate
    -57.8693,                 !- Vertex 2 Ycoordinate
    0,                        !- Vertex 2 Zcoordinate
    -155.6236,                !- Vertex 3 Xcoordinate
    -57.1613,                 !- Vertex 3 Ycoordinate
    0,                        !- Vertex 3 Zcoordinate
    -155.6236,                !- Vertex 4 Xcoordinate
    -57.1613,                 !- Vertex 4 Ycoordinate
    12.7;                     !- Vertex 4 Zcoordinate

SHADING:SITE:DETAILED,
    Shading_V196_1,           !- Name
    ,                         !- Transmittance Schedule Name
    autocalculate,            !- Number of Vertices
    -174.5576,                !- Vertex 1 Xcoordinate
    -62.0993,                 !- Vertex 1 Ycoordinate
    12.7,                     !- Vertex 1 Zcoordinate
    -174.5576,                !- Vertex 2 Xcoordinate
    -62.0993,                 !- Vertex 2 Ycoordinate
    0,                        !- Vertex 2 Zcoordinate
    -174.2556,                !- Vertex 3 Xcoordinate
    -58.1113,                 !- Vertex 3 Ycoordinate
    0,                        !- Vertex 3 Zcoordinate
    -174.2556,                !- Vertex 4 Xcoordinate
    -58.1113,                 !- Vertex 4 Ycoordinate
    12.7;                     !- Vertex 4 Zcoordinate

SHADING:SITE:DETAILED,
    Shading_V197_1,           !- Name
    ,                         !- Transmittance Schedule Name
    autocalculate,            !- Number of Vertices
    -174.2556,                !- Vertex 1 Xcoordinate
    -58.1113,                 !- Vertex 1 Ycoordinate
    12.7,                     !- Vertex 1 Zcoordinate
    -174.2556,                !- Vertex 2 Xcoordinate
    -58.1113,                 !- Vertex 2 Ycoordinate
    0,                        !- Vertex 2 Zcoordinate
    -181.3886,                !- Vertex 3 Xcoordinate
    -57.5813,                 !- Vertex 3 Ycoordinate
    0,                        !- Vertex 3 Zcoordinate
    -181.3886,                !- Vertex 4 Xcoordinate
    -57.5813,                 !- Vertex 4 Ycoordinate
    12.7;                     !- Vertex 4 Zcoordinate

SHADING:SITE:DETAILED,
    Shading_V230_1,           !- Name
    ,                         !- Transmittance Schedule Name
    autocalculate,            !- Number of Vertices
    -76.1976,                 !- Vertex 1 Xcoordinate
    -79.0183,                 !- Vertex 1 Ycoordinate
    11.3,                     !- Vertex 1 Zcoordinate
    -76.1976,                 !- Vertex 2 Xcoordinate
    -79.0183,                 !- Vertex 2 Ycoordinate
    0,                        !- Vertex 2 Zcoordinate
    -83.7066,                 !- Vertex 3 Xcoordinate
    -70.3023,                 !- Vertex 3 Ycoordinate
    0,                        !- Vertex 3 Zcoordinate
    -83.7066,                 !- Vertex 4 Xcoordinate
    -70.3023,                 !- Vertex 4 Ycoordinate
    11.3;                     !- Vertex 4 Zcoordinate

SHADING:SITE:DETAILED,
    Shading_V231_1,           !- Name
    ,                         !- Transmittance Schedule Name
    autocalculate,            !- Number of Vertices
    -83.7066,                 !- Vertex 1 Xcoordinate
    -70.3023,                 !- Vertex 1 Ycoordinate
    11.3,                     !- Vertex 1 Zcoordinate
    -83.7066,                 !- Vertex 2 Xcoordinate
    -70.3023,                 !- Vertex 2 Ycoordinate
    0,                        !- Vertex 2 Zcoordinate
    -83.3916,                 !- Vertex 3 Xcoordinate
    -65.9403,                 !- Vertex 3 Ycoordinate
    0,                        !- Vertex 3 Zcoordinate
    -83.3916,                 !- Vertex 4 Xcoordinate
    -65.9403,                 !- Vertex 4 Ycoordinate
    11.3;                     !- Vertex 4 Zcoordinate

SHADING:SITE:DETAILED,
    Shading_V232_1,           !- Name
    ,                         !- Transmittance Schedule Name
    autocalculate,            !- Number of Vertices
    -83.3916,                 !- Vertex 1 Xcoordinate
    -65.9403,                 !- Vertex 1 Ycoordinate
    11.3,                     !- Vertex 1 Zcoordinate
    -83.3916,                 !- Vertex 2 Xcoordinate
    -65.9403,                 !- Vertex 2 Ycoordinate
    0,                        !- Vertex 2 Zcoordinate
    -90.5246,                 !- Vertex 3 Xcoordinate
    -65.3823,                 !- Vertex 3 Ycoordinate
    0,                        !- Vertex 3 Zcoordinate
    -90.5246,                 !- Vertex 4 Xcoordinate
    -65.3823,                 !- Vertex 4 Ycoordinate
    11.3;                     !- Vertex 4 Zcoordinate

SHADING:SITE:DETAILED,
    Shading_V234_1,           !- Name
    ,                         !- Transmittance Schedule Name
    autocalculate,            !- Number of Vertices
    -90.8356,                 !- Vertex 1 Xcoordinate
    -69.3713,                 !- Vertex 1 Ycoordinate
    11.3,                     !- Vertex 1 Zcoordinate
    -90.8356,                 !- Vertex 2 Xcoordinate
    -69.3713,                 !- Vertex 2 Ycoordinate
    0,                        !- Vertex 2 Zcoordinate
    -100.127,                 !- Vertex 3 Xcoordinate
    -68.6438,                 !- Vertex 3 Ycoordinate
    0,                        !- Vertex 3 Zcoordinate
    -100.127,                 !- Vertex 4 Xcoordinate
    -68.6438,                 !- Vertex 4 Ycoordinate
    11.3;                     !- Vertex 4 Zcoordinate

SHADING:SITE:DETAILED,
    Shading_V266_1,           !- Name
    ,                         !- Transmittance Schedule Name
    autocalculate,            !- Number of Vertices
    -100.127,                 !- Vertex 1 Xcoordinate
    -68.6438,                 !- Vertex 1 Ycoordinate
    17.1,                     !- Vertex 1 Zcoordinate
    -100.127,                 !- Vertex 2 Xcoordinate
    -68.6438,                 !- Vertex 2 Ycoordinate
    0,                        !- Vertex 2 Zcoordinate
    -109.2796,                !- Vertex 3 Xcoordinate
    -67.9273,                 !- Vertex 3 Ycoordinate
    0,                        !- Vertex 3 Zcoordinate
    -109.2796,                !- Vertex 4 Xcoordinate
    -67.9273,                 !- Vertex 4 Ycoordinate
    17.1;                     !- Vertex 4 Zcoordinate

SHADING:SITE:DETAILED,
    Shading_V267_1,           !- Name
    ,                         !- Transmittance Schedule Name
    autocalculate,            !- Number of Vertices
    -109.2796,                !- Vertex 1 Xcoordinate
    -67.9273,                 !- Vertex 1 Ycoordinate
    17.1,                     !- Vertex 1 Zcoordinate
    -109.2796,                !- Vertex 2 Xcoordinate
    -67.9273,                 !- Vertex 2 Ycoordinate
    0,                        !- Vertex 2 Zcoordinate
    -108.6766,                !- Vertex 3 Xcoordinate
    -59.8723,                 !- Vertex 3 Ycoordinate
    0,                        !- Vertex 3 Zcoordinate
    -108.6766,                !- Vertex 4 Xcoordinate
    -59.8723,                 !- Vertex 4 Ycoordinate
    17.1;                     !- Vertex 4 Zcoordinate

SHADING:SITE:DETAILED,
    Shading_V268_1,           !- Name
    ,                         !- Transmittance Schedule Name
    autocalculate,            !- Number of Vertices
    -108.6766,                !- Vertex 1 Xcoordinate
    -59.8723,                 !- Vertex 1 Ycoordinate
    17.1,                     !- Vertex 1 Zcoordinate
    -108.6766,                !- Vertex 2 Xcoordinate
    -59.8723,                 !- Vertex 2 Ycoordinate
    0,                        !- Vertex 2 Zcoordinate
    -118.7706,                !- Vertex 3 Xcoordinate
    -59.0883,                 !- Vertex 3 Ycoordinate
    0,                        !- Vertex 3 Zcoordinate
    -118.7706,                !- Vertex 4 Xcoordinate
    -59.0883,                 !- Vertex 4 Ycoordinate
    17.1;                     !- Vertex 4 Zcoordinate

SHADING:SITE:DETAILED,
    Shading_V277_1,           !- Name
    ,                         !- Transmittance Schedule Name
    autocalculate,            !- Number of Vertices
    -58.9786,                 !- Vertex 1 Xcoordinate
    -63.7983,                 !- Vertex 1 Ycoordinate
    18.7,                     !- Vertex 1 Zcoordinate
    -58.9786,                 !- Vertex 2 Xcoordinate
    -63.7983,                 !- Vertex 2 Ycoordinate
    0,                        !- Vertex 2 Zcoordinate
    -66.5896,                 !- Vertex 3 Xcoordinate
    -70.4003,                 !- Vertex 3 Ycoordinate
    0,                        !- Vertex 3 Zcoordinate
    -66.5896,                 !- Vertex 4 Xcoordinate
    -70.4003,                 !- Vertex 4 Ycoordinate
    18.7;                     !- Vertex 4 Zcoordinate

SHADING:SITE:DETAILED,
    Shading_V286_1,           !- Name
    ,                         !- Transmittance Schedule Name
    autocalculate,            !- Number of Vertices
    -41.2746,                 !- Vertex 1 Xcoordinate
    -73.6343,                 !- Vertex 1 Ycoordinate
    18.7,                     !- Vertex 1 Zcoordinate
    -41.2746,                 !- Vertex 2 Xcoordinate
    -73.6343,                 !- Vertex 2 Ycoordinate
    0,                        !- Vertex 2 Zcoordinate
    -47.8176,                 !- Vertex 3 Xcoordinate
    -66.0293,                 !- Vertex 3 Ycoordinate
    0,                        !- Vertex 3 Zcoordinate
    -47.8176,                 !- Vertex 4 Xcoordinate
    -66.0293,                 !- Vertex 4 Ycoordinate
    18.7;                     !- Vertex 4 Zcoordinate

SHADING:SITE:DETAILED,
    Shading_V287_1,           !- Name
    ,                         !- Transmittance Schedule Name
    autocalculate,            !- Number of Vertices
    -47.8176,                 !- Vertex 1 Xcoordinate
    -66.0293,                 !- Vertex 1 Ycoordinate
    18.7,                     !- Vertex 1 Zcoordinate
    -47.8176,                 !- Vertex 2 Xcoordinate
    -66.0293,                 !- Vertex 2 Ycoordinate
    0,                        !- Vertex 2 Zcoordinate
    -53.1336,                 !- Vertex 3 Xcoordinate
    -70.5623,                 !- Vertex 3 Ycoordinate
    0,                        !- Vertex 3 Zcoordinate
    -53.1336,                 !- Vertex 4 Xcoordinate
    -70.5623,                 !- Vertex 4 Ycoordinate
    18.7;                     !- Vertex 4 Zcoordinate

SHADING:SITE:DETAILED,
    Shading_V288_1,           !- Name
    ,                         !- Transmittance Schedule Name
    autocalculate,            !- Number of Vertices
    -53.1336,                 !- Vertex 1 Xcoordinate
    -70.5623,                 !- Vertex 1 Ycoordinate
    18.7,                     !- Vertex 1 Zcoordinate
    -53.1336,                 !- Vertex 2 Xcoordinate
    -70.5623,                 !- Vertex 2 Ycoordinate
    0,                        !- Vertex 2 Zcoordinate
    -58.9786,                 !- Vertex 3 Xcoordinate
    -63.7983,                 !- Vertex 3 Ycoordinate
    0,                        !- Vertex 3 Zcoordinate
    -58.9786,                 !- Vertex 4 Xcoordinate
    -63.7983,                 !- Vertex 4 Ycoordinate
    18.7;                     !- Vertex 4 Zcoordinate

SHADING:SITE:DETAILED,
    Shading_V409_1,           !- Name
    ,                         !- Transmittance Schedule Name
    autocalculate,            !- Number of Vertices
    -109.0336,                !- Vertex 1 Xcoordinate
    -150.8893,                !- Vertex 1 Ycoordinate
    10.2,                     !- Vertex 1 Zcoordinate
    -109.0336,                !- Vertex 2 Xcoordinate
    -150.8893,                !- Vertex 2 Ycoordinate
    0,                        !- Vertex 2 Zcoordinate
    -124.4746,                !- Vertex 3 Xcoordinate
    -132.9073,                !- Vertex 3 Ycoordinate
    0,                        !- Vertex 3 Zcoordinate
    -124.4746,                !- Vertex 4 Xcoordinate
    -132.9073,                !- Vertex 4 Ycoordinate
    10.2;                     !- Vertex 4 Zcoordinate

SHADING:SITE:DETAILED,
    Shading_V77_1,            !- Name
    ,                         !- Transmittance Schedule Name
    autocalculate,            !- Number of Vertices
    10.4374,                  !- Vertex 1 Xcoordinate
    -33.6263,                 !- Vertex 1 Ycoordinate
    15,                       !- Vertex 1 Zcoordinate
    10.4374,                  !- Vertex 2 Xcoordinate
    -33.6263,                 !- Vertex 2 Ycoordinate
    0,                        !- Vertex 2 Zcoordinate
    3.8774,                   !- Vertex 3 Xcoordinate
    -25.9603,                 !- Vertex 3 Ycoordinate
    0,                        !- Vertex 3 Zcoordinate
    3.8774,                   !- Vertex 4 Xcoordinate
    -25.9603,                 !- Vertex 4 Ycoordinate
    15;                       !- Vertex 4 Zcoordinate

SHADING:SITE:DETAILED,
    Shading_V78_1,            !- Name
    ,                         !- Transmittance Schedule Name
    autocalculate,            !- Number of Vertices
    3.8774,                   !- Vertex 1 Xcoordinate
    -25.9603,                 !- Vertex 1 Ycoordinate
    15,                       !- Vertex 1 Zcoordinate
    3.8774,                   !- Vertex 2 Xcoordinate
    -25.9603,                 !- Vertex 2 Ycoordinate
    0,                        !- Vertex 2 Zcoordinate
    0.8354,                   !- Vertex 3 Xcoordinate
    -28.5573,                 !- Vertex 3 Ycoordinate
    0,                        !- Vertex 3 Zcoordinate
    0.8354,                   !- Vertex 4 Xcoordinate
    -28.5573,                 !- Vertex 4 Ycoordinate
    15;                       !- Vertex 4 Zcoordinate

SHADING:SITE:DETAILED,
    Shading_V79_1,            !- Name
    ,                         !- Transmittance Schedule Name
    autocalculate,            !- Number of Vertices
    0.8354,                   !- Vertex 1 Xcoordinate
    -28.5573,                 !- Vertex 1 Ycoordinate
    15,                       !- Vertex 1 Zcoordinate
    0.8354,                   !- Vertex 2 Xcoordinate
    -28.5573,                 !- Vertex 2 Ycoordinate
    0,                        !- Vertex 2 Zcoordinate
    -5.5886,                  !- Vertex 3 Xcoordinate
    -21.0503,                 !- Vertex 3 Ycoordinate
    0,                        !- Vertex 3 Zcoordinate
    -5.5886,                  !- Vertex 4 Xcoordinate
    -21.0503,                 !- Vertex 4 Ycoordinate
    15;                       !- Vertex 4 Zcoordinate

SHADING:SITE:DETAILED,
    Shading_V80_1,            !- Name
    ,                         !- Transmittance Schedule Name
    autocalculate,            !- Number of Vertices
    -5.5886,                  !- Vertex 1 Xcoordinate
    -21.0503,                 !- Vertex 1 Ycoordinate
    15,                       !- Vertex 1 Zcoordinate
    -5.5886,                  !- Vertex 2 Xcoordinate
    -21.0503,                 !- Vertex 2 Ycoordinate
    0,                        !- Vertex 2 Zcoordinate
    -12.7166,                 !- Vertex 3 Xcoordinate
    -27.1663,                 !- Vertex 3 Ycoordinate
    0,                        !- Vertex 3 Zcoordinate
    -12.7166,                 !- Vertex 4 Xcoordinate
    -27.1663,                 !- Vertex 4 Ycoordinate
    15;                       !- Vertex 4 Zcoordinate

SHADING:SITE:DETAILED,
    Shading_V95_1,            !- Name
    ,                         !- Transmittance Schedule Name
    autocalculate,            !- Number of Vertices
    36.4734,                  !- Vertex 1 Xcoordinate
    -64.0513,                 !- Vertex 1 Ycoordinate
    15.5,                     !- Vertex 1 Zcoordinate
    36.4734,                  !- Vertex 2 Xcoordinate
    -64.0513,                 !- Vertex 2 Ycoordinate
    0,                        !- Vertex 2 Zcoordinate
    23.5884,                  !- Vertex 3 Xcoordinate
    -48.9923,                 !- Vertex 3 Ycoordinate
    0,                        !- Vertex 3 Zcoordinate
    23.5884,                  !- Vertex 4 Xcoordinate
    -48.9923,                 !- Vertex 4 Ycoordinate
    15.5;                     !- Vertex 4 Zcoordinate

SHADING:SITE:DETAILED,
    Shading_V152_1,           !- Name
    ,                         !- Transmittance Schedule Name
    autocalculate,            !- Number of Vertices
    100.7484,                 !- Vertex 1 Xcoordinate
    -142.7363,                !- Vertex 1 Ycoordinate
    15.5,                     !- Vertex 1 Zcoordinate
    100.7484,                 !- Vertex 2 Xcoordinate
    -142.7363,                !- Vertex 2 Ycoordinate
    0,                        !- Vertex 2 Zcoordinate
    87.9854,                  !- Vertex 3 Xcoordinate
    -127.8203,                !- Vertex 3 Ycoordinate
    0,                        !- Vertex 3 Zcoordinate
    87.9854,                  !- Vertex 4 Xcoordinate
    -127.8203,                !- Vertex 4 Ycoordinate
    15.5;                     !- Vertex 4 Zcoordinate

SHADING:SITE:DETAILED,
    Shading_V410_1,           !- Name
    ,                         !- Transmittance Schedule Name
    autocalculate,            !- Number of Vertices
    -124.4746,                !- Vertex 1 Xcoordinate
    -132.9073,                !- Vertex 1 Ycoordinate
    10.2,                     !- Vertex 1 Zcoordinate
    -124.4746,                !- Vertex 2 Xcoordinate
    -132.9073,                !- Vertex 2 Ycoordinate
    0,                        !- Vertex 2 Zcoordinate
    -132.1996,                !- Vertex 3 Xcoordinate
    -139.5513,                !- Vertex 3 Ycoordinate
    0,                        !- Vertex 3 Zcoordinate
    -132.1996,                !- Vertex 4 Xcoordinate
    -139.5513,                !- Vertex 4 Ycoordinate
    10.2;                     !- Vertex 4 Zcoordinate

SHADING:SITE:DETAILED,
    Shading_V30_1,            !- Name
    ,                         !- Transmittance Schedule Name
    autocalculate,            !- Number of Vertices
    27.3974,                  !- Vertex 1 Xcoordinate
    8.6307,                   !- Vertex 1 Ycoordinate
    12.4,                     !- Vertex 1 Zcoordinate
    27.3974,                  !- Vertex 2 Xcoordinate
    8.6307,                   !- Vertex 2 Ycoordinate
    0,                        !- Vertex 2 Zcoordinate
    34.1684,                  !- Vertex 3 Xcoordinate
    0.7907,                   !- Vertex 3 Ycoordinate
    0,                        !- Vertex 3 Zcoordinate
    34.1684,                  !- Vertex 4 Xcoordinate
    0.7907,                   !- Vertex 4 Ycoordinate
    12.4;                     !- Vertex 4 Zcoordinate

SHADING:SITE:DETAILED,
    Shading_V31_1,            !- Name
    ,                         !- Transmittance Schedule Name
    autocalculate,            !- Number of Vertices
    34.1684,                  !- Vertex 1 Xcoordinate
    0.7907,                   !- Vertex 1 Ycoordinate
    12.4,                     !- Vertex 1 Zcoordinate
    34.1684,                  !- Vertex 2 Xcoordinate
    0.7907,                   !- Vertex 2 Ycoordinate
    0,                        !- Vertex 2 Zcoordinate
    31.1544,                  !- Vertex 3 Xcoordinate
    -1.8173,                  !- Vertex 3 Ycoordinate
    0,                        !- Vertex 3 Zcoordinate
    31.1544,                  !- Vertex 4 Xcoordinate
    -1.8173,                  !- Vertex 4 Ycoordinate
    12.4;                     !- Vertex 4 Zcoordinate

SHADING:SITE:DETAILED,
    Shading_V442_1,           !- Name
    ,                         !- Transmittance Schedule Name
    autocalculate,            !- Number of Vertices
    26.5804,                  !- Vertex 1 Xcoordinate
    49.1847,                  !- Vertex 1 Ycoordinate
    14.5,                     !- Vertex 1 Zcoordinate
    26.5804,                  !- Vertex 2 Xcoordinate
    49.1847,                  !- Vertex 2 Ycoordinate
    0,                        !- Vertex 2 Zcoordinate
    25.8264,                  !- Vertex 3 Xcoordinate
    39.1947,                  !- Vertex 3 Ycoordinate
    0,                        !- Vertex 3 Zcoordinate
    25.8264,                  !- Vertex 4 Xcoordinate
    39.1947,                  !- Vertex 4 Ycoordinate
    14.5;                     !- Vertex 4 Zcoordinate

SHADING:SITE:DETAILED,
    Shading_V443_1,           !- Name
    ,                         !- Transmittance Schedule Name
    autocalculate,            !- Number of Vertices
    25.8264,                  !- Vertex 1 Xcoordinate
    39.1947,                  !- Vertex 1 Ycoordinate
    14.5,                     !- Vertex 1 Zcoordinate
    25.8264,                  !- Vertex 2 Xcoordinate
    39.1947,                  !- Vertex 2 Ycoordinate
    0,                        !- Vertex 2 Zcoordinate
    37.2944,                  !- Vertex 3 Xcoordinate
    38.3467,                  !- Vertex 3 Ycoordinate
    0,                        !- Vertex 3 Zcoordinate
    37.2944,                  !- Vertex 4 Xcoordinate
    38.3467,                  !- Vertex 4 Ycoordinate
    14.5;                     !- Vertex 4 Zcoordinate

SHADING:SITE:DETAILED,
    Shading_V33_1,            !- Name
    ,                         !- Transmittance Schedule Name
    autocalculate,            !- Number of Vertices
    35.5354,                  !- Vertex 1 Xcoordinate
    -6.8763,                  !- Vertex 1 Ycoordinate
    12.4,                     !- Vertex 1 Zcoordinate
    35.5354,                  !- Vertex 2 Xcoordinate
    -6.8763,                  !- Vertex 2 Ycoordinate
    0,                        !- Vertex 2 Zcoordinate
    38.5594,                  !- Vertex 3 Xcoordinate
    -4.2563,                  !- Vertex 3 Ycoordinate
    0,                        !- Vertex 3 Zcoordinate
    38.5594,                  !- Vertex 4 Xcoordinate
    -4.2563,                  !- Vertex 4 Ycoordinate
    12.4;                     !- Vertex 4 Zcoordinate

SHADING:SITE:DETAILED,
    Shading_V34_1,            !- Name
    ,                         !- Transmittance Schedule Name
    autocalculate,            !- Number of Vertices
    38.5594,                  !- Vertex 1 Xcoordinate
    -4.2563,                  !- Vertex 1 Ycoordinate
    12.4,                     !- Vertex 1 Zcoordinate
    38.5594,                  !- Vertex 2 Xcoordinate
    -4.2563,                  !- Vertex 2 Ycoordinate
    0,                        !- Vertex 2 Zcoordinate
    43.1404,                  !- Vertex 3 Xcoordinate
    -9.5473,                  !- Vertex 3 Ycoordinate
    0,                        !- Vertex 3 Zcoordinate
    43.1404,                  !- Vertex 4 Xcoordinate
    -9.5473,                  !- Vertex 4 Ycoordinate
    12.4;                     !- Vertex 4 Zcoordinate

SHADING:SITE:DETAILED,
    Shading_V159_1,           !- Name
    ,                         !- Transmittance Schedule Name
    autocalculate,            !- Number of Vertices
    56.5704,                  !- Vertex 1 Xcoordinate
    -9.7913,                  !- Vertex 1 Ycoordinate
    12.6,                     !- Vertex 1 Zcoordinate
    56.5704,                  !- Vertex 2 Xcoordinate
    -9.7913,                  !- Vertex 2 Ycoordinate
    0,                        !- Vertex 2 Zcoordinate
    48.9264,                  !- Vertex 3 Xcoordinate
    -16.3623,                 !- Vertex 3 Ycoordinate
    0,                        !- Vertex 3 Zcoordinate
    48.9264,                  !- Vertex 4 Xcoordinate
    -16.3623,                 !- Vertex 4 Ycoordinate
    12.6;                     !- Vertex 4 Zcoordinate

SHADING:SITE:DETAILED,
    Shading_V160_1,           !- Name
    ,                         !- Transmittance Schedule Name
    autocalculate,            !- Number of Vertices
    48.9264,                  !- Vertex 1 Xcoordinate
    -16.3623,                 !- Vertex 1 Ycoordinate
    12.6,                     !- Vertex 1 Zcoordinate
    48.9264,                  !- Vertex 2 Xcoordinate
    -16.3623,                 !- Vertex 2 Ycoordinate
    0,                        !- Vertex 2 Zcoordinate
    53.4894,                  !- Vertex 3 Xcoordinate
    -21.6953,                 !- Vertex 3 Ycoordinate
    0,                        !- Vertex 3 Zcoordinate
    53.4894,                  !- Vertex 4 Xcoordinate
    -21.6953,                 !- Vertex 4 Ycoordinate
    12.6;                     !- Vertex 4 Zcoordinate

SHADING:SITE:DETAILED,
    Shading_V161_1,           !- Name
    ,                         !- Transmittance Schedule Name
    autocalculate,            !- Number of Vertices
    53.4894,                  !- Vertex 1 Xcoordinate
    -21.6953,                 !- Vertex 1 Ycoordinate
    12.6,                     !- Vertex 1 Zcoordinate
    53.4894,                  !- Vertex 2 Xcoordinate
    -21.6953,                 !- Vertex 2 Ycoordinate
    0,                        !- Vertex 2 Zcoordinate
    50.4424,                  !- Vertex 3 Xcoordinate
    -24.2893,                 !- Vertex 3 Ycoordinate
    0,                        !- Vertex 3 Zcoordinate
    50.4424,                  !- Vertex 4 Xcoordinate
    -24.2893,                 !- Vertex 4 Ycoordinate
    12.6;                     !- Vertex 4 Zcoordinate

SHADING:SITE:DETAILED,
    Shading_V162_1,           !- Name
    ,                         !- Transmittance Schedule Name
    autocalculate,            !- Number of Vertices
    50.4424,                  !- Vertex 1 Xcoordinate
    -24.2893,                 !- Vertex 1 Ycoordinate
    12.6,                     !- Vertex 1 Zcoordinate
    50.4424,                  !- Vertex 2 Xcoordinate
    -24.2893,                 !- Vertex 2 Ycoordinate
    0,                        !- Vertex 2 Zcoordinate
    54.7914,                  !- Vertex 3 Xcoordinate
    -29.3713,                 !- Vertex 3 Ycoordinate
    0,                        !- Vertex 3 Zcoordinate
    54.7914,                  !- Vertex 4 Xcoordinate
    -29.3713,                 !- Vertex 4 Ycoordinate
    12.6;                     !- Vertex 4 Zcoordinate

SHADING:SITE:DETAILED,
    Shading_V216_1,           !- Name
    ,                         !- Transmittance Schedule Name
    autocalculate,            !- Number of Vertices
    44.1944,                  !- Vertex 1 Xcoordinate
    -32.7623,                 !- Vertex 1 Ycoordinate
    14.3,                     !- Vertex 1 Zcoordinate
    44.1944,                  !- Vertex 2 Xcoordinate
    -32.7623,                 !- Vertex 2 Ycoordinate
    0,                        !- Vertex 2 Zcoordinate
    38.2424,                  !- Vertex 3 Xcoordinate
    -37.8713,                 !- Vertex 3 Ycoordinate
    0,                        !- Vertex 3 Zcoordinate
    38.2424,                  !- Vertex 4 Xcoordinate
    -37.8713,                 !- Vertex 4 Ycoordinate
    14.3;                     !- Vertex 4 Zcoordinate

SHADING:SITE:DETAILED,
    Shading_V250_1,           !- Name
    ,                         !- Transmittance Schedule Name
    autocalculate,            !- Number of Vertices
    86.7094,                  !- Vertex 1 Xcoordinate
    -51.3893,                 !- Vertex 1 Ycoordinate
    16.1,                     !- Vertex 1 Zcoordinate
    86.7094,                  !- Vertex 2 Xcoordinate
    -51.3893,                 !- Vertex 2 Ycoordinate
    0,                        !- Vertex 2 Zcoordinate
    92.8274,                  !- Vertex 3 Xcoordinate
    -58.4583,                 !- Vertex 3 Ycoordinate
    0,                        !- Vertex 3 Zcoordinate
    92.8274,                  !- Vertex 4 Xcoordinate
    -58.4583,                 !- Vertex 4 Ycoordinate
    16.1;                     !- Vertex 4 Zcoordinate

SHADING:SITE:DETAILED,
    Shading_V337_1,           !- Name
    ,                         !- Transmittance Schedule Name
    autocalculate,            !- Number of Vertices
    77.9464,                  !- Vertex 1 Xcoordinate
    6.4977,                   !- Vertex 1 Ycoordinate
    24.1,                     !- Vertex 1 Zcoordinate
    77.9464,                  !- Vertex 2 Xcoordinate
    6.4977,                   !- Vertex 2 Ycoordinate
    0,                        !- Vertex 2 Zcoordinate
    70.3444,                  !- Vertex 3 Xcoordinate
    -0.1673,                  !- Vertex 3 Ycoordinate
    0,                        !- Vertex 3 Zcoordinate
    70.3444,                  !- Vertex 4 Xcoordinate
    -0.1673,                  !- Vertex 4 Ycoordinate
    24.1;                     !- Vertex 4 Zcoordinate

SHADING:SITE:DETAILED,
    Shading_V469_1,           !- Name
    ,                         !- Transmittance Schedule Name
    autocalculate,            !- Number of Vertices
    83.2684,                  !- Vertex 1 Xcoordinate
    -41.3003,                 !- Vertex 1 Ycoordinate
    12,                       !- Vertex 1 Zcoordinate
    83.2684,                  !- Vertex 2 Xcoordinate
    -41.3003,                 !- Vertex 2 Ycoordinate
    0,                        !- Vertex 2 Zcoordinate
    89.7402,                  !- Vertex 3 Xcoordinate
    -48.7791,                 !- Vertex 3 Ycoordinate
    0,                        !- Vertex 3 Zcoordinate
    89.7402,                  !- Vertex 4 Xcoordinate
    -48.7791,                 !- Vertex 4 Ycoordinate
    12;                       !- Vertex 4 Zcoordinate

SHADING:SITE:DETAILED,
    Shading_V29_1,            !- Name
    ,                         !- Transmittance Schedule Name
    autocalculate,            !- Number of Vertices
    40.4047,                  !- Vertex 1 Xcoordinate
    19.5159,                  !- Vertex 1 Ycoordinate
    12.4,                     !- Vertex 1 Zcoordinate
    40.4047,                  !- Vertex 2 Xcoordinate
    19.5159,                  !- Vertex 2 Ycoordinate
    0,                        !- Vertex 2 Zcoordinate
    27.3974,                  !- Vertex 3 Xcoordinate
    8.6307,                   !- Vertex 3 Ycoordinate
    0,                        !- Vertex 3 Zcoordinate
    27.3974,                  !- Vertex 4 Xcoordinate
    8.6307,                   !- Vertex 4 Ycoordinate
    12.4;                     !- Vertex 4 Zcoordinate

SHADING:SITE:DETAILED,
    Shading_V32_1,            !- Name
    ,                         !- Transmittance Schedule Name
    autocalculate,            !- Number of Vertices
    31.1544,                  !- Vertex 1 Xcoordinate
    -1.8173,                  !- Vertex 1 Ycoordinate
    12.4,                     !- Vertex 1 Zcoordinate
    31.1544,                  !- Vertex 2 Xcoordinate
    -1.8173,                  !- Vertex 2 Ycoordinate
    0,                        !- Vertex 2 Zcoordinate
    35.5354,                  !- Vertex 3 Xcoordinate
    -6.8763,                  !- Vertex 3 Ycoordinate
    0,                        !- Vertex 3 Zcoordinate
    35.5354,                  !- Vertex 4 Xcoordinate
    -6.8763,                  !- Vertex 4 Ycoordinate
    12.4;                     !- Vertex 4 Zcoordinate

SHADING:SITE:DETAILED,
    Shading_V211_1,           !- Name
    ,                         !- Transmittance Schedule Name
    autocalculate,            !- Number of Vertices
    80.1034,                  !- Vertex 1 Xcoordinate
    -56.3203,                 !- Vertex 1 Ycoordinate
    14.3,                     !- Vertex 1 Zcoordinate
    80.1034,                  !- Vertex 2 Xcoordinate
    -56.3203,                 !- Vertex 2 Ycoordinate
    0,                        !- Vertex 2 Zcoordinate
    74.8224,                  !- Vertex 3 Xcoordinate
    -60.7893,                 !- Vertex 3 Ycoordinate
    0,                        !- Vertex 3 Zcoordinate
    74.8224,                  !- Vertex 4 Xcoordinate
    -60.7893,                 !- Vertex 4 Ycoordinate
    14.3;                     !- Vertex 4 Zcoordinate

SHADING:SITE:DETAILED,
    Shading_V396_1,           !- Name
    ,                         !- Transmittance Schedule Name
    autocalculate,            !- Number of Vertices
    42.521,                   !- Vertex 1 Xcoordinate
    32.32,                    !- Vertex 1 Ycoordinate
    23.9,                     !- Vertex 1 Zcoordinate
    42.521,                   !- Vertex 2 Xcoordinate
    32.32,                    !- Vertex 2 Ycoordinate
    0,                        !- Vertex 2 Zcoordinate
    48.0654,                  !- Vertex 3 Xcoordinate
    25.9267,                  !- Vertex 3 Ycoordinate
    0,                        !- Vertex 3 Zcoordinate
    48.0654,                  !- Vertex 4 Xcoordinate
    25.9267,                  !- Vertex 4 Ycoordinate
    23.9;                     !- Vertex 4 Zcoordinate

SHADING:SITE:DETAILED,
    Shading_V397_1,           !- Name
    ,                         !- Transmittance Schedule Name
    autocalculate,            !- Number of Vertices
    48.0654,                  !- Vertex 1 Xcoordinate
    25.9267,                  !- Vertex 1 Ycoordinate
    23.9,                     !- Vertex 1 Zcoordinate
    48.0654,                  !- Vertex 2 Xcoordinate
    25.9267,                  !- Vertex 2 Ycoordinate
    0,                        !- Vertex 2 Zcoordinate
    40.4047,                  !- Vertex 3 Xcoordinate
    19.5159,                  !- Vertex 3 Ycoordinate
    0,                        !- Vertex 3 Zcoordinate
    40.4047,                  !- Vertex 4 Xcoordinate
    19.5159,                  !- Vertex 4 Ycoordinate
    23.9;                     !- Vertex 4 Zcoordinate

SHADING:SITE:DETAILED,
    Shading_V444_1,           !- Name
    ,                         !- Transmittance Schedule Name
    autocalculate,            !- Number of Vertices
    37.2944,                  !- Vertex 1 Xcoordinate
    38.3467,                  !- Vertex 1 Ycoordinate
    14.5,                     !- Vertex 1 Zcoordinate
    37.2944,                  !- Vertex 2 Xcoordinate
    38.3467,                  !- Vertex 2 Ycoordinate
    0,                        !- Vertex 2 Zcoordinate
    42.521,                   !- Vertex 3 Xcoordinate
    32.32,                    !- Vertex 3 Ycoordinate
    0,                        !- Vertex 3 Zcoordinate
    42.521,                   !- Vertex 4 Xcoordinate
    32.32,                    !- Vertex 4 Ycoordinate
    14.5;                     !- Vertex 4 Zcoordinate

SHADING:SITE:DETAILED,
    Shading_V494_1,           !- Name
    ,                         !- Transmittance Schedule Name
    autocalculate,            !- Number of Vertices
    103.8104,                 !- Vertex 1 Xcoordinate
    -71.2733,                 !- Vertex 1 Ycoordinate
    16.4,                     !- Vertex 1 Zcoordinate
    103.8104,                 !- Vertex 2 Xcoordinate
    -71.2733,                 !- Vertex 2 Ycoordinate
    0,                        !- Vertex 2 Zcoordinate
    109.9934,                 !- Vertex 3 Xcoordinate
    -78.4223,                 !- Vertex 3 Ycoordinate
    0,                        !- Vertex 3 Zcoordinate
    109.9934,                 !- Vertex 4 Xcoordinate
    -78.4223,                 !- Vertex 4 Ycoordinate
    16.4;                     !- Vertex 4 Zcoordinate

SHADING:SITE:DETAILED,
    Shading_V96_1,            !- Name
    ,                         !- Transmittance Schedule Name
    autocalculate,            !- Number of Vertices
    23.5884,                  !- Vertex 1 Xcoordinate
    -48.9923,                 !- Vertex 1 Ycoordinate
    15.5,                     !- Vertex 1 Zcoordinate
    23.5884,                  !- Vertex 2 Xcoordinate
    -48.9923,                 !- Vertex 2 Ycoordinate
    0,                        !- Vertex 2 Zcoordinate
    17.3514,                  !- Vertex 3 Xcoordinate
    -54.3113,                 !- Vertex 3 Ycoordinate
    0,                        !- Vertex 3 Zcoordinate
    17.3514,                  !- Vertex 4 Xcoordinate
    -54.3113,                 !- Vertex 4 Ycoordinate
    15.5;                     !- Vertex 4 Zcoordinate

SHADING:SITE:DETAILED,
    Shading_V219_1,           !- Name
    ,                         !- Transmittance Schedule Name
    autocalculate,            !- Number of Vertices
    27.0954,                  !- Vertex 1 Xcoordinate
    -39.7213,                 !- Vertex 1 Ycoordinate
    14.3,                     !- Vertex 1 Zcoordinate
    27.0954,                  !- Vertex 2 Xcoordinate
    -39.7213,                 !- Vertex 2 Ycoordinate
    0,                        !- Vertex 2 Zcoordinate
    49.4604,                  !- Vertex 3 Xcoordinate
    -65.8843,                 !- Vertex 3 Ycoordinate
    0,                        !- Vertex 3 Zcoordinate
    49.4604,                  !- Vertex 4 Xcoordinate
    -65.8843,                 !- Vertex 4 Ycoordinate
    14.3;                     !- Vertex 4 Zcoordinate

SHADING:SITE:DETAILED,
    Shading_V220_1,           !- Name
    ,                         !- Transmittance Schedule Name
    autocalculate,            !- Number of Vertices
    49.4604,                  !- Vertex 1 Xcoordinate
    -65.8843,                 !- Vertex 1 Ycoordinate
    14.3,                     !- Vertex 1 Zcoordinate
    49.4604,                  !- Vertex 2 Xcoordinate
    -65.8843,                 !- Vertex 2 Ycoordinate
    0,                        !- Vertex 2 Zcoordinate
    46.4214,                  !- Vertex 3 Xcoordinate
    -68.4853,                 !- Vertex 3 Ycoordinate
    0,                        !- Vertex 3 Zcoordinate
    46.4214,                  !- Vertex 4 Xcoordinate
    -68.4853,                 !- Vertex 4 Ycoordinate
    14.3;                     !- Vertex 4 Zcoordinate

SHADING:SITE:DETAILED,
    Shading_V212_1,           !- Name
    ,                         !- Transmittance Schedule Name
    autocalculate,            !- Number of Vertices
    74.8224,                  !- Vertex 1 Xcoordinate
    -60.7893,                 !- Vertex 1 Ycoordinate
    14.3,                     !- Vertex 1 Zcoordinate
    74.8224,                  !- Vertex 2 Xcoordinate
    -60.7893,                 !- Vertex 2 Ycoordinate
    0,                        !- Vertex 2 Zcoordinate
    56.8014,                  !- Vertex 3 Xcoordinate
    -59.4253,                 !- Vertex 3 Ycoordinate
    0,                        !- Vertex 3 Zcoordinate
    56.8014,                  !- Vertex 4 Xcoordinate
    -59.4253,                 !- Vertex 4 Ycoordinate
    14.3;                     !- Vertex 4 Zcoordinate

SHADING:SITE:DETAILED,
    Shading_V215_1,           !- Name
    ,                         !- Transmittance Schedule Name
    autocalculate,            !- Number of Vertices
    49.4854,                  !- Vertex 1 Xcoordinate
    -38.9463,                 !- Vertex 1 Ycoordinate
    14.3,                     !- Vertex 1 Zcoordinate
    49.4854,                  !- Vertex 2 Xcoordinate
    -38.9463,                 !- Vertex 2 Ycoordinate
    0,                        !- Vertex 2 Zcoordinate
    44.1944,                  !- Vertex 3 Xcoordinate
    -32.7623,                 !- Vertex 3 Ycoordinate
    0,                        !- Vertex 3 Zcoordinate
    44.1944,                  !- Vertex 4 Xcoordinate
    -32.7623,                 !- Vertex 4 Ycoordinate
    14.3;                     !- Vertex 4 Zcoordinate

SHADING:SITE:DETAILED,
    Shading_V74_1,            !- Name
    ,                         !- Transmittance Schedule Name
    autocalculate,            !- Number of Vertices
    2.3624,                   !- Vertex 1 Xcoordinate
    -46.9623,                 !- Vertex 1 Ycoordinate
    15,                       !- Vertex 1 Zcoordinate
    2.3624,                   !- Vertex 2 Xcoordinate
    -46.9623,                 !- Vertex 2 Ycoordinate
    0,                        !- Vertex 2 Zcoordinate
    7.4444,                   !- Vertex 3 Xcoordinate
    -42.6123,                 !- Vertex 3 Ycoordinate
    0,                        !- Vertex 3 Zcoordinate
    7.4444,                   !- Vertex 4 Xcoordinate
    -42.6123,                 !- Vertex 4 Ycoordinate
    15;                       !- Vertex 4 Zcoordinate

SHADING:SITE:DETAILED,
    Shading_V97_1,            !- Name
    ,                         !- Transmittance Schedule Name
    autocalculate,            !- Number of Vertices
    17.3514,                  !- Vertex 1 Xcoordinate
    -54.3113,                 !- Vertex 1 Ycoordinate
    15.5,                     !- Vertex 1 Zcoordinate
    17.3514,                  !- Vertex 2 Xcoordinate
    -54.3113,                 !- Vertex 2 Ycoordinate
    0,                        !- Vertex 2 Zcoordinate
    14.1574,                  !- Vertex 3 Xcoordinate
    -50.5423,                 !- Vertex 3 Ycoordinate
    0,                        !- Vertex 3 Zcoordinate
    14.1574,                  !- Vertex 4 Xcoordinate
    -50.5423,                 !- Vertex 4 Ycoordinate
    15.5;                     !- Vertex 4 Zcoordinate

SHADING:SITE:DETAILED,
    Shading_V98_1,            !- Name
    ,                         !- Transmittance Schedule Name
    autocalculate,            !- Number of Vertices
    14.1574,                  !- Vertex 1 Xcoordinate
    -50.5423,                 !- Vertex 1 Ycoordinate
    15.5,                     !- Vertex 1 Zcoordinate
    14.1574,                  !- Vertex 2 Xcoordinate
    -50.5423,                 !- Vertex 2 Ycoordinate
    0,                        !- Vertex 2 Zcoordinate
    9.1404,                   !- Vertex 3 Xcoordinate
    -54.7523,                 !- Vertex 3 Ycoordinate
    0,                        !- Vertex 3 Zcoordinate
    9.1404,                   !- Vertex 4 Xcoordinate
    -54.7523,                 !- Vertex 4 Ycoordinate
    15.5;                     !- Vertex 4 Zcoordinate

SHADING:SITE:DETAILED,
    Shading_V101_1,           !- Name
    ,                         !- Transmittance Schedule Name
    autocalculate,            !- Number of Vertices
    -0.1296,                  !- Vertex 1 Xcoordinate
    -69.2913,                 !- Vertex 1 Ycoordinate
    15.5,                     !- Vertex 1 Zcoordinate
    -0.1296,                  !- Vertex 2 Xcoordinate
    -69.2913,                 !- Vertex 2 Ycoordinate
    0,                        !- Vertex 2 Zcoordinate
    -3.4946,                  !- Vertex 3 Xcoordinate
    -65.3503,                 !- Vertex 3 Ycoordinate
    0,                        !- Vertex 3 Zcoordinate
    -3.4946,                  !- Vertex 4 Xcoordinate
    -65.3503,                 !- Vertex 4 Ycoordinate
    15.5;                     !- Vertex 4 Zcoordinate

SHADING:SITE:DETAILED,
    Shading_V102_1,           !- Name
    ,                         !- Transmittance Schedule Name
    autocalculate,            !- Number of Vertices
    -3.4946,                  !- Vertex 1 Xcoordinate
    -65.3503,                 !- Vertex 1 Ycoordinate
    15.5,                     !- Vertex 1 Zcoordinate
    -3.4946,                  !- Vertex 2 Xcoordinate
    -65.3503,                 !- Vertex 2 Ycoordinate
    0,                        !- Vertex 2 Zcoordinate
    -8.6436,                  !- Vertex 3 Xcoordinate
    -69.6683,                 !- Vertex 3 Ycoordinate
    0,                        !- Vertex 3 Zcoordinate
    -8.6436,                  !- Vertex 4 Xcoordinate
    -69.6683,                 !- Vertex 4 Ycoordinate
    15.5;                     !- Vertex 4 Zcoordinate

SHADING:SITE:DETAILED,
    Shading_V164_1,           !- Name
    ,                         !- Transmittance Schedule Name
    autocalculate,            !- Number of Vertices
    57.8624,                  !- Vertex 1 Xcoordinate
    -26.7573,                 !- Vertex 1 Ycoordinate
    12.6,                     !- Vertex 1 Zcoordinate
    57.8624,                  !- Vertex 2 Xcoordinate
    -26.7573,                 !- Vertex 2 Ycoordinate
    0,                        !- Vertex 2 Zcoordinate
    64.6814,                  !- Vertex 3 Xcoordinate
    -34.6323,                 !- Vertex 3 Ycoordinate
    0,                        !- Vertex 3 Zcoordinate
    64.6814,                  !- Vertex 4 Xcoordinate
    -34.6323,                 !- Vertex 4 Ycoordinate
    12.6;                     !- Vertex 4 Zcoordinate

SHADING:SITE:DETAILED,
    Shading_V218_1,           !- Name
    ,                         !- Transmittance Schedule Name
    autocalculate,            !- Number of Vertices
    34.5204,                  !- Vertex 1 Xcoordinate
    -33.5293,                 !- Vertex 1 Ycoordinate
    14.3,                     !- Vertex 1 Zcoordinate
    34.5204,                  !- Vertex 2 Xcoordinate
    -33.5293,                 !- Vertex 2 Ycoordinate
    0,                        !- Vertex 2 Zcoordinate
    27.0954,                  !- Vertex 3 Xcoordinate
    -39.7213,                 !- Vertex 3 Ycoordinate
    0,                        !- Vertex 3 Zcoordinate
    27.0954,                  !- Vertex 4 Xcoordinate
    -39.7213,                 !- Vertex 4 Ycoordinate
    14.3;                     !- Vertex 4 Zcoordinate

SHADING:SITE:DETAILED,
    Shading_V408_1,           !- Name
    ,                         !- Transmittance Schedule Name
    autocalculate,            !- Number of Vertices
    -116.5086,                !- Vertex 1 Xcoordinate
    -157.7873,                !- Vertex 1 Ycoordinate
    10.2,                     !- Vertex 1 Zcoordinate
    -116.5086,                !- Vertex 2 Xcoordinate
    -157.7873,                !- Vertex 2 Ycoordinate
    0,                        !- Vertex 2 Zcoordinate
    -109.0336,                !- Vertex 3 Xcoordinate
    -150.8893,                !- Vertex 3 Ycoordinate
    0,                        !- Vertex 3 Zcoordinate
    -109.0336,                !- Vertex 4 Xcoordinate
    -150.8893,                !- Vertex 4 Ycoordinate
    10.2;                     !- Vertex 4 Zcoordinate

SHADING:SITE:DETAILED,
    Shading_V468_1,           !- Name
    ,                         !- Transmittance Schedule Name
    autocalculate,            !- Number of Vertices
    89.8634,                  !- Vertex 1 Xcoordinate
    -35.6303,                 !- Vertex 1 Ycoordinate
    12,                       !- Vertex 1 Zcoordinate
    89.8634,                  !- Vertex 2 Xcoordinate
    -35.6303,                 !- Vertex 2 Ycoordinate
    0,                        !- Vertex 2 Zcoordinate
    83.2684,                  !- Vertex 3 Xcoordinate
    -41.3003,                 !- Vertex 3 Ycoordinate
    0,                        !- Vertex 3 Zcoordinate
    83.2684,                  !- Vertex 4 Xcoordinate
    -41.3003,                 !- Vertex 4 Ycoordinate
    12;                       !- Vertex 4 Zcoordinate

SHADING:SITE:DETAILED,
    Shading_V510_1,           !- Name
    ,                         !- Transmittance Schedule Name
    autocalculate,            !- Number of Vertices
    -29.0126,                 !- Vertex 1 Xcoordinate
    -98.5343,                 !- Vertex 1 Ycoordinate
    19,                       !- Vertex 1 Zcoordinate
    -29.0126,                 !- Vertex 2 Xcoordinate
    -98.5343,                 !- Vertex 2 Ycoordinate
    0,                        !- Vertex 2 Zcoordinate
    -34.8376,                 !- Vertex 3 Xcoordinate
    -91.7663,                 !- Vertex 3 Ycoordinate
    0,                        !- Vertex 3 Zcoordinate
    -34.8376,                 !- Vertex 4 Xcoordinate
    -91.7663,                 !- Vertex 4 Ycoordinate
    19;                       !- Vertex 4 Zcoordinate

SHADING:SITE:DETAILED,
    Shading_V511_1,           !- Name
    ,                         !- Transmittance Schedule Name
    autocalculate,            !- Number of Vertices
    -34.8376,                 !- Vertex 1 Xcoordinate
    -91.7663,                 !- Vertex 1 Ycoordinate
    19,                       !- Vertex 1 Zcoordinate
    -34.8376,                 !- Vertex 2 Xcoordinate
    -91.7663,                 !- Vertex 2 Ycoordinate
    0,                        !- Vertex 2 Zcoordinate
    -42.4926,                 !- Vertex 3 Xcoordinate
    -98.3543,                 !- Vertex 3 Ycoordinate
    0,                        !- Vertex 3 Zcoordinate
    -42.4926,                 !- Vertex 4 Xcoordinate
    -98.3543,                 !- Vertex 4 Ycoordinate
    19;                       !- Vertex 4 Zcoordinate

SHADING:SITE:DETAILED,
    Shading_V217_1,           !- Name
    ,                         !- Transmittance Schedule Name
    autocalculate,            !- Number of Vertices
    38.2424,                  !- Vertex 1 Xcoordinate
    -37.8713,                 !- Vertex 1 Ycoordinate
    14.3,                     !- Vertex 1 Zcoordinate
    38.2424,                  !- Vertex 2 Xcoordinate
    -37.8713,                 !- Vertex 2 Ycoordinate
    0,                        !- Vertex 2 Zcoordinate
    34.5204,                  !- Vertex 3 Xcoordinate
    -33.5293,                 !- Vertex 3 Ycoordinate
    0,                        !- Vertex 3 Zcoordinate
    34.5204,                  !- Vertex 4 Xcoordinate
    -33.5293,                 !- Vertex 4 Ycoordinate
    14.3;                     !- Vertex 4 Zcoordinate

SHADING:SITE:DETAILED,
    Shading_V338_1,           !- Name
    ,                         !- Transmittance Schedule Name
    autocalculate,            !- Number of Vertices
    70.3444,                  !- Vertex 1 Xcoordinate
    -0.1673,                  !- Vertex 1 Ycoordinate
    24.1,                     !- Vertex 1 Zcoordinate
    70.3444,                  !- Vertex 2 Xcoordinate
    -0.1673,                  !- Vertex 2 Ycoordinate
    0,                        !- Vertex 2 Zcoordinate
    76.6864,                  !- Vertex 3 Xcoordinate
    -7.4903,                  !- Vertex 3 Ycoordinate
    0,                        !- Vertex 3 Zcoordinate
    76.6864,                  !- Vertex 4 Xcoordinate
    -7.4903,                  !- Vertex 4 Ycoordinate
    24.1;                     !- Vertex 4 Zcoordinate

SHADING:SITE:DETAILED,
    Shading_V493_1,           !- Name
    ,                         !- Transmittance Schedule Name
    autocalculate,            !- Number of Vertices
    111.7244,                 !- Vertex 1 Xcoordinate
    -64.5243,                 !- Vertex 1 Ycoordinate
    16.4,                     !- Vertex 1 Zcoordinate
    111.7244,                 !- Vertex 2 Xcoordinate
    -64.5243,                 !- Vertex 2 Ycoordinate
    0,                        !- Vertex 2 Zcoordinate
    103.8104,                 !- Vertex 3 Xcoordinate
    -71.2733,                 !- Vertex 3 Ycoordinate
    0,                        !- Vertex 3 Zcoordinate
    103.8104,                 !- Vertex 4 Xcoordinate
    -71.2733,                 !- Vertex 4 Ycoordinate
    16.4;                     !- Vertex 4 Zcoordinate

SHADING:SITE:DETAILED,
    Shading_V195_1,           !- Name
    ,                         !- Transmittance Schedule Name
    autocalculate,            !- Number of Vertices
    -156.1116,                !- Vertex 1 Xcoordinate
    -63.4713,                 !- Vertex 1 Ycoordinate
    12.7,                     !- Vertex 1 Zcoordinate
    -156.1116,                !- Vertex 2 Xcoordinate
    -63.4713,                 !- Vertex 2 Ycoordinate
    0,                        !- Vertex 2 Zcoordinate
    -174.5576,                !- Vertex 3 Xcoordinate
    -62.0993,                 !- Vertex 3 Ycoordinate
    0,                        !- Vertex 3 Zcoordinate
    -174.5576,                !- Vertex 4 Xcoordinate
    -62.0993,                 !- Vertex 4 Ycoordinate
    12.7;                     !- Vertex 4 Zcoordinate

SHADING:SITE:DETAILED,
    Shading_V153_1,           !- Name
    ,                         !- Transmittance Schedule Name
    autocalculate,            !- Number of Vertices
    87.9854,                  !- Vertex 1 Xcoordinate
    -127.8203,                !- Vertex 1 Ycoordinate
    15.5,                     !- Vertex 1 Zcoordinate
    87.9854,                  !- Vertex 2 Xcoordinate
    -127.8203,                !- Vertex 2 Ycoordinate
    0,                        !- Vertex 2 Zcoordinate
    78.6664,                  !- Vertex 3 Xcoordinate
    -135.7773,                !- Vertex 3 Ycoordinate
    0,                        !- Vertex 3 Zcoordinate
    78.6664,                  !- Vertex 4 Xcoordinate
    -135.7773,                !- Vertex 4 Ycoordinate
    15.5;                     !- Vertex 4 Zcoordinate

ELECTRICEQUIPMENT,
    Block Build0_Alt0 Storey 0Load,    !- Name
    Block Build0_Alt0 Storey 0,    !- Zone or ZoneList Name
    LoadSchedule,             !- Schedule Name
    Watts/Area,               !- Design Level Calculation Method
    ,                         !- Design Level
    0.06,                     !- Watts per Zone Floor Area
    ,                         !- Watts per Person
    0,                        !- Fraction Latent
    0,                        !- Fraction Radiant
    0,                        !- Fraction Lost
    General;                  !- EndUse Subcategory

ZONEINFILTRATION:DESIGNFLOWRATE,
    Block Build0_Alt0 Storey -1Leak,    !- Name
    Block Build0_Alt0 Storey -1,    !- Zone or ZoneList Name
    AlwaysON,                 !- Schedule Name
    AirChanges/Hour,          !- Design Flow Rate Calculation Method
    ,                         !- Design Flow Rate
    ,                         !- Flow per Zone Floor Area
    ,                         !- Flow per Exterior Surface Area
    1,                        !- Air Changes per Hour
    1,                        !- Constant Term Coefficient
    0,                        !- Temperature Term Coefficient
    0,                        !- Velocity Term Coefficient
    0;                        !- Velocity Squared Term Coefficient

ZONEINFILTRATION:FLOWCOEFFICIENT,
    Block Build0_Alt0 Storey 0Leak,    !- Name
    Block Build0_Alt0 Storey 0,    !- Zone Name
    AlwaysON,                 !- Schedule Name
    3.870792e-01,             !- Flow Coefficient
    0.107,                    !- Stack Coefficient
    0.667,                    !- Pressure Exponent
    0.167,                    !- Wind Coefficient
    0.61;                     !- Shelter Factor

ZONEVENTILATION:DESIGNFLOWRATE,
    Block Build0_Alt0 Storey 0FreeCool,    !- Name
    Block Build0_Alt0 Storey 0,    !- Zone or ZoneList Name
    AlwaysON,                 !- Schedule Name
    AirChanges/Hour,          !- Design Flow Rate Calculation Method
    ,                         !- Design Flow Rate
    ,                         !- Flow Rate per Zone Floor Area
    ,                         !- Flow Rate per Person
    4,                        !- Air Changes per Hour
    Natural,                  !- Ventilation Type
    0,                        !- Fan Pressure Rise
    1,                        !- Fan Total Efficiency
    1,                        !- Constant Term Coefficient
    0,                        !- Temperature Term Coefficient
    0,                        !- Velocity Term Coefficient
    0,                        !- Velocity Squared Term Coefficient
    26,                       !- Minimum Indoor Temperature
    ,                         !- Minimum Indoor Temperature Schedule Name
    100,                      !- Maximum Indoor Temperature
    ,                         !- Maximum Indoor Temperature Schedule Name
    1,                        !- Delta Temperature
    ,                         !- Delta Temperature Schedule Name
    -100,                     !- Minimum Outdoor Temperature
    ,                         !- Minimum Outdoor Temperature Schedule Name
    100,                      !- Maximum Outdoor Temperature
    ,                         !- Maximum Outdoor Temperature Schedule Name
    40;                       !- Maximum Wind Speed

HVACTEMPLATE:THERMOSTAT,
    ResidZone,                !- Name
    ,                         !- Heating Setpoint Schedule Name
    21,                       !- Constant Heating Setpoint
    ,                         !- Cooling Setpoint Schedule Name
    50;                       !- Constant Cooling Setpoint

HVACTEMPLATE:ZONE:IDEALLOADSAIRSYSTEM,
    Block Build0_Alt0 Storey 0,    !- Zone Name
    ResidZone,                !- Template Thermostat Name
    ,                         !- System Availability Schedule Name
    50,                       !- Maximum Heating Supply Air Temperature
    13,                       !- Minimum Cooling Supply Air Temperature
    0.0156,                   !- Maximum Heating Supply Air Humidity Ratio
    0.0077,                   !- Minimum Cooling Supply Air Humidity Ratio
    NoLimit,                  !- Heating Limit
    ,                         !- Maximum Heating Air Flow Rate
    160168.50854559592,       !- Maximum Sensible Heating Capacity
    NoLimit,                  !- Cooling Limit
    ,                         !- Maximum Cooling Air Flow Rate
    ,                         !- Maximum Total Cooling Capacity
    ,                         !- Heating Availability Schedule Name
    ,                         !- Cooling Availability Schedule Name
    ConstantSensibleHeatRatio,    !- Dehumidification Control Type
    0.7,                      !- Cooling Sensible Heat Ratio
    60,                       !- Dehumidification Setpoint
    None,                     !- Humidification Control Type
    30,                       !- Humidification Setpoint
    Flow/Area,                !- Outdoor Air Method
    0.007,                    !- Outdoor Air Flow Rate per Person
    2.100000e-03,             !- Outdoor Air Flow Rate per Zone Floor Area
    0,                        !- Outdoor Air Flow Rate per Zone
    ,                         !- Design Specification Outdoor Air Object Name
    None,                     !- Demand Controlled Ventilation Type
    NoEconomizer,             !- Outdoor Air Economizer Type
    Sensible,                 !- Heat Recovery Type
    0.65,                     !- Sensible Heat Recovery Effectiveness
    0;                        !- Latent Heat Recovery Effectiveness

OUTDOORAIR:NODE,
    Block Build0_Alt0 Storey 0 IDEAL LOADS OUTDOOR AIR INLET,    !- Name
    -1,                       !- Height Above Ground
    ,                         !- Drybulb Temperature Schedule Name
    ,                         !- Wetbulb Temperature Schedule Name
    ,                         !- Wind Speed Schedule Name
    ,                         !- Wind Direction Schedule Name
    ,                         !- Wind Pressure Coefficient Curve Name
    No,                       !- Symmetric Wind Pressure Coefficient Curve
    Absolute;                 !- Wind Angle Type

ENERGYMANAGEMENTSYSTEM:SENSOR,
    T0,                       !- Name
    Block Build0_Alt0 Storey 0,    !- OutputVariable or OutputMeter Index Key Name
    Zone Mean Air Temperature;    !- OutputVariable or OutputMeter Name

ENERGYMANAGEMENTSYSTEM:SENSOR,
    Pow0,                     !- Name
    Block Build0_Alt0 Storey 0 IDEAL LOADS AIR SYSTEM,    !- OutputVariable or OutputMeter Index Key Name
    Zone Ideal Loads Supply Air Total Heating Rate;    !- OutputVariable or OutputMeter Name

ENERGYMANAGEMENTSYSTEM:SENSOR,
    DHWPow,                   !- Name
    DHW,                      !- OutputVariable or OutputMeter Index Key Name
    Water Use Equipment Heating Rate;    !- OutputVariable or OutputMeter Name

ENERGYMANAGEMENTSYSTEM:PROGRAMCALLINGMANAGER,
    Average Building Temperature,    !- Name
    EndOfZoneTimestepBeforeZoneReporting,    !- EnergyPlus Model Calling Point
    AverageZoneTemps;         !- Program Name 1

ENERGYMANAGEMENTSYSTEM:PROGRAMCALLINGMANAGER,
    Compute Total Building Heat Pow,    !- Name
    EndOfZoneTimestepBeforeZoneReporting,    !- EnergyPlus Model Calling Point
    TotZonePow;               !- Program Name 1

ENERGYMANAGEMENTSYSTEM:PROGRAMCALLINGMANAGER,
    Compute Total DHW Heat Pow,    !- Name
    EndOfZoneTimestepBeforeZoneReporting,    !- EnergyPlus Model Calling Point
    prgmDHWPow;               !- Program Name 1

ENERGYMANAGEMENTSYSTEM:PROGRAM,
    AverageZoneTemps,         !- Name
    SET SumNumerator = T0*Vol0,    !- Program Line 1
    SET SumDenominator  = Vol0,    !- Program Line 2
    SET AverageBuildingTemp  = SumNumerator / SumDenominator;    !- Program Line 3

ENERGYMANAGEMENTSYSTEM:PROGRAM,
    TotZonePow,               !- Name
    SET TotBuildPow = Pow0;    !- Program Line 1

ENERGYMANAGEMENTSYSTEM:PROGRAM,
    prgmDHWPow,               !- Name
    SET TotDHWPow = DHWPow;    !- Program Line 1

ENERGYMANAGEMENTSYSTEM:GLOBALVARIABLE,
    AverageBuildingTemp;      !- Erl Variable 1 Name

ENERGYMANAGEMENTSYSTEM:GLOBALVARIABLE,
    TotBuildPow;              !- Erl Variable 1 Name

ENERGYMANAGEMENTSYSTEM:GLOBALVARIABLE,
    TotDHWPow;                !- Erl Variable 1 Name

ENERGYMANAGEMENTSYSTEM:OUTPUTVARIABLE,
    Mean Heated Zones Air Temperature,    !- Name
    AverageBuildingTemp,      !- EMS Variable Name
    Averaged,                 !- Type of Data in Variable
    ZoneTimeStep;             !- Update Frequency

ENERGYMANAGEMENTSYSTEM:OUTPUTVARIABLE,
    Total Building Heating Power,    !- Name
    TotBuildPow,              !- EMS Variable Name
    Averaged,                 !- Type of Data in Variable
    ZoneTimeStep;             !- Update Frequency

ENERGYMANAGEMENTSYSTEM:OUTPUTVARIABLE,
    Total DHW Heating Power,    !- Name
    TotDHWPow,                !- EMS Variable Name
    Averaged,                 !- Type of Data in Variable
    ZoneTimeStep;             !- Update Frequency

ENERGYMANAGEMENTSYSTEM:INTERNALVARIABLE,
    Vol0,                     !- Name
    Block Build0_Alt0 Storey 0,    !- Internal Data Index Key Name
    Zone Air Volume;          !- Internal Data Type

WATERUSE:EQUIPMENT,
    DHW,                      !- Name
    General,                  !- EndUse Subcategory
    1.830442e-08,             !- Peak Flow Rate
    WaterTaps,                !- Flow Rate Fraction Schedule Name
    TargetWaterTemp,          !- Target Temperature Schedule Name
    HotWaterTemp,             !- Hot Water Supply Temperature Schedule Name
    ColdWaterTemp;            !- Cold Water Supply Temperature Schedule Name

Output:VariableDictionary,
    Regular;                  !- Key Field

OUTPUT:ENERGYMANAGEMENTSYSTEM,
    Verbose,                  !- Actuator Availability Dictionary Reporting
    Verbose,                  !- Internal Variable Availability Dictionary Reporting
    Verbose;                  !- EMS Runtime Language Debug Output Level

Output:Table:SummaryReports,
    AllSummary;               !- Report 1 Name

OutputControl:Table:Style,
    HTML;                     !- Column Separator

OUTPUT:VARIABLE,
    *,                        !- Key Value
    Site Outdoor Air Drybulb Temperature,    !- Variable Name
    Hourly;                   !- Reporting Frequency

OUTPUT:VARIABLE,
    *,                        !- Key Value
    Site Outdoor Air Relative Humidity,    !- Variable Name
    Hourly;                   !- Reporting Frequency

OUTPUT:VARIABLE,
    *,                        !- Key Value
    Site Outdoor Air Barometric Pressure,    !- Variable Name
    Hourly;                   !- Reporting Frequency

OUTPUT:VARIABLE,
    *,                        !- Key Value
    Site Wind Speed,          !- Variable Name
    Hourly;                   !- Reporting Frequency

OUTPUT:VARIABLE,
    *,                        !- Key Value
    Site Diffuse Solar Radiation Rate per Area,    !- Variable Name
    Hourly;                   !- Reporting Frequency

OUTPUT:VARIABLE,
    *,                        !- Key Value
    Site Direct Solar Radiation Rate per Area,    !- Variable Name
    Hourly;                   !- Reporting Frequency

OUTPUT:VARIABLE,
    *,                        !- Key Value
    Zone Electric Equipment Electric Power,    !- Variable Name
    Hourly;                   !- Reporting Frequency

OUTPUT:VARIABLE,
    *,                        !- Key Value
    Zone Electric Equipment Total Heating Rate,    !- Variable Name
    Hourly;                   !- Reporting Frequency

OUTPUT:VARIABLE,
    *,                        !- Key Value
    Surface Outside Face Incident Solar Radiation Rate per Area,    !- Variable Name
    Hourly;                   !- Reporting Frequency

OUTPUT:VARIABLE,
    *,                        !- Key Value
    Surface Outside Face Incident Beam Solar Radiation Rate per Area,    !- Variable Name
    Hourly;                   !- Reporting Frequency

OUTPUT:VARIABLE,
    *,                        !- Key Value
    Zone Ideal Loads Supply Air Total Heating Rate,    !- Variable Name
    Hourly;                   !- Reporting Frequency

OUTPUT:VARIABLE,
    *,                        !- Key Value
    Water Use Equipment Hot Water Mass Flow Rate,    !- Variable Name
    Hourly;                   !- Reporting Frequency

OUTPUT:VARIABLE,
    *,                        !- Key Value
    Water Use Equipment Cold Water Mass Flow Rate,    !- Variable Name
    Hourly;                   !- Reporting Frequency

OUTPUT:VARIABLE,
    *,                        !- Key Value
    Water Use Equipment Hot Water Temperature,    !- Variable Name
    Hourly;                   !- Reporting Frequency

OUTPUT:VARIABLE,
    *,                        !- Key Value
    Water Use Equipment Cold Water Temperature,    !- Variable Name
    Hourly;                   !- Reporting Frequency

OUTPUT:VARIABLE,
    *,                        !- Key Value
    Water Use Equipment Heating Rate,    !- Variable Name
    Hourly;                   !- Reporting Frequency

OUTPUT:VARIABLE,
    *,                        !- Key Value
    Mean Heated Zones Air Temperature,    !- Variable Name
    Hourly;                   !- Reporting Frequency

OUTPUT:VARIABLE,
    *,                        !- Key Value
    Total Building Heating Power,    !- Variable Name
    Hourly;                   !- Reporting Frequency

OUTPUT:VARIABLE,
    *,                        !- Key Value
    Total DHW Heating Power,    !- Variable Name
    Hourly;                   !- Reporting Frequency

OUTPUT:DIAGNOSTICS,
    DISPLAYEXTRAWARNINGS,     !- Key 1
    DisplayAdvancedReportVariables;    !- Key 2