!- Darwin Line endings 

Version,
    9.5;                      !- Version Identifier

SimulationControl,
    No,                       !- Do Zone Sizing Calculation
    No,                       !- Do System Sizing Calculation
    No,                       !- Do Plant Sizing Calculation
    No,                       !- Run Simulation for Sizing Periods
    Yes,                      !- Run Simulation for Weather File Run Periods
    No,                       !- Do HVAC Sizing Simulation for Sizing Periods
    1;                        !- Maximum Number of HVAC Sizing Simulation Passes

Building,
    None,                     !- Name
    0,                        !- North Axis
    Suburbs,                  !- Terrain
    0.04,                     !- Loads Convergence Tolerance Value
    0.4,                      !- Temperature Convergence Tolerance Value
    FullExterior,             !- Solar Distribution
    25,                       !- Maximum Number of Warmup Days
    6;                        !- Minimum Number of Warmup Days

SHADOWCALCULATION,
    PolygonClipping,          !- Shading Calculation Method
    Periodic,                 !- Shading Calculation Update Frequency Method
    20,                       !- Shading Calculation Update Frequency
    25000,                    !- Maximum Figures in Shadow Overlap Calculations
    SutherlandHodgman,        !- Polygon Clipping Algorithm
    512,                      !- Pixel Counting Resolution
    SimpleSkyDiffuseModeling,    !- Sky Diffuse Modeling Algorithm
    No,                       !- Output External Shading Calculation Results
    No,                       !- Disable SelfShading Within Shading Zone Groups
    No;                       !- Disable SelfShading From Shading Zone Groups to Other Zones

Timestep,
    4;                        !- Number of Timesteps per Hour

Site:Location,
    WeatherData/USA_CA_San.Francisco.Intl.AP.724940_TMY3.epw,    !- Name
    37.62,                    !- Latitude
    -122.4,                   !- Longitude
    -8,                       !- Time Zone
    2;                        !- Elevation

SizingPeriod:DesignDay,
    DENVER_STAPLETON Ann Htg 99.6% Condns DB,    !- Name
    12,                       !- Month
    21,                       !- Day of Month
    WinterDesignDay,          !- Day Type
    -20,                      !- Maximum DryBulb Temperature
    0,                        !- Daily DryBulb Temperature Range
    ,                         !- DryBulb Temperature Range Modifier Type
    ,                         !- DryBulb Temperature Range Modifier Day Schedule Name
    Wetbulb,                  !- Humidity Condition Type
    -20,                      !- Wetbulb or DewPoint at Maximum DryBulb
    ,                         !- Humidity Condition Day Schedule Name
    ,                         !- Humidity Ratio at Maximum DryBulb
    ,                         !- Enthalpy at Maximum DryBulb
    ,                         !- Daily WetBulb Temperature Range
    100594,                   !- Barometric Pressure
    2.3,                      !- Wind Speed
    180,                      !- Wind Direction
    No,                       !- Rain Indicator
    No,                       !- Snow Indicator
    No,                       !- Daylight Saving Time Indicator
    ASHRAEClearSky,           !- Solar Model Indicator
    ,                         !- Beam Solar Day Schedule Name
    ,                         !- Diffuse Solar Day Schedule Name
    ,                         !- ASHRAE Clear Sky Optical Depth for Beam Irradiance taub
    ,                         !- ASHRAE Clear Sky Optical Depth for Diffuse Irradiance taud
    0;                        !- Sky Clearness

SizingPeriod:DesignDay,
    DENVER_STAPLETON Ann Clg .4% Condns DB=>MWB,    !- Name
    7,                        !- Month
    21,                       !- Day of Month
    SummerDesignDay,          !- Day Type
    34.1,                     !- Maximum DryBulb Temperature
    15.2,                     !- Daily DryBulb Temperature Range
    ,                         !- DryBulb Temperature Range Modifier Type
    ,                         !- DryBulb Temperature Range Modifier Day Schedule Name
    Wetbulb,                  !- Humidity Condition Type
    15.8,                     !- Wetbulb or DewPoint at Maximum DryBulb
    ,                         !- Humidity Condition Day Schedule Name
    ,                         !- Humidity Ratio at Maximum DryBulb
    ,                         !- Enthalpy at Maximum DryBulb
    ,                         !- Daily WetBulb Temperature Range
    100594,                   !- Barometric Pressure
    4,                        !- Wind Speed
    120,                      !- Wind Direction
    No,                       !- Rain Indicator
    No,                       !- Snow Indicator
    No,                       !- Daylight Saving Time Indicator
    ASHRAEClearSky,           !- Solar Model Indicator
    ,                         !- Beam Solar Day Schedule Name
    ,                         !- Diffuse Solar Day Schedule Name
    ,                         !- ASHRAE Clear Sky Optical Depth for Beam Irradiance taub
    ,                         !- ASHRAE Clear Sky Optical Depth for Diffuse Irradiance taud
    1;                        !- Sky Clearness

RunPeriod,
    Run Period 1,             !- Name
    1,                        !- Begin Month
    1,                        !- Begin Day of Month
    ,                         !- Begin Year
    12,                       !- End Month
    31,                       !- End Day of Month
    ,                         !- End Year
    Tuesday,                  !- Day of Week for Start Day
    Yes,                      !- Use Weather File Holidays and Special Days
    Yes,                      !- Use Weather File Daylight Saving Period
    No,                       !- Apply Weekend Holiday Rule
    Yes,                      !- Use Weather File Rain Indicators
    Yes;                      !- Use Weather File Snow Indicators

SITE:GROUNDTEMPERATURE:BUILDINGSURFACE,
    15,                       !- January Ground Temperature
    15,                       !- February Ground Temperature
    15,                       !- March Ground Temperature
    15,                       !- April Ground Temperature
    15,                       !- May Ground Temperature
    15,                       !- June Ground Temperature
    15,                       !- July Ground Temperature
    15,                       !- August Ground Temperature
    15,                       !- September Ground Temperature
    15,                       !- October Ground Temperature
    15,                       !- November Ground Temperature
    15;                       !- December Ground Temperature

SCHEDULETYPELIMITS,
    Any Number,               !- Name
    ,                         !- Lower Limit Value
    ,                         !- Upper Limit Value
    ,                         !- Numeric Type
    Dimensionless;            !- Unit Type

SCHEDULE:COMPACT,
    AlwaysON,                 !- Name
    Any Number,               !- Schedule Type Limits Name
    Through: 12/31,           !- Field 1
    For: AllDays,             !- Field 2
    Until: 24:00,             !- Field 3
    1;                        !- Field 4

SCHEDULE:COMPACT,
    OccupActivity,            !- Name
    Any Number,               !- Schedule Type Limits Name
    Through: 12/31,           !- Field 1
    For: AllDays,             !- Field 2
    Until: 24:00,             !- Field 3
    70;                       !- Field 4

SCHEDULE:COMPACT,
    HotWaterTemp,             !- Name
    Any Number,               !- Schedule Type Limits Name
    Through: 12/31,           !- Field 1
    For: AllDays,             !- Field 2
    Until: 24:00,             !- Field 3
    55;                       !- Field 4

SCHEDULE:COMPACT,
    TargetWaterTemp,          !- Name
    Any Number,               !- Schedule Type Limits Name
    Through: 12/31,           !- Field 1
    For: AllDays,             !- Field 2
    Until: 24:00,             !- Field 3
    37;                       !- Field 4

SCHEDULE:FILE,
    LoadSchedule,             !- Name
    Any Number,               !- Schedule Type Limits Name
    /Users/alizad/PycharmProjects/mubes-ubem/examples/ForTest/InputFiles/Building12_winter.txt,    !- File Name
    1,                        !- Column Number
    0,                        !- Rows to Skip at Top
    8760,                     !- Number of Hours of Data
    Comma,                    !- Column Separator
    No;                       !- Interpolate to Timestep

SCHEDULE:FILE,
    Watertaps,                !- Name
    Any Number,               !- Schedule Type Limits Name
    /Users/alizad/PycharmProjects/mubes-ubem/examples/ForTest/InputFiles/domestic_hot_water_40_apartments.txt,    !- File Name
    1,                        !- Column Number
    0,                        !- Rows to Skip at Top
    8760,                     !- Number of Hours of Data
    Comma,                    !- Column Separator
    No;                       !- Interpolate to Timestep

SCHEDULE:FILE,
    ColdWaterTemp,            !- Name
    Any Number,               !- Schedule Type Limits Name
    /Users/alizad/PycharmProjects/mubes-ubem/examples/ForTest/InputFiles/cold_water_temperature_stockholm.txt,    !- File Name
    1,                        !- Column Number
    0,                        !- Rows to Skip at Top
    8760,                     !- Number of Hours of Data
    Comma,                    !- Column Separator
    No;                       !- Interpolate to Timestep

MATERIAL,
    DefaultMaterial,          !- Name
    Rough,                    !- Roughness
    0.1,                      !- Thickness
    0.1,                      !- Conductivity
    1000,                     !- Density
    1000,                     !- Specific Heat
    0.9,                      !- Thermal Absorptance
    0.7,                      !- Solar Absorptance
    0.7;                      !- Visible Absorptance

MATERIAL,
    Basement Floor,           !- Name
    Rough,                    !- Roughness
    0.1,                      !- Thickness
    0.9,                      !- Conductivity
    2300,                     !- Density
    1000,                     !- Specific Heat
    0.9,                      !- Thermal Absorptance
    0.7,                      !- Solar Absorptance
    0.7;                      !- Visible Absorptance

MATERIAL,
    Heated1rstFloor Inertia,    !- Name
    Rough,                    !- Roughness
    0.1,                      !- Thickness
    0.9,                      !- Conductivity
    2300,                     !- Density
    1000,                     !- Specific Heat
    0.9,                      !- Thermal Absorptance
    0.7,                      !- Solar Absorptance
    0.7;                      !- Visible Absorptance

MATERIAL,
    Heated1rstFloor Insulation,    !- Name
    Rough,                    !- Roughness
    0.15,                     !- Thickness
    0.035,                    !- Conductivity
    150,                      !- Density
    1000,                     !- Specific Heat
    0.9,                      !- Thermal Absorptance
    0.7,                      !- Solar Absorptance
    0.7;                      !- Visible Absorptance

MATERIAL,
    Roof Insulation,          !- Name
    Rough,                    !- Roughness
    0.3,                      !- Thickness
    0.03,                     !- Conductivity
    150,                      !- Density
    1000,                     !- Specific Heat
    0.9,                      !- Thermal Absorptance
    0.7,                      !- Solar Absorptance
    0.7;                      !- Visible Absorptance

MATERIAL,
    Wall Inertia,             !- Name
    Rough,                    !- Roughness
    0.2,                      !- Thickness
    0.9,                      !- Conductivity
    2300,                     !- Density
    1000,                     !- Specific Heat
    0.9,                      !- Thermal Absorptance
    0.7,                      !- Solar Absorptance
    0.7;                      !- Visible Absorptance

MATERIAL,
    Wall Insulation,          !- Name
    Rough,                    !- Roughness
    0.2,                      !- Thickness
    0.03,                     !- Conductivity
    150,                      !- Density
    1000,                     !- Specific Heat
    0.9,                      !- Thermal Absorptance
    0.7,                      !- Solar Absorptance
    0.7;                      !- Visible Absorptance

MATERIAL,
    HeatedZoneIntMass,        !- Name
    Rough,                    !- Roughness
    0.1,                      !- Thickness
    0.3,                      !- Conductivity
    600,                      !- Density
    1400,                     !- Specific Heat
    0.9,                      !- Thermal Absorptance
    0.7,                      !- Solar Absorptance
    0.7;                      !- Visible Absorptance

MATERIAL,
    AirWallMaterial,          !- Name
    MediumSmooth,             !- Roughness
    0.01,                     !- Thickness
    0.6,                      !- Conductivity
    800,                      !- Density
    1000,                     !- Specific Heat
    0.95,                     !- Thermal Absorptance
    0.7,                      !- Solar Absorptance
    0.7;                      !- Visible Absorptance

WINDOWMATERIAL:SIMPLEGLAZINGSYSTEM,
    DefaultGlazing,           !- Name
    2.7,                      !- UFactor
    0.763,                    !- Solar Heat Gain Coefficient
    0.8;                      !- Visible Transmittance

WINDOWMATERIAL:SIMPLEGLAZINGSYSTEM,
    Window,                   !- Name
    1.9,                      !- UFactor
    0.7,                      !- Solar Heat Gain Coefficient
    0.8;                      !- Visible Transmittance

CONSTRUCTION,
    Project Wall,             !- Name
    Wall Inertia,             !- Outside Layer
    Wall Insulation;          !- Layer 2

CONSTRUCTION,
    Project Partition,        !- Name
    AirWallMaterial;          !- Outside Layer

CONSTRUCTION,
    Project Flat Roof,        !- Name
    Roof Insulation;          !- Outside Layer

CONSTRUCTION,
    Project External Window,    !- Name
    Window;                   !- Outside Layer

CONSTRUCTION,
    Project Heated1rstFloor,    !- Name
    Heated1rstFloor Inertia,    !- Outside Layer
    Heated1rstFloor Insulation;    !- Layer 2

CONSTRUCTION,
    HeatedZoneIntMassObj,     !- Name
    HeatedZoneIntMass;        !- Outside Layer

GlobalGeometryRules,
    UpperLeftCorner,          !- Starting Vertex Position
    CounterClockWise,         !- Vertex Entry Direction
    World;                    !- Coordinate System

ZONE,
    Block Build0_Alt0 Storey 0,    !- Name
    0,                        !- Direction of Relative North
    0,                        !- X Origin
    0,                        !- Y Origin
    0,                        !- Z Origin
    1,                        !- Type
    1,                        !- Multiplier
    autocalculate,            !- Ceiling Height
    autocalculate,            !- Volume
    autocalculate,            !- Floor Area
    ,                         !- Zone Inside Convection Algorithm
    ,                         !- Zone Outside Convection Algorithm
    Yes;                      !- Part of Total Floor Area

ZONE,
    Block Build1_Alt0 Storey 0,    !- Name
    0,                        !- Direction of Relative North
    0,                        !- X Origin
    0,                        !- Y Origin
    0,                        !- Z Origin
    1,                        !- Type
    1,                        !- Multiplier
    autocalculate,            !- Ceiling Height
    autocalculate,            !- Volume
    autocalculate,            !- Floor Area
    ,                         !- Zone Inside Convection Algorithm
    ,                         !- Zone Outside Convection Algorithm
    Yes;                      !- Part of Total Floor Area

ZONE,
    Block Build2_Alt0 Storey 0,    !- Name
    0,                        !- Direction of Relative North
    0,                        !- X Origin
    0,                        !- Y Origin
    0,                        !- Z Origin
    1,                        !- Type
    1,                        !- Multiplier
    autocalculate,            !- Ceiling Height
    autocalculate,            !- Volume
    autocalculate,            !- Floor Area
    ,                         !- Zone Inside Convection Algorithm
    ,                         !- Zone Outside Convection Algorithm
    Yes;                      !- Part of Total Floor Area

BUILDINGSURFACE:DETAILED,
    Block Build0_Alt0 Storey 0 Wall 0002,    !- Name
    wall,                     !- Surface Type
    Project Wall,             !- Construction Name
    Block Build0_Alt0 Storey 0,    !- Zone Name
    outdoors,                 !- Outside Boundary Condition
    ,                         !- Outside Boundary Condition Object
    SunExposed,               !- Sun Exposure
    WindExposed,              !- Wind Exposure
    autocalculate,            !- View Factor to Ground
    autocalculate,            !- Number of Vertices
    9.6679,                   !- Vertex 1 Xcoordinate
    18.1067,                  !- Vertex 1 Ycoordinate
    21,                       !- Vertex 1 Zcoordinate
    9.6679,                   !- Vertex 2 Xcoordinate
    18.1067,                  !- Vertex 2 Ycoordinate
    0,                        !- Vertex 2 Zcoordinate
    3.1256,                   !- Vertex 3 Xcoordinate
    25.6899,                  !- Vertex 3 Ycoordinate
    0,                        !- Vertex 3 Zcoordinate
    3.1256,                   !- Vertex 4 Xcoordinate
    25.6899,                  !- Vertex 4 Ycoordinate
    21;                       !- Vertex 4 Zcoordinate

BUILDINGSURFACE:DETAILED,
    Block Build0_Alt0 Storey 0 Wall 0003,    !- Name
    wall,                     !- Surface Type
    Project Wall,             !- Construction Name
    Block Build0_Alt0 Storey 0,    !- Zone Name
    outdoors,                 !- Outside Boundary Condition
    ,                         !- Outside Boundary Condition Object
    SunExposed,               !- Sun Exposure
    WindExposed,              !- Wind Exposure
    autocalculate,            !- View Factor to Ground
    autocalculate,            !- Number of Vertices
    3.1256,                   !- Vertex 1 Xcoordinate
    25.6899,                  !- Vertex 1 Ycoordinate
    21,                       !- Vertex 1 Zcoordinate
    3.1256,                   !- Vertex 2 Xcoordinate
    25.6899,                  !- Vertex 2 Ycoordinate
    0,                        !- Vertex 2 Zcoordinate
    9.1586,                   !- Vertex 3 Xcoordinate
    30.9289,                  !- Vertex 3 Ycoordinate
    0,                        !- Vertex 3 Zcoordinate
    9.1586,                   !- Vertex 4 Xcoordinate
    30.9289,                  !- Vertex 4 Ycoordinate
    21;                       !- Vertex 4 Zcoordinate

BUILDINGSURFACE:DETAILED,
    Block Build0_Alt0 Storey 0 Wall 0004,    !- Name
    wall,                     !- Surface Type
    Project Wall,             !- Construction Name
    Block Build0_Alt0 Storey 0,    !- Zone Name
    outdoors,                 !- Outside Boundary Condition
    ,                         !- Outside Boundary Condition Object
    SunExposed,               !- Sun Exposure
    WindExposed,              !- Wind Exposure
    autocalculate,            !- View Factor to Ground
    autocalculate,            !- Number of Vertices
    9.1586,                   !- Vertex 1 Xcoordinate
    30.9289,                  !- Vertex 1 Ycoordinate
    21,                       !- Vertex 1 Zcoordinate
    9.1586,                   !- Vertex 2 Xcoordinate
    30.9289,                  !- Vertex 2 Ycoordinate
    0,                        !- Vertex 2 Zcoordinate
    2.5906,                   !- Vertex 3 Xcoordinate
    38.6019,                  !- Vertex 3 Ycoordinate
    0,                        !- Vertex 3 Zcoordinate
    2.5906,                   !- Vertex 4 Xcoordinate
    38.6019,                  !- Vertex 4 Ycoordinate
    21;                       !- Vertex 4 Zcoordinate

BUILDINGSURFACE:DETAILED,
    Block Build0_Alt0 Storey 0 Wall 0005,    !- Name
    wall,                     !- Surface Type
    Project Wall,             !- Construction Name
    Block Build0_Alt0 Storey 0,    !- Zone Name
    outdoors,                 !- Outside Boundary Condition
    ,                         !- Outside Boundary Condition Object
    SunExposed,               !- Sun Exposure
    WindExposed,              !- Wind Exposure
    autocalculate,            !- View Factor to Ground
    autocalculate,            !- Number of Vertices
    2.5906,                   !- Vertex 1 Xcoordinate
    38.6019,                  !- Vertex 1 Ycoordinate
    21,                       !- Vertex 1 Zcoordinate
    2.5906,                   !- Vertex 2 Xcoordinate
    38.6019,                  !- Vertex 2 Ycoordinate
    0,                        !- Vertex 2 Zcoordinate
    -3.4624,                  !- Vertex 3 Xcoordinate
    33.3939,                  !- Vertex 3 Ycoordinate
    0,                        !- Vertex 3 Zcoordinate
    -3.4624,                  !- Vertex 4 Xcoordinate
    33.3939,                  !- Vertex 4 Ycoordinate
    21;                       !- Vertex 4 Zcoordinate

BUILDINGSURFACE:DETAILED,
    Block Build0_Alt0 Storey 0 Wall 0006,    !- Name
    wall,                     !- Surface Type
    Project Wall,             !- Construction Name
    Block Build0_Alt0 Storey 0,    !- Zone Name
    outdoors,                 !- Outside Boundary Condition
    ,                         !- Outside Boundary Condition Object
    SunExposed,               !- Sun Exposure
    WindExposed,              !- Wind Exposure
    autocalculate,            !- View Factor to Ground
    autocalculate,            !- Number of Vertices
    -3.4624,                  !- Vertex 1 Xcoordinate
    33.3939,                  !- Vertex 1 Ycoordinate
    21,                       !- Vertex 1 Zcoordinate
    -3.4624,                  !- Vertex 2 Xcoordinate
    33.3939,                  !- Vertex 2 Ycoordinate
    0,                        !- Vertex 2 Zcoordinate
    -9.2874,                  !- Vertex 3 Xcoordinate
    40.1619,                  !- Vertex 3 Ycoordinate
    0,                        !- Vertex 3 Zcoordinate
    -9.2874,                  !- Vertex 4 Xcoordinate
    40.1619,                  !- Vertex 4 Ycoordinate
    21;                       !- Vertex 4 Zcoordinate

BUILDINGSURFACE:DETAILED,
    Block Build0_Alt0 Storey 0 Wall 0007,    !- Name
    wall,                     !- Surface Type
    Project Wall,             !- Construction Name
    Block Build0_Alt0 Storey 0,    !- Zone Name
    outdoors,                 !- Outside Boundary Condition
    ,                         !- Outside Boundary Condition Object
    SunExposed,               !- Sun Exposure
    WindExposed,              !- Wind Exposure
    autocalculate,            !- View Factor to Ground
    autocalculate,            !- Number of Vertices
    -9.2874,                  !- Vertex 1 Xcoordinate
    40.1619,                  !- Vertex 1 Ycoordinate
    21,                       !- Vertex 1 Zcoordinate
    -9.2874,                  !- Vertex 2 Xcoordinate
    40.1619,                  !- Vertex 2 Ycoordinate
    0,                        !- Vertex 2 Zcoordinate
    -16.9424,                 !- Vertex 3 Xcoordinate
    33.5739,                  !- Vertex 3 Ycoordinate
    0,                        !- Vertex 3 Zcoordinate
    -16.9424,                 !- Vertex 4 Xcoordinate
    33.5739,                  !- Vertex 4 Ycoordinate
    21;                       !- Vertex 4 Zcoordinate

BUILDINGSURFACE:DETAILED,
    Block Build0_Alt0 Storey 0 Wall 0008,    !- Name
    wall,                     !- Surface Type
    Project Wall,             !- Construction Name
    Block Build0_Alt0 Storey 0,    !- Zone Name
    outdoors,                 !- Outside Boundary Condition
    ,                         !- Outside Boundary Condition Object
    SunExposed,               !- Sun Exposure
    WindExposed,              !- Wind Exposure
    autocalculate,            !- View Factor to Ground
    autocalculate,            !- Number of Vertices
    -16.9424,                 !- Vertex 1 Xcoordinate
    33.5739,                  !- Vertex 1 Ycoordinate
    21,                       !- Vertex 1 Zcoordinate
    -16.9424,                 !- Vertex 2 Xcoordinate
    33.5739,                  !- Vertex 2 Ycoordinate
    0,                        !- Vertex 2 Zcoordinate
    -11.9904,                 !- Vertex 3 Xcoordinate
    27.7689,                  !- Vertex 3 Ycoordinate
    0,                        !- Vertex 3 Zcoordinate
    -11.9904,                 !- Vertex 4 Xcoordinate
    27.7689,                  !- Vertex 4 Ycoordinate
    21;                       !- Vertex 4 Zcoordinate

BUILDINGSURFACE:DETAILED,
    Block Build0_Alt0 Storey 0 Wall 0009,    !- Name
    wall,                     !- Surface Type
    Project Wall,             !- Construction Name
    Block Build0_Alt0 Storey 0,    !- Zone Name
    outdoors,                 !- Outside Boundary Condition
    ,                         !- Outside Boundary Condition Object
    SunExposed,               !- Sun Exposure
    WindExposed,              !- Wind Exposure
    autocalculate,            !- View Factor to Ground
    autocalculate,            !- Number of Vertices
    -11.9904,                 !- Vertex 1 Xcoordinate
    27.7689,                  !- Vertex 1 Ycoordinate
    21,                       !- Vertex 1 Zcoordinate
    -11.9904,                 !- Vertex 2 Xcoordinate
    27.7689,                  !- Vertex 2 Ycoordinate
    0,                        !- Vertex 2 Zcoordinate
    -19.1334,                 !- Vertex 3 Xcoordinate
    21.6029,                  !- Vertex 3 Ycoordinate
    0,                        !- Vertex 3 Zcoordinate
    -19.1334,                 !- Vertex 4 Xcoordinate
    21.6029,                  !- Vertex 4 Ycoordinate
    21;                       !- Vertex 4 Zcoordinate

BUILDINGSURFACE:DETAILED,
    Block Build0_Alt0 Storey 0 Wall 0010,    !- Name
    wall,                     !- Surface Type
    Project Wall,             !- Construction Name
    Block Build0_Alt0 Storey 0,    !- Zone Name
    outdoors,                 !- Outside Boundary Condition
    ,                         !- Outside Boundary Condition Object
    SunExposed,               !- Sun Exposure
    WindExposed,              !- Wind Exposure
    autocalculate,            !- View Factor to Ground
    autocalculate,            !- Number of Vertices
    -19.1334,                 !- Vertex 1 Xcoordinate
    21.6029,                  !- Vertex 1 Ycoordinate
    21,                       !- Vertex 1 Zcoordinate
    -19.1334,                 !- Vertex 2 Xcoordinate
    21.6029,                  !- Vertex 2 Ycoordinate
    0,                        !- Vertex 2 Zcoordinate
    -10.8254,                 !- Vertex 3 Xcoordinate
    11.9949,                  !- Vertex 3 Ycoordinate
    0,                        !- Vertex 3 Zcoordinate
    -10.8254,                 !- Vertex 4 Xcoordinate
    11.9949,                  !- Vertex 4 Ycoordinate
    21;                       !- Vertex 4 Zcoordinate

BUILDINGSURFACE:DETAILED,
    Block Build0_Alt0 Storey 0 Wall 0011,    !- Name
    wall,                     !- Surface Type
    Project Wall,             !- Construction Name
    Block Build0_Alt0 Storey 0,    !- Zone Name
    outdoors,                 !- Outside Boundary Condition
    ,                         !- Outside Boundary Condition Object
    SunExposed,               !- Sun Exposure
    WindExposed,              !- Wind Exposure
    autocalculate,            !- View Factor to Ground
    autocalculate,            !- Number of Vertices
    -10.8254,                 !- Vertex 1 Xcoordinate
    11.9949,                  !- Vertex 1 Ycoordinate
    21,                       !- Vertex 1 Zcoordinate
    -10.8254,                 !- Vertex 2 Xcoordinate
    11.9949,                  !- Vertex 2 Ycoordinate
    0,                        !- Vertex 2 Zcoordinate
    -3.7054,                  !- Vertex 3 Xcoordinate
    18.1669,                  !- Vertex 3 Ycoordinate
    0,                        !- Vertex 3 Zcoordinate
    -3.7054,                  !- Vertex 4 Xcoordinate
    18.1669,                  !- Vertex 4 Ycoordinate
    21;                       !- Vertex 4 Zcoordinate

BUILDINGSURFACE:DETAILED,
    Block Build0_Alt0 Storey 0 Wall 0012,    !- Name
    wall,                     !- Surface Type
    Project Wall,             !- Construction Name
    Block Build0_Alt0 Storey 0,    !- Zone Name
    outdoors,                 !- Outside Boundary Condition
    ,                         !- Outside Boundary Condition Object
    SunExposed,               !- Sun Exposure
    WindExposed,              !- Wind Exposure
    autocalculate,            !- View Factor to Ground
    autocalculate,            !- Number of Vertices
    -3.7054,                  !- Vertex 1 Xcoordinate
    18.1669,                  !- Vertex 1 Ycoordinate
    21,                       !- Vertex 1 Zcoordinate
    -3.7054,                  !- Vertex 2 Xcoordinate
    18.1669,                  !- Vertex 2 Ycoordinate
    0,                        !- Vertex 2 Zcoordinate
    2.2697,                   !- Vertex 3 Xcoordinate
    11.4511,                  !- Vertex 3 Ycoordinate
    0,                        !- Vertex 3 Zcoordinate
    2.2697,                   !- Vertex 4 Xcoordinate
    11.4511,                  !- Vertex 4 Ycoordinate
    21;                       !- Vertex 4 Zcoordinate

BUILDINGSURFACE:DETAILED,
    Block Build0_Alt0 Storey 0 Floor 0001,    !- Name
    floor,                    !- Surface Type
    Project Heated1rstFloor,    !- Construction Name
    Block Build0_Alt0 Storey 0,    !- Zone Name
    ground,                   !- Outside Boundary Condition
    ,                         !- Outside Boundary Condition Object
    NoSun,                    !- Sun Exposure
    NoWind,                   !- Wind Exposure
    autocalculate,            !- View Factor to Ground
    autocalculate,            !- Number of Vertices
    2.5906,                   !- Vertex 1 Xcoordinate
    38.6019,                  !- Vertex 1 Ycoordinate
    0,                        !- Vertex 1 Zcoordinate
    9.1586,                   !- Vertex 2 Xcoordinate
    30.9289,                  !- Vertex 2 Ycoordinate
    0,                        !- Vertex 2 Zcoordinate
    3.1256,                   !- Vertex 3 Xcoordinate
    25.6899,                  !- Vertex 3 Ycoordinate
    0,                        !- Vertex 3 Zcoordinate
    9.6679,                   !- Vertex 4 Xcoordinate
    18.1067,                  !- Vertex 4 Ycoordinate
    0,                        !- Vertex 4 Zcoordinate
    2.2697,                   !- Vertex 5 Xcoordinate
    11.4511,                  !- Vertex 5 Ycoordinate
    0,                        !- Vertex 5 Zcoordinate
    -3.7054,                  !- Vertex 6 Xcoordinate
    18.1669,                  !- Vertex 6 Ycoordinate
    0,                        !- Vertex 6 Zcoordinate
    -10.8254,                 !- Vertex 7 Xcoordinate
    11.9949,                  !- Vertex 7 Ycoordinate
    0,                        !- Vertex 7 Zcoordinate
    -19.1334,                 !- Vertex 8 Xcoordinate
    21.6029,                  !- Vertex 8 Ycoordinate
    0,                        !- Vertex 8 Zcoordinate
    -11.9904,                 !- Vertex 9 Xcoordinate
    27.7689,                  !- Vertex 9 Ycoordinate
    0,                        !- Vertex 9 Zcoordinate
    -16.9424,                 !- Vertex 10 Xcoordinate
    33.5739,                  !- Vertex 10 Ycoordinate
    0,                        !- Vertex 10 Zcoordinate
    -9.2874,                  !- Vertex 11 Xcoordinate
    40.1619,                  !- Vertex 11 Ycoordinate
    0,                        !- Vertex 11 Zcoordinate
    -3.4624,                  !- Vertex 12 Xcoordinate
    33.3939,                  !- Vertex 12 Ycoordinate
    0;                        !- Vertex 12 Zcoordinate

BUILDINGSURFACE:DETAILED,
    Block Build1_Alt0 Storey 0 Wall 0001,    !- Name
    wall,                     !- Surface Type
    Project Wall,             !- Construction Name
    Block Build1_Alt0 Storey 0,    !- Zone Name
    outdoors,                 !- Outside Boundary Condition
    ,                         !- Outside Boundary Condition Object
    SunExposed,               !- Sun Exposure
    WindExposed,              !- Wind Exposure
    autocalculate,            !- View Factor to Ground
    autocalculate,            !- Number of Vertices
    16.564,                   !- Vertex 1 Xcoordinate
    -3.3148,                  !- Vertex 1 Ycoordinate
    12,                       !- Vertex 1 Zcoordinate
    16.564,                   !- Vertex 2 Xcoordinate
    -3.3148,                  !- Vertex 2 Ycoordinate
    0,                        !- Vertex 2 Zcoordinate
    17.3456,                  !- Vertex 3 Xcoordinate
    7.1589,                   !- Vertex 3 Ycoordinate
    0,                        !- Vertex 3 Zcoordinate
    17.3456,                  !- Vertex 4 Xcoordinate
    7.1589,                   !- Vertex 4 Ycoordinate
    12;                       !- Vertex 4 Zcoordinate

BUILDINGSURFACE:DETAILED,
    Block Build1_Alt0 Storey 0 Wall 0002,    !- Name
    wall,                     !- Surface Type
    Project Wall,             !- Construction Name
    Block Build1_Alt0 Storey 0,    !- Zone Name
    outdoors,                 !- Outside Boundary Condition
    ,                         !- Outside Boundary Condition Object
    SunExposed,               !- Sun Exposure
    WindExposed,              !- Wind Exposure
    autocalculate,            !- View Factor to Ground
    autocalculate,            !- Number of Vertices
    17.3456,                  !- Vertex 1 Xcoordinate
    7.1589,                   !- Vertex 1 Ycoordinate
    12,                       !- Vertex 1 Zcoordinate
    17.3456,                  !- Vertex 2 Xcoordinate
    7.1589,                   !- Vertex 2 Ycoordinate
    0,                        !- Vertex 2 Zcoordinate
    21.3336,                  !- Vertex 3 Xcoordinate
    10.5509,                  !- Vertex 3 Ycoordinate
    0,                        !- Vertex 3 Zcoordinate
    21.3336,                  !- Vertex 4 Xcoordinate
    10.5509,                  !- Vertex 4 Ycoordinate
    12;                       !- Vertex 4 Zcoordinate

BUILDINGSURFACE:DETAILED,
    Block Build1_Alt0 Storey 0 Wall 0003,    !- Name
    wall,                     !- Surface Type
    Project Wall,             !- Construction Name
    Block Build1_Alt0 Storey 0,    !- Zone Name
    outdoors,                 !- Outside Boundary Condition
    ,                         !- Outside Boundary Condition Object
    SunExposed,               !- Sun Exposure
    WindExposed,              !- Wind Exposure
    autocalculate,            !- View Factor to Ground
    autocalculate,            !- Number of Vertices
    21.3336,                  !- Vertex 1 Xcoordinate
    10.5509,                  !- Vertex 1 Ycoordinate
    12,                       !- Vertex 1 Zcoordinate
    21.3336,                  !- Vertex 2 Xcoordinate
    10.5509,                  !- Vertex 2 Ycoordinate
    0,                        !- Vertex 2 Zcoordinate
    16.6806,                  !- Vertex 3 Xcoordinate
    15.9889,                  !- Vertex 3 Ycoordinate
    0,                        !- Vertex 3 Zcoordinate
    16.6806,                  !- Vertex 4 Xcoordinate
    15.9889,                  !- Vertex 4 Ycoordinate
    12;                       !- Vertex 4 Zcoordinate

BUILDINGSURFACE:DETAILED,
    Block Build1_Alt0 Storey 0 Wall 0004,    !- Name
    wall,                     !- Surface Type
    Project Wall,             !- Construction Name
    Block Build1_Alt0 Storey 0,    !- Zone Name
    outdoors,                 !- Outside Boundary Condition
    ,                         !- Outside Boundary Condition Object
    SunExposed,               !- Sun Exposure
    WindExposed,              !- Wind Exposure
    autocalculate,            !- View Factor to Ground
    autocalculate,            !- Number of Vertices
    16.6806,                  !- Vertex 1 Xcoordinate
    15.9889,                  !- Vertex 1 Ycoordinate
    12,                       !- Vertex 1 Zcoordinate
    16.6806,                  !- Vertex 2 Xcoordinate
    15.9889,                  !- Vertex 2 Ycoordinate
    0,                        !- Vertex 2 Zcoordinate
    13.7406,                  !- Vertex 3 Xcoordinate
    13.3859,                  !- Vertex 3 Ycoordinate
    0,                        !- Vertex 3 Zcoordinate
    13.7406,                  !- Vertex 4 Xcoordinate
    13.3859,                  !- Vertex 4 Ycoordinate
    12;                       !- Vertex 4 Zcoordinate

BUILDINGSURFACE:DETAILED,
    Block Build1_Alt0 Storey 0 Wall 0005,    !- Name
    wall,                     !- Surface Type
    Project Wall,             !- Construction Name
    Block Build1_Alt0 Storey 0,    !- Zone Name
    outdoors,                 !- Outside Boundary Condition
    ,                         !- Outside Boundary Condition Object
    SunExposed,               !- Sun Exposure
    WindExposed,              !- Wind Exposure
    autocalculate,            !- View Factor to Ground
    autocalculate,            !- Number of Vertices
    13.7406,                  !- Vertex 1 Xcoordinate
    13.3859,                  !- Vertex 1 Ycoordinate
    12,                       !- Vertex 1 Zcoordinate
    13.7406,                  !- Vertex 2 Xcoordinate
    13.3859,                  !- Vertex 2 Ycoordinate
    0,                        !- Vertex 2 Zcoordinate
    9.6679,                   !- Vertex 3 Xcoordinate
    18.1067,                  !- Vertex 3 Ycoordinate
    0,                        !- Vertex 3 Zcoordinate
    9.6679,                   !- Vertex 4 Xcoordinate
    18.1067,                  !- Vertex 4 Ycoordinate
    12;                       !- Vertex 4 Zcoordinate

BUILDINGSURFACE:DETAILED,
    Block Build1_Alt0 Storey 0 Wall 0007,    !- Name
    wall,                     !- Surface Type
    Project Wall,             !- Construction Name
    Block Build1_Alt0 Storey 0,    !- Zone Name
    outdoors,                 !- Outside Boundary Condition
    ,                         !- Outside Boundary Condition Object
    SunExposed,               !- Sun Exposure
    WindExposed,              !- Wind Exposure
    autocalculate,            !- View Factor to Ground
    autocalculate,            !- Number of Vertices
    2.2697,                   !- Vertex 1 Xcoordinate
    11.4511,                  !- Vertex 1 Ycoordinate
    12,                       !- Vertex 1 Zcoordinate
    2.2697,                   !- Vertex 2 Xcoordinate
    11.4511,                  !- Vertex 2 Ycoordinate
    0,                        !- Vertex 2 Zcoordinate
    7.1326,                   !- Vertex 3 Xcoordinate
    5.9859,                   !- Vertex 3 Ycoordinate
    0,                        !- Vertex 3 Zcoordinate
    7.1326,                   !- Vertex 4 Xcoordinate
    5.9859,                   !- Vertex 4 Ycoordinate
    12;                       !- Vertex 4 Zcoordinate

BUILDINGSURFACE:DETAILED,
    Block Build1_Alt0 Storey 0 Wall 0008,    !- Name
    wall,                     !- Surface Type
    Project Wall,             !- Construction Name
    Block Build1_Alt0 Storey 0,    !- Zone Name
    outdoors,                 !- Outside Boundary Condition
    ,                         !- Outside Boundary Condition Object
    SunExposed,               !- Sun Exposure
    WindExposed,              !- Wind Exposure
    autocalculate,            !- View Factor to Ground
    autocalculate,            !- Number of Vertices
    7.1326,                   !- Vertex 1 Xcoordinate
    5.9859,                   !- Vertex 1 Ycoordinate
    12,                       !- Vertex 1 Zcoordinate
    7.1326,                   !- Vertex 2 Xcoordinate
    5.9859,                   !- Vertex 2 Ycoordinate
    0,                        !- Vertex 2 Zcoordinate
    6.4873,                   !- Vertex 3 Xcoordinate
    -2.7697,                  !- Vertex 3 Ycoordinate
    0,                        !- Vertex 3 Zcoordinate
    6.4873,                   !- Vertex 4 Xcoordinate
    -2.7697,                  !- Vertex 4 Ycoordinate
    12;                       !- Vertex 4 Zcoordinate

BUILDINGSURFACE:DETAILED,
    Block Build1_Alt0 Storey 0 Floor 0001,    !- Name
    floor,                    !- Surface Type
    Project Heated1rstFloor,    !- Construction Name
    Block Build1_Alt0 Storey 0,    !- Zone Name
    ground,                   !- Outside Boundary Condition
    ,                         !- Outside Boundary Condition Object
    NoSun,                    !- Sun Exposure
    NoWind,                   !- Wind Exposure
    autocalculate,            !- View Factor to Ground
    autocalculate,            !- Number of Vertices
    16.6806,                  !- Vertex 1 Xcoordinate
    15.9889,                  !- Vertex 1 Ycoordinate
    0,                        !- Vertex 1 Zcoordinate
    21.3336,                  !- Vertex 2 Xcoordinate
    10.5509,                  !- Vertex 2 Ycoordinate
    0,                        !- Vertex 2 Zcoordinate
    17.3456,                  !- Vertex 3 Xcoordinate
    7.1589,                   !- Vertex 3 Ycoordinate
    0,                        !- Vertex 3 Zcoordinate
    16.564,                   !- Vertex 4 Xcoordinate
    -3.3148,                  !- Vertex 4 Ycoordinate
    0,                        !- Vertex 4 Zcoordinate
    6.4873,                   !- Vertex 5 Xcoordinate
    -2.7697,                  !- Vertex 5 Ycoordinate
    0,                        !- Vertex 5 Zcoordinate
    7.1326,                   !- Vertex 6 Xcoordinate
    5.9859,                   !- Vertex 6 Ycoordinate
    0,                        !- Vertex 6 Zcoordinate
    2.2697,                   !- Vertex 7 Xcoordinate
    11.4511,                  !- Vertex 7 Ycoordinate
    0,                        !- Vertex 7 Zcoordinate
    9.6679,                   !- Vertex 8 Xcoordinate
    18.1067,                  !- Vertex 8 Ycoordinate
    0,                        !- Vertex 8 Zcoordinate
    13.7406,                  !- Vertex 9 Xcoordinate
    13.3859,                  !- Vertex 9 Ycoordinate
    0;                        !- Vertex 9 Zcoordinate

BUILDINGSURFACE:DETAILED,
    Block Build2_Alt0 Storey 0 Wall 0002,    !- Name
    wall,                     !- Surface Type
    Project Wall,             !- Construction Name
    Block Build2_Alt0 Storey 0,    !- Zone Name
    outdoors,                 !- Outside Boundary Condition
    ,                         !- Outside Boundary Condition Object
    SunExposed,               !- Sun Exposure
    WindExposed,              !- Wind Exposure
    autocalculate,            !- View Factor to Ground
    autocalculate,            !- Number of Vertices
    6.4873,                   !- Vertex 1 Xcoordinate
    -2.7697,                  !- Vertex 1 Ycoordinate
    21,                       !- Vertex 1 Zcoordinate
    6.4873,                   !- Vertex 2 Xcoordinate
    -2.7697,                  !- Vertex 2 Ycoordinate
    0,                        !- Vertex 2 Zcoordinate
    5.7756,                   !- Vertex 3 Xcoordinate
    -12.4321,                 !- Vertex 3 Ycoordinate
    0,                        !- Vertex 3 Zcoordinate
    5.7756,                   !- Vertex 4 Xcoordinate
    -12.4321,                 !- Vertex 4 Ycoordinate
    21;                       !- Vertex 4 Zcoordinate

BUILDINGSURFACE:DETAILED,
    Block Build2_Alt0 Storey 0 Wall 0003,    !- Name
    wall,                     !- Surface Type
    Project Wall,             !- Construction Name
    Block Build2_Alt0 Storey 0,    !- Zone Name
    outdoors,                 !- Outside Boundary Condition
    ,                         !- Outside Boundary Condition Object
    SunExposed,               !- Sun Exposure
    WindExposed,              !- Wind Exposure
    autocalculate,            !- View Factor to Ground
    autocalculate,            !- Number of Vertices
    5.7756,                   !- Vertex 1 Xcoordinate
    -12.4321,                 !- Vertex 1 Ycoordinate
    21,                       !- Vertex 1 Zcoordinate
    5.7756,                   !- Vertex 2 Xcoordinate
    -12.4321,                 !- Vertex 2 Ycoordinate
    0,                        !- Vertex 2 Zcoordinate
    -2.9504,                  !- Vertex 3 Xcoordinate
    -19.8271,                 !- Vertex 3 Ycoordinate
    0,                        !- Vertex 3 Zcoordinate
    -2.9504,                  !- Vertex 4 Xcoordinate
    -19.8271,                 !- Vertex 4 Ycoordinate
    21;                       !- Vertex 4 Zcoordinate

BUILDINGSURFACE:DETAILED,
    Block Build2_Alt0 Storey 0 Wall 0004,    !- Name
    wall,                     !- Surface Type
    Project Wall,             !- Construction Name
    Block Build2_Alt0 Storey 0,    !- Zone Name
    outdoors,                 !- Outside Boundary Condition
    ,                         !- Outside Boundary Condition Object
    SunExposed,               !- Sun Exposure
    WindExposed,              !- Wind Exposure
    autocalculate,            !- View Factor to Ground
    autocalculate,            !- Number of Vertices
    -2.9504,                  !- Vertex 1 Xcoordinate
    -19.8271,                 !- Vertex 1 Ycoordinate
    21,                       !- Vertex 1 Zcoordinate
    -2.9504,                  !- Vertex 2 Xcoordinate
    -19.8271,                 !- Vertex 2 Ycoordinate
    0,                        !- Vertex 2 Zcoordinate
    3.6296,                   !- Vertex 3 Xcoordinate
    -27.5551,                 !- Vertex 3 Ycoordinate
    0,                        !- Vertex 3 Zcoordinate
    3.6296,                   !- Vertex 4 Xcoordinate
    -27.5551,                 !- Vertex 4 Ycoordinate
    21;                       !- Vertex 4 Zcoordinate

BUILDINGSURFACE:DETAILED,
    Block Build2_Alt0 Storey 0 Wall 0005,    !- Name
    wall,                     !- Surface Type
    Project Wall,             !- Construction Name
    Block Build2_Alt0 Storey 0,    !- Zone Name
    outdoors,                 !- Outside Boundary Condition
    ,                         !- Outside Boundary Condition Object
    SunExposed,               !- Sun Exposure
    WindExposed,              !- Wind Exposure
    autocalculate,            !- View Factor to Ground
    autocalculate,            !- Number of Vertices
    3.6296,                   !- Vertex 1 Xcoordinate
    -27.5551,                 !- Vertex 1 Ycoordinate
    21,                       !- Vertex 1 Zcoordinate
    3.6296,                   !- Vertex 2 Xcoordinate
    -27.5551,                 !- Vertex 2 Ycoordinate
    0,                        !- Vertex 2 Zcoordinate
    11.1276,                  !- Vertex 3 Xcoordinate
    -21.0951,                 !- Vertex 3 Ycoordinate
    0,                        !- Vertex 3 Zcoordinate
    11.1276,                  !- Vertex 4 Xcoordinate
    -21.0951,                 !- Vertex 4 Ycoordinate
    21;                       !- Vertex 4 Zcoordinate

BUILDINGSURFACE:DETAILED,
    Block Build2_Alt0 Storey 0 Wall 0006,    !- Name
    wall,                     !- Surface Type
    Project Wall,             !- Construction Name
    Block Build2_Alt0 Storey 0,    !- Zone Name
    outdoors,                 !- Outside Boundary Condition
    ,                         !- Outside Boundary Condition Object
    SunExposed,               !- Sun Exposure
    WindExposed,              !- Wind Exposure
    autocalculate,            !- View Factor to Ground
    autocalculate,            !- Number of Vertices
    11.1276,                  !- Vertex 1 Xcoordinate
    -21.0951,                 !- Vertex 1 Ycoordinate
    21,                       !- Vertex 1 Zcoordinate
    11.1276,                  !- Vertex 2 Xcoordinate
    -21.0951,                 !- Vertex 2 Ycoordinate
    0,                        !- Vertex 2 Zcoordinate
    14.8326,                  !- Vertex 3 Xcoordinate
    -25.4231,                 !- Vertex 3 Ycoordinate
    0,                        !- Vertex 3 Zcoordinate
    14.8326,                  !- Vertex 4 Xcoordinate
    -25.4231,                 !- Vertex 4 Ycoordinate
    21;                       !- Vertex 4 Zcoordinate

BUILDINGSURFACE:DETAILED,
    Block Build2_Alt0 Storey 0 Wall 0007,    !- Name
    wall,                     !- Surface Type
    Project Wall,             !- Construction Name
    Block Build2_Alt0 Storey 0,    !- Zone Name
    outdoors,                 !- Outside Boundary Condition
    ,                         !- Outside Boundary Condition Object
    SunExposed,               !- Sun Exposure
    WindExposed,              !- Wind Exposure
    autocalculate,            !- View Factor to Ground
    autocalculate,            !- Number of Vertices
    14.8326,                  !- Vertex 1 Xcoordinate
    -25.4231,                 !- Vertex 1 Ycoordinate
    21,                       !- Vertex 1 Zcoordinate
    14.8326,                  !- Vertex 2 Xcoordinate
    -25.4231,                 !- Vertex 2 Ycoordinate
    0,                        !- Vertex 2 Zcoordinate
    21.6246,                  !- Vertex 3 Xcoordinate
    -19.6101,                 !- Vertex 3 Ycoordinate
    0,                        !- Vertex 3 Zcoordinate
    21.6246,                  !- Vertex 4 Xcoordinate
    -19.6101,                 !- Vertex 4 Ycoordinate
    21;                       !- Vertex 4 Zcoordinate

BUILDINGSURFACE:DETAILED,
    Block Build2_Alt0 Storey 0 Wall 0008,    !- Name
    wall,                     !- Surface Type
    Project Wall,             !- Construction Name
    Block Build2_Alt0 Storey 0,    !- Zone Name
    outdoors,                 !- Outside Boundary Condition
    ,                         !- Outside Boundary Condition Object
    SunExposed,               !- Sun Exposure
    WindExposed,              !- Wind Exposure
    autocalculate,            !- View Factor to Ground
    autocalculate,            !- Number of Vertices
    21.6246,                  !- Vertex 1 Xcoordinate
    -19.6101,                 !- Vertex 1 Ycoordinate
    21,                       !- Vertex 1 Zcoordinate
    21.6246,                  !- Vertex 2 Xcoordinate
    -19.6101,                 !- Vertex 2 Ycoordinate
    0,                        !- Vertex 2 Zcoordinate
    15.8516,                  !- Vertex 3 Xcoordinate
    -12.8611,                 !- Vertex 3 Ycoordinate
    0,                        !- Vertex 3 Zcoordinate
    15.8516,                  !- Vertex 4 Xcoordinate
    -12.8611,                 !- Vertex 4 Ycoordinate
    21;                       !- Vertex 4 Zcoordinate

BUILDINGSURFACE:DETAILED,
    Block Build2_Alt0 Storey 0 Wall 0009,    !- Name
    wall,                     !- Surface Type
    Project Wall,             !- Construction Name
    Block Build2_Alt0 Storey 0,    !- Zone Name
    outdoors,                 !- Outside Boundary Condition
    ,                         !- Outside Boundary Condition Object
    SunExposed,               !- Sun Exposure
    WindExposed,              !- Wind Exposure
    autocalculate,            !- View Factor to Ground
    autocalculate,            !- Number of Vertices
    15.8516,                  !- Vertex 1 Xcoordinate
    -12.8611,                 !- Vertex 1 Ycoordinate
    21,                       !- Vertex 1 Zcoordinate
    15.8516,                  !- Vertex 2 Xcoordinate
    -12.8611,                 !- Vertex 2 Ycoordinate
    0,                        !- Vertex 2 Zcoordinate
    16.564,                   !- Vertex 3 Xcoordinate
    -3.3148,                  !- Vertex 3 Ycoordinate
    0,                        !- Vertex 3 Zcoordinate
    16.564,                   !- Vertex 4 Xcoordinate
    -3.3148,                  !- Vertex 4 Ycoordinate
    21;                       !- Vertex 4 Zcoordinate

BUILDINGSURFACE:DETAILED,
    Block Build2_Alt0 Storey 0 Floor 0001,    !- Name
    floor,                    !- Surface Type
    Project Heated1rstFloor,    !- Construction Name
    Block Build2_Alt0 Storey 0,    !- Zone Name
    ground,                   !- Outside Boundary Condition
    ,                         !- Outside Boundary Condition Object
    NoSun,                    !- Sun Exposure
    NoWind,                   !- Wind Exposure
    autocalculate,            !- View Factor to Ground
    autocalculate,            !- Number of Vertices
    16.564,                   !- Vertex 1 Xcoordinate
    -3.3148,                  !- Vertex 1 Ycoordinate
    0,                        !- Vertex 1 Zcoordinate
    15.8516,                  !- Vertex 2 Xcoordinate
    -12.8611,                 !- Vertex 2 Ycoordinate
    0,                        !- Vertex 2 Zcoordinate
    21.6246,                  !- Vertex 3 Xcoordinate
    -19.6101,                 !- Vertex 3 Ycoordinate
    0,                        !- Vertex 3 Zcoordinate
    14.8326,                  !- Vertex 4 Xcoordinate
    -25.4231,                 !- Vertex 4 Ycoordinate
    0,                        !- Vertex 4 Zcoordinate
    11.1276,                  !- Vertex 5 Xcoordinate
    -21.0951,                 !- Vertex 5 Ycoordinate
    0,                        !- Vertex 5 Zcoordinate
    3.6296,                   !- Vertex 6 Xcoordinate
    -27.5551,                 !- Vertex 6 Ycoordinate
    0,                        !- Vertex 6 Zcoordinate
    -2.9504,                  !- Vertex 7 Xcoordinate
    -19.8271,                 !- Vertex 7 Ycoordinate
    0,                        !- Vertex 7 Zcoordinate
    5.7756,                   !- Vertex 8 Xcoordinate
    -12.4321,                 !- Vertex 8 Ycoordinate
    0,                        !- Vertex 8 Zcoordinate
    6.4873,                   !- Vertex 9 Xcoordinate
    -2.7697,                  !- Vertex 9 Ycoordinate
    0;                        !- Vertex 9 Zcoordinate

BUILDINGSURFACE:DETAILED,
    Block Build0_Alt0 Storey 0 Wall 0001_1,    !- Name
    wall,                     !- Surface Type
    Project Wall,             !- Construction Name
    Block Build0_Alt0 Storey 0,    !- Zone Name
    outdoors,                 !- Outside Boundary Condition
    ,                         !- Outside Boundary Condition Object
    SunExposed,               !- Sun Exposure
    WindExposed,              !- Wind Exposure
    autocalculate,            !- View Factor to Ground
    autocalculate,            !- Number of Vertices
    2.2696999995969236,       !- Vertex 1 Xcoordinate
    11.451099999637384,       !- Vertex 1 Ycoordinate
    21,                       !- Vertex 1 Zcoordinate
    2.2696999995969236,       !- Vertex 2 Xcoordinate
    11.451099999637384,       !- Vertex 2 Ycoordinate
    12,                       !- Vertex 2 Zcoordinate
    9.667899999767542,        !- Vertex 3 Xcoordinate
    18.106699999790877,       !- Vertex 3 Ycoordinate
    12,                       !- Vertex 3 Zcoordinate
    9.667899999767542,        !- Vertex 4 Xcoordinate
    18.106699999790877,       !- Vertex 4 Ycoordinate
    21;                       !- Vertex 4 Zcoordinate

BUILDINGSURFACE:DETAILED,
    Block Build0_Alt0 Storey 0 Wall 0001_2,    !- Name
    wall,                     !- Surface Type
    Project Partition,        !- Construction Name
    Block Build0_Alt0 Storey 0,    !- Zone Name
    surface,                  !- Outside Boundary Condition
    Block Build1_Alt0 Storey 0 Wall 0006_1,    !- Outside Boundary Condition Object
    NoSun,                    !- Sun Exposure
    NoWind,                   !- Wind Exposure
    autocalculate,            !- View Factor to Ground
    autocalculate,            !- Number of Vertices
    2.2696999995969236,       !- Vertex 1 Xcoordinate
    11.451099999637384,       !- Vertex 1 Ycoordinate
    12,                       !- Vertex 1 Zcoordinate
    2.2696999995969236,       !- Vertex 2 Xcoordinate
    11.451099999637384,       !- Vertex 2 Ycoordinate
    0,                        !- Vertex 2 Zcoordinate
    9.667899999767542,        !- Vertex 3 Xcoordinate
    18.106699999790877,       !- Vertex 3 Ycoordinate
    0,                        !- Vertex 3 Zcoordinate
    9.667899999767542,        !- Vertex 4 Xcoordinate
    18.106699999790877,       !- Vertex 4 Ycoordinate
    12;                       !- Vertex 4 Zcoordinate

BUILDINGSURFACE:DETAILED,
    Block Build1_Alt0 Storey 0 Wall 0006_1,    !- Name
    wall,                     !- Surface Type
    Project Partition,        !- Construction Name
    Block Build1_Alt0 Storey 0,    !- Zone Name
    surface,                  !- Outside Boundary Condition
    Block Build0_Alt0 Storey 0 Wall 0001_2,    !- Outside Boundary Condition Object
    NoSun,                    !- Sun Exposure
    NoWind,                   !- Wind Exposure
    autocalculate,            !- View Factor to Ground
    autocalculate,            !- Number of Vertices
    9.667899999767542,        !- Vertex 1 Xcoordinate
    18.106699999790873,       !- Vertex 1 Ycoordinate
    12,                       !- Vertex 1 Zcoordinate
    9.667899999767542,        !- Vertex 2 Xcoordinate
    18.106699999790873,       !- Vertex 2 Ycoordinate
    0,                        !- Vertex 2 Zcoordinate
    2.2696999995969236,       !- Vertex 3 Xcoordinate
    11.451099999637378,       !- Vertex 3 Ycoordinate
    0,                        !- Vertex 3 Zcoordinate
    2.2696999995969236,       !- Vertex 4 Xcoordinate
    11.451099999637378,       !- Vertex 4 Ycoordinate
    12;                       !- Vertex 4 Zcoordinate

BUILDINGSURFACE:DETAILED,
    Block Build1_Alt0 Storey 0 Wall 0009_1,    !- Name
    wall,                     !- Surface Type
    Project Partition,        !- Construction Name
    Block Build1_Alt0 Storey 0,    !- Zone Name
    surface,                  !- Outside Boundary Condition
    Block Build2_Alt0 Storey 0 Wall 0001_1,    !- Outside Boundary Condition Object
    NoSun,                    !- Sun Exposure
    NoWind,                   !- Wind Exposure
    autocalculate,            !- View Factor to Ground
    autocalculate,            !- Number of Vertices
    6.487299999687821,        !- Vertex 1 Xcoordinate
    -2.769699999983113,       !- Vertex 1 Ycoordinate
    12,                       !- Vertex 1 Zcoordinate
    6.487299999687821,        !- Vertex 2 Xcoordinate
    -2.769699999983113,       !- Vertex 2 Ycoordinate
    0,                        !- Vertex 2 Zcoordinate
    16.563999999780208,       !- Vertex 3 Xcoordinate
    -3.314799999988111,       !- Vertex 3 Ycoordinate
    0,                        !- Vertex 3 Zcoordinate
    16.563999999780208,       !- Vertex 4 Xcoordinate
    -3.314799999988111,       !- Vertex 4 Ycoordinate
    12;                       !- Vertex 4 Zcoordinate

BUILDINGSURFACE:DETAILED,
    Block Build2_Alt0 Storey 0 Wall 0001_1,    !- Name
    wall,                     !- Surface Type
    Project Partition,        !- Construction Name
    Block Build2_Alt0 Storey 0,    !- Zone Name
    surface,                  !- Outside Boundary Condition
    Block Build1_Alt0 Storey 0 Wall 0009_1,    !- Outside Boundary Condition Object
    NoSun,                    !- Sun Exposure
    NoWind,                   !- Wind Exposure
    autocalculate,            !- View Factor to Ground
    autocalculate,            !- Number of Vertices
    16.563999999780208,       !- Vertex 1 Xcoordinate
    -3.314800e+00,            !- Vertex 1 Ycoordinate
    12,                       !- Vertex 1 Zcoordinate
    16.563999999780208,       !- Vertex 2 Xcoordinate
    -3.314800e+00,            !- Vertex 2 Ycoordinate
    0,                        !- Vertex 2 Zcoordinate
    6.487299999687821,        !- Vertex 3 Xcoordinate
    -2.769700e+00,            !- Vertex 3 Ycoordinate
    0,                        !- Vertex 3 Zcoordinate
    6.487299999687821,        !- Vertex 4 Xcoordinate
    -2.769700e+00,            !- Vertex 4 Ycoordinate
    12;                       !- Vertex 4 Zcoordinate

BUILDINGSURFACE:DETAILED,
    Block Build2_Alt0 Storey 0 Wall 0001_2,    !- Name
    wall,                     !- Surface Type
    Project Wall,             !- Construction Name
    Block Build2_Alt0 Storey 0,    !- Zone Name
    outdoors,                 !- Outside Boundary Condition
    ,                         !- Outside Boundary Condition Object
    SunExposed,               !- Sun Exposure
    WindExposed,              !- Wind Exposure
    autocalculate,            !- View Factor to Ground
    autocalculate,            !- Number of Vertices
    16.563999999780208,       !- Vertex 1 Xcoordinate
    -3.314800e+00,            !- Vertex 1 Ycoordinate
    21,                       !- Vertex 1 Zcoordinate
    16.563999999780208,       !- Vertex 2 Xcoordinate
    -3.314800e+00,            !- Vertex 2 Ycoordinate
    12,                       !- Vertex 2 Zcoordinate
    6.487299999687821,        !- Vertex 3 Xcoordinate
    -2.769700e+00,            !- Vertex 3 Ycoordinate
    12,                       !- Vertex 3 Zcoordinate
    6.487299999687821,        !- Vertex 4 Xcoordinate
    -2.769700e+00,            !- Vertex 4 Ycoordinate
    21;                       !- Vertex 4 Zcoordinate

BUILDINGSURFACE:DETAILED,
    Block Build0_Alt0 Storey 0 Roof 0001_0,    !- Name
    roof,                     !- Surface Type
    Project Flat Roof,        !- Construction Name
    Block Build0_Alt0 Storey 0,    !- Zone Name
    outdoors,                 !- Outside Boundary Condition
    ,                         !- Outside Boundary Condition Object
    SunExposed,               !- Sun Exposure
    WindExposed,              !- Wind Exposure
    autocalculate,            !- View Factor to Ground
    autocalculate,            !- Number of Vertices
    9.1586,                   !- Vertex 1 Xcoordinate
    30.9289,                  !- Vertex 1 Ycoordinate
    21,                       !- Vertex 1 Zcoordinate
    2.5906,                   !- Vertex 2 Xcoordinate
    38.6019,                  !- Vertex 2 Ycoordinate
    21,                       !- Vertex 2 Zcoordinate
    -3.4624,                  !- Vertex 3 Xcoordinate
    33.3939,                  !- Vertex 3 Ycoordinate
    21,                       !- Vertex 3 Zcoordinate
    3.1256,                   !- Vertex 4 Xcoordinate
    25.6899,                  !- Vertex 4 Ycoordinate
    21;                       !- Vertex 4 Zcoordinate

BUILDINGSURFACE:DETAILED,
    Block Build0_Alt0 Storey 0 Roof 0001_1,    !- Name
    roof,                     !- Surface Type
    Project Flat Roof,        !- Construction Name
    Block Build0_Alt0 Storey 0,    !- Zone Name
    outdoors,                 !- Outside Boundary Condition
    ,                         !- Outside Boundary Condition Object
    SunExposed,               !- Sun Exposure
    WindExposed,              !- Wind Exposure
    autocalculate,            !- View Factor to Ground
    autocalculate,            !- Number of Vertices
    9.6679,                   !- Vertex 1 Xcoordinate
    18.1067,                  !- Vertex 1 Ycoordinate
    21,                       !- Vertex 1 Zcoordinate
    3.1256,                   !- Vertex 2 Xcoordinate
    25.6899,                  !- Vertex 2 Ycoordinate
    21,                       !- Vertex 2 Zcoordinate
    -3.7054,                  !- Vertex 3 Xcoordinate
    18.1669,                  !- Vertex 3 Ycoordinate
    21,                       !- Vertex 3 Zcoordinate
    2.2697,                   !- Vertex 4 Xcoordinate
    11.4511,                  !- Vertex 4 Ycoordinate
    21;                       !- Vertex 4 Zcoordinate

BUILDINGSURFACE:DETAILED,
    Block Build0_Alt0 Storey 0 Roof 0001_2,    !- Name
    roof,                     !- Surface Type
    Project Flat Roof,        !- Construction Name
    Block Build0_Alt0 Storey 0,    !- Zone Name
    outdoors,                 !- Outside Boundary Condition
    ,                         !- Outside Boundary Condition Object
    SunExposed,               !- Sun Exposure
    WindExposed,              !- Wind Exposure
    autocalculate,            !- View Factor to Ground
    autocalculate,            !- Number of Vertices
    -3.7054,                  !- Vertex 1 Xcoordinate
    18.1669,                  !- Vertex 1 Ycoordinate
    21,                       !- Vertex 1 Zcoordinate
    -11.9904,                 !- Vertex 2 Xcoordinate
    27.7689,                  !- Vertex 2 Ycoordinate
    21,                       !- Vertex 2 Zcoordinate
    -19.1334,                 !- Vertex 3 Xcoordinate
    21.6029,                  !- Vertex 3 Ycoordinate
    21,                       !- Vertex 3 Zcoordinate
    -10.8254,                 !- Vertex 4 Xcoordinate
    11.9949,                  !- Vertex 4 Ycoordinate
    21;                       !- Vertex 4 Zcoordinate

BUILDINGSURFACE:DETAILED,
    Block Build0_Alt0 Storey 0 Roof 0001_3,    !- Name
    roof,                     !- Surface Type
    Project Flat Roof,        !- Construction Name
    Block Build0_Alt0 Storey 0,    !- Zone Name
    outdoors,                 !- Outside Boundary Condition
    ,                         !- Outside Boundary Condition Object
    SunExposed,               !- Sun Exposure
    WindExposed,              !- Wind Exposure
    autocalculate,            !- View Factor to Ground
    autocalculate,            !- Number of Vertices
    -3.7054,                  !- Vertex 1 Xcoordinate
    18.1669,                  !- Vertex 1 Ycoordinate
    21,                       !- Vertex 1 Zcoordinate
    3.1256,                   !- Vertex 2 Xcoordinate
    25.6899,                  !- Vertex 2 Ycoordinate
    21,                       !- Vertex 2 Zcoordinate
    -3.4624,                  !- Vertex 3 Xcoordinate
    33.3939,                  !- Vertex 3 Ycoordinate
    21,                       !- Vertex 3 Zcoordinate
    -9.2874,                  !- Vertex 4 Xcoordinate
    40.1619,                  !- Vertex 4 Ycoordinate
    21,                       !- Vertex 4 Zcoordinate
    -16.9424,                 !- Vertex 5 Xcoordinate
    33.5739,                  !- Vertex 5 Ycoordinate
    21,                       !- Vertex 5 Zcoordinate
    -11.9904,                 !- Vertex 6 Xcoordinate
    27.7689,                  !- Vertex 6 Ycoordinate
    21;                       !- Vertex 6 Zcoordinate

BUILDINGSURFACE:DETAILED,
    Block Build1_Alt0 Storey 0 Roof 0001_0,    !- Name
    roof,                     !- Surface Type
    Project Flat Roof,        !- Construction Name
    Block Build1_Alt0 Storey 0,    !- Zone Name
    outdoors,                 !- Outside Boundary Condition
    ,                         !- Outside Boundary Condition Object
    SunExposed,               !- Sun Exposure
    WindExposed,              !- Wind Exposure
    autocalculate,            !- View Factor to Ground
    autocalculate,            !- Number of Vertices
    7.1326,                   !- Vertex 1 Xcoordinate
    5.9859,                   !- Vertex 1 Ycoordinate
    12,                       !- Vertex 1 Zcoordinate
    13.7406,                  !- Vertex 2 Xcoordinate
    13.3859,                  !- Vertex 2 Ycoordinate
    12,                       !- Vertex 2 Zcoordinate
    9.6679,                   !- Vertex 3 Xcoordinate
    18.1067,                  !- Vertex 3 Ycoordinate
    12,                       !- Vertex 3 Zcoordinate
    2.2697,                   !- Vertex 4 Xcoordinate
    11.4511,                  !- Vertex 4 Ycoordinate
    12;                       !- Vertex 4 Zcoordinate

BUILDINGSURFACE:DETAILED,
    Block Build1_Alt0 Storey 0 Roof 0001_1,    !- Name
    roof,                     !- Surface Type
    Project Flat Roof,        !- Construction Name
    Block Build1_Alt0 Storey 0,    !- Zone Name
    outdoors,                 !- Outside Boundary Condition
    ,                         !- Outside Boundary Condition Object
    SunExposed,               !- Sun Exposure
    WindExposed,              !- Wind Exposure
    autocalculate,            !- View Factor to Ground
    autocalculate,            !- Number of Vertices
    17.3456,                  !- Vertex 1 Xcoordinate
    7.1589,                   !- Vertex 1 Ycoordinate
    12,                       !- Vertex 1 Zcoordinate
    21.3336,                  !- Vertex 2 Xcoordinate
    10.5509,                  !- Vertex 2 Ycoordinate
    12,                       !- Vertex 2 Zcoordinate
    16.6806,                  !- Vertex 3 Xcoordinate
    15.9889,                  !- Vertex 3 Ycoordinate
    12,                       !- Vertex 3 Zcoordinate
    13.7406,                  !- Vertex 4 Xcoordinate
    13.3859,                  !- Vertex 4 Ycoordinate
    12,                       !- Vertex 4 Zcoordinate
    7.1326,                   !- Vertex 5 Xcoordinate
    5.9859,                   !- Vertex 5 Ycoordinate
    12;                       !- Vertex 5 Zcoordinate

BUILDINGSURFACE:DETAILED,
    Block Build1_Alt0 Storey 0 Roof 0001_2,    !- Name
    roof,                     !- Surface Type
    Project Flat Roof,        !- Construction Name
    Block Build1_Alt0 Storey 0,    !- Zone Name
    outdoors,                 !- Outside Boundary Condition
    ,                         !- Outside Boundary Condition Object
    SunExposed,               !- Sun Exposure
    WindExposed,              !- Wind Exposure
    autocalculate,            !- View Factor to Ground
    autocalculate,            !- Number of Vertices
    16.564,                   !- Vertex 1 Xcoordinate
    -3.3148,                  !- Vertex 1 Ycoordinate
    12,                       !- Vertex 1 Zcoordinate
    17.3456,                  !- Vertex 2 Xcoordinate
    7.1589,                   !- Vertex 2 Ycoordinate
    12,                       !- Vertex 2 Zcoordinate
    7.1326,                   !- Vertex 3 Xcoordinate
    5.9859,                   !- Vertex 3 Ycoordinate
    12,                       !- Vertex 3 Zcoordinate
    6.4873,                   !- Vertex 4 Xcoordinate
    -2.7697,                  !- Vertex 4 Ycoordinate
    12;                       !- Vertex 4 Zcoordinate

BUILDINGSURFACE:DETAILED,
    Block Build2_Alt0 Storey 0 Roof 0001_0,    !- Name
    roof,                     !- Surface Type
    Project Flat Roof,        !- Construction Name
    Block Build2_Alt0 Storey 0,    !- Zone Name
    outdoors,                 !- Outside Boundary Condition
    ,                         !- Outside Boundary Condition Object
    SunExposed,               !- Sun Exposure
    WindExposed,              !- Wind Exposure
    autocalculate,            !- View Factor to Ground
    autocalculate,            !- Number of Vertices
    21.6246,                  !- Vertex 1 Xcoordinate
    -19.6101,                 !- Vertex 1 Ycoordinate
    21,                       !- Vertex 1 Zcoordinate
    15.8516,                  !- Vertex 2 Xcoordinate
    -12.8611,                 !- Vertex 2 Ycoordinate
    21,                       !- Vertex 2 Zcoordinate
    11.1276,                  !- Vertex 3 Xcoordinate
    -21.0951,                 !- Vertex 3 Ycoordinate
    21,                       !- Vertex 3 Zcoordinate
    14.8326,                  !- Vertex 4 Xcoordinate
    -25.4231,                 !- Vertex 4 Ycoordinate
    21;                       !- Vertex 4 Zcoordinate

BUILDINGSURFACE:DETAILED,
    Block Build2_Alt0 Storey 0 Roof 0001_1,    !- Name
    roof,                     !- Surface Type
    Project Flat Roof,        !- Construction Name
    Block Build2_Alt0 Storey 0,    !- Zone Name
    outdoors,                 !- Outside Boundary Condition
    ,                         !- Outside Boundary Condition Object
    SunExposed,               !- Sun Exposure
    WindExposed,              !- Wind Exposure
    autocalculate,            !- View Factor to Ground
    autocalculate,            !- Number of Vertices
    11.1276,                  !- Vertex 1 Xcoordinate
    -21.0951,                 !- Vertex 1 Ycoordinate
    21,                       !- Vertex 1 Zcoordinate
    15.8516,                  !- Vertex 2 Xcoordinate
    -12.8611,                 !- Vertex 2 Ycoordinate
    21,                       !- Vertex 2 Zcoordinate
    16.564,                   !- Vertex 3 Xcoordinate
    -3.3148,                  !- Vertex 3 Ycoordinate
    21,                       !- Vertex 3 Zcoordinate
    6.4873,                   !- Vertex 4 Xcoordinate
    -2.7697,                  !- Vertex 4 Ycoordinate
    21,                       !- Vertex 4 Zcoordinate
    5.7756,                   !- Vertex 5 Xcoordinate
    -12.4321,                 !- Vertex 5 Ycoordinate
    21;                       !- Vertex 5 Zcoordinate

BUILDINGSURFACE:DETAILED,
    Block Build2_Alt0 Storey 0 Roof 0001_2,    !- Name
    roof,                     !- Surface Type
    Project Flat Roof,        !- Construction Name
    Block Build2_Alt0 Storey 0,    !- Zone Name
    outdoors,                 !- Outside Boundary Condition
    ,                         !- Outside Boundary Condition Object
    SunExposed,               !- Sun Exposure
    WindExposed,              !- Wind Exposure
    autocalculate,            !- View Factor to Ground
    autocalculate,            !- Number of Vertices
    11.1276,                  !- Vertex 1 Xcoordinate
    -21.0951,                 !- Vertex 1 Ycoordinate
    21,                       !- Vertex 1 Zcoordinate
    5.7756,                   !- Vertex 2 Xcoordinate
    -12.4321,                 !- Vertex 2 Ycoordinate
    21,                       !- Vertex 2 Zcoordinate
    -2.9504,                  !- Vertex 3 Xcoordinate
    -19.8271,                 !- Vertex 3 Ycoordinate
    21,                       !- Vertex 3 Zcoordinate
    3.6296,                   !- Vertex 4 Xcoordinate
    -27.5551,                 !- Vertex 4 Ycoordinate
    21;                       !- Vertex 4 Zcoordinate

FENESTRATIONSURFACE:DETAILED,
    Block Build0_Alt0 Storey 0 Wall 0002 window,    !- Name
    Window,                   !- Surface Type
    Project External Window,    !- Construction Name
    Block Build0_Alt0 Storey 0 Wall 0002,    !- Building Surface Name
    ,                         !- Outside Boundary Condition Object
    autocalculate,            !- View Factor to Ground
    ,                         !- Frame and Divider Name
    1.0,                      !- Multiplier
    autocalculate,            !- Number of Vertices
    9.66462885,               !- Vertex 1 Xcoordinate
    18.1104916,               !- Vertex 1 Ycoordinate
    13.65,                    !- Vertex 1 Zcoordinate
    9.66462885,               !- Vertex 2 Xcoordinate
    18.1104916,               !- Vertex 2 Ycoordinate
    7.35,                     !- Vertex 2 Zcoordinate
    3.12887115,               !- Vertex 3 Xcoordinate
    25.686108400000002,       !- Vertex 3 Ycoordinate
    7.35,                     !- Vertex 3 Zcoordinate
    3.12887115,               !- Vertex 4 Xcoordinate
    25.686108400000002,       !- Vertex 4 Ycoordinate
    13.65;                    !- Vertex 4 Zcoordinate

FENESTRATIONSURFACE:DETAILED,
    Block Build0_Alt0 Storey 0 Wall 0003 window,    !- Name
    Window,                   !- Surface Type
    Project External Window,    !- Construction Name
    Block Build0_Alt0 Storey 0 Wall 0003,    !- Building Surface Name
    ,                         !- Outside Boundary Condition Object
    autocalculate,            !- View Factor to Ground
    ,                         !- Frame and Divider Name
    1.0,                      !- Multiplier
    autocalculate,            !- Number of Vertices
    3.1286165,                !- Vertex 1 Xcoordinate
    25.692519500000003,       !- Vertex 1 Ycoordinate
    13.65,                    !- Vertex 1 Zcoordinate
    3.1286165,                !- Vertex 2 Xcoordinate
    25.692519500000003,       !- Vertex 2 Ycoordinate
    7.35,                     !- Vertex 2 Zcoordinate
    9.155583499999999,        !- Vertex 3 Xcoordinate
    30.926280499999997,       !- Vertex 3 Ycoordinate
    7.35,                     !- Vertex 3 Zcoordinate
    9.155583499999999,        !- Vertex 4 Xcoordinate
    30.926280499999997,       !- Vertex 4 Ycoordinate
    13.65;                    !- Vertex 4 Zcoordinate

FENESTRATIONSURFACE:DETAILED,
    Block Build0_Alt0 Storey 0 Wall 0004 window,    !- Name
    Window,                   !- Surface Type
    Project External Window,    !- Construction Name
    Block Build0_Alt0 Storey 0 Wall 0004,    !- Building Surface Name
    ,                         !- Outside Boundary Condition Object
    autocalculate,            !- View Factor to Ground
    ,                         !- Frame and Divider Name
    1.0,                      !- Multiplier
    autocalculate,            !- Number of Vertices
    9.155316,                 !- Vertex 1 Xcoordinate
    30.932736499999997,       !- Vertex 1 Ycoordinate
    13.65,                    !- Vertex 1 Zcoordinate
    9.155316,                 !- Vertex 2 Xcoordinate
    30.932736499999997,       !- Vertex 2 Ycoordinate
    7.35,                     !- Vertex 2 Zcoordinate
    2.5938839999999996,       !- Vertex 3 Xcoordinate
    38.5980635,               !- Vertex 3 Ycoordinate
    7.35,                     !- Vertex 3 Zcoordinate
    2.5938839999999996,       !- Vertex 4 Xcoordinate
    38.5980635,               !- Vertex 4 Ycoordinate
    13.65;                    !- Vertex 4 Zcoordinate

FENESTRATIONSURFACE:DETAILED,
    Block Build0_Alt0 Storey 0 Wall 0005 window,    !- Name
    Window,                   !- Surface Type
    Project External Window,    !- Construction Name
    Block Build0_Alt0 Storey 0 Wall 0005,    !- Building Surface Name
    ,                         !- Outside Boundary Condition Object
    autocalculate,            !- View Factor to Ground
    ,                         !- Frame and Divider Name
    1.0,                      !- Multiplier
    autocalculate,            !- Number of Vertices
    2.5875735,                !- Vertex 1 Xcoordinate
    38.599296,                !- Vertex 1 Ycoordinate
    13.65,                    !- Vertex 1 Zcoordinate
    2.5875735,                !- Vertex 2 Xcoordinate
    38.599296,                !- Vertex 2 Ycoordinate
    7.35,                     !- Vertex 2 Zcoordinate
    -3.459374e+00,            !- Vertex 3 Xcoordinate
    33.396504,                !- Vertex 3 Ycoordinate
    7.35,                     !- Vertex 3 Zcoordinate
    -3.459374e+00,            !- Vertex 4 Xcoordinate
    33.396504,                !- Vertex 4 Ycoordinate
    13.65;                    !- Vertex 4 Zcoordinate

FENESTRATIONSURFACE:DETAILED,
    Block Build0_Alt0 Storey 0 Wall 0006 window,    !- Name
    Window,                   !- Surface Type
    Project External Window,    !- Construction Name
    Block Build0_Alt0 Storey 0 Wall 0006,    !- Building Surface Name
    ,                         !- Outside Boundary Condition Object
    autocalculate,            !- View Factor to Ground
    ,                         !- Frame and Divider Name
    1.0,                      !- Multiplier
    autocalculate,            !- Number of Vertices
    -3.4653125,               !- Vertex 1 Xcoordinate
    33.397284,                !- Vertex 1 Ycoordinate
    13.65,                    !- Vertex 1 Zcoordinate
    -3.4653125,               !- Vertex 2 Xcoordinate
    33.397284,                !- Vertex 2 Ycoordinate
    7.35,                     !- Vertex 2 Zcoordinate
    -9.284487500000001,       !- Vertex 3 Xcoordinate
    40.158516000000006,       !- Vertex 3 Ycoordinate
    7.35,                     !- Vertex 3 Zcoordinate
    -9.284487500000001,       !- Vertex 4 Xcoordinate
    40.158516000000006,       !- Vertex 4 Ycoordinate
    13.65;                    !- Vertex 4 Zcoordinate

FENESTRATIONSURFACE:DETAILED,
    Block Build0_Alt0 Storey 0 Wall 0007 window,    !- Name
    Window,                   !- Surface Type
    Project External Window,    !- Construction Name
    Block Build0_Alt0 Storey 0 Wall 0007,    !- Building Surface Name
    ,                         !- Outside Boundary Condition Object
    autocalculate,            !- View Factor to Ground
    ,                         !- Frame and Divider Name
    1.0,                      !- Multiplier
    autocalculate,            !- Number of Vertices
    -9.2912275,               !- Vertex 1 Xcoordinate
    40.158606000000006,       !- Vertex 1 Ycoordinate
    13.65,                    !- Vertex 1 Zcoordinate
    -9.2912275,               !- Vertex 2 Xcoordinate
    40.158606000000006,       !- Vertex 2 Ycoordinate
    7.35,                     !- Vertex 2 Zcoordinate
    -16.9385725,              !- Vertex 3 Xcoordinate
    33.577194,                !- Vertex 3 Ycoordinate
    7.35,                     !- Vertex 3 Zcoordinate
    -16.9385725,              !- Vertex 4 Xcoordinate
    33.577194,                !- Vertex 4 Ycoordinate
    13.65;                    !- Vertex 4 Zcoordinate

FENESTRATIONSURFACE:DETAILED,
    Block Build0_Alt0 Storey 0 Wall 0008 window,    !- Name
    Window,                   !- Surface Type
    Project External Window,    !- Construction Name
    Block Build0_Alt0 Storey 0 Wall 0008,    !- Building Surface Name
    ,                         !- Outside Boundary Condition Object
    autocalculate,            !- View Factor to Ground
    ,                         !- Frame and Divider Name
    1.0,                      !- Multiplier
    autocalculate,            !- Number of Vertices
    -1.693992e+01,            !- Vertex 1 Xcoordinate
    33.570997500000004,       !- Vertex 1 Ycoordinate
    13.65,                    !- Vertex 1 Zcoordinate
    -1.693992e+01,            !- Vertex 2 Xcoordinate
    33.570997500000004,       !- Vertex 2 Ycoordinate
    7.35,                     !- Vertex 2 Zcoordinate
    -1.199288e+01,            !- Vertex 3 Xcoordinate
    27.7718025,               !- Vertex 3 Ycoordinate
    7.35,                     !- Vertex 3 Zcoordinate
    -1.199288e+01,            !- Vertex 4 Xcoordinate
    27.7718025,               !- Vertex 4 Ycoordinate
    13.65;                    !- Vertex 4 Zcoordinate

FENESTRATIONSURFACE:DETAILED,
    Block Build0_Alt0 Storey 0 Wall 0009 window,    !- Name
    Window,                   !- Surface Type
    Project External Window,    !- Construction Name
    Block Build0_Alt0 Storey 0 Wall 0009,    !- Building Surface Name
    ,                         !- Outside Boundary Condition Object
    autocalculate,            !- View Factor to Ground
    ,                         !- Frame and Divider Name
    1.0,                      !- Multiplier
    autocalculate,            !- Number of Vertices
    -1.199397e+01,            !- Vertex 1 Xcoordinate
    27.765817,                !- Vertex 1 Ycoordinate
    13.65,                    !- Vertex 1 Zcoordinate
    -1.199397e+01,            !- Vertex 2 Xcoordinate
    27.765817,                !- Vertex 2 Ycoordinate
    7.35,                     !- Vertex 2 Zcoordinate
    -1.912983e+01,            !- Vertex 3 Xcoordinate
    21.605983000000002,       !- Vertex 3 Ycoordinate
    7.35,                     !- Vertex 3 Zcoordinate
    -1.912983e+01,            !- Vertex 4 Xcoordinate
    21.605983000000002,       !- Vertex 4 Ycoordinate
    13.65;                    !- Vertex 4 Zcoordinate

FENESTRATIONSURFACE:DETAILED,
    Block Build0_Alt0 Storey 0 Wall 0010 window,    !- Name
    Window,                   !- Surface Type
    Project External Window,    !- Construction Name
    Block Build0_Alt0 Storey 0 Wall 0010,    !- Building Surface Name
    ,                         !- Outside Boundary Condition Object
    autocalculate,            !- View Factor to Ground
    ,                         !- Frame and Divider Name
    1.0,                      !- Multiplier
    autocalculate,            !- Number of Vertices
    -1.912925e+01,            !- Vertex 1 Xcoordinate
    21.598096,                !- Vertex 1 Ycoordinate
    13.65,                    !- Vertex 1 Zcoordinate
    -1.912925e+01,            !- Vertex 2 Xcoordinate
    21.598096,                !- Vertex 2 Ycoordinate
    7.35,                     !- Vertex 2 Zcoordinate
    -10.829554,               !- Vertex 3 Xcoordinate
    11.999704,                !- Vertex 3 Ycoordinate
    7.35,                     !- Vertex 3 Zcoordinate
    -10.829554,               !- Vertex 4 Xcoordinate
    11.999704,                !- Vertex 4 Ycoordinate
    13.65;                    !- Vertex 4 Zcoordinate

FENESTRATIONSURFACE:DETAILED,
    Block Build0_Alt0 Storey 0 Wall 0011 window,    !- Name
    Window,                   !- Surface Type
    Project External Window,    !- Construction Name
    Block Build0_Alt0 Storey 0 Wall 0011,    !- Building Surface Name
    ,                         !- Outside Boundary Condition Object
    autocalculate,            !- View Factor to Ground
    ,                         !- Frame and Divider Name
    1.0,                      !- Multiplier
    autocalculate,            !- Number of Vertices
    -10.82184,                !- Vertex 1 Xcoordinate
    11.997986,                !- Vertex 1 Ycoordinate
    13.65,                    !- Vertex 1 Zcoordinate
    -10.82184,                !- Vertex 2 Xcoordinate
    11.997986,                !- Vertex 2 Ycoordinate
    7.35,                     !- Vertex 2 Zcoordinate
    -3.70896,                 !- Vertex 3 Xcoordinate
    18.163814,                !- Vertex 3 Ycoordinate
    7.35,                     !- Vertex 3 Zcoordinate
    -3.70896,                 !- Vertex 4 Xcoordinate
    18.163814,                !- Vertex 4 Ycoordinate
    13.65;                    !- Vertex 4 Zcoordinate

FENESTRATIONSURFACE:DETAILED,
    Block Build0_Alt0 Storey 0 Wall 0012 window,    !- Name
    Window,                   !- Surface Type
    Project External Window,    !- Construction Name
    Block Build0_Alt0 Storey 0 Wall 0012,    !- Building Surface Name
    ,                         !- Outside Boundary Condition Object
    autocalculate,            !- View Factor to Ground
    ,                         !- Frame and Divider Name
    1.0,                      !- Multiplier
    autocalculate,            !- Number of Vertices
    -3.70241245,              !- Vertex 1 Xcoordinate
    18.163542099999997,       !- Vertex 1 Ycoordinate
    13.65,                    !- Vertex 1 Zcoordinate
    -3.70241245,              !- Vertex 2 Xcoordinate
    18.163542099999997,       !- Vertex 2 Ycoordinate
    7.35,                     !- Vertex 2 Zcoordinate
    2.26671245,               !- Vertex 3 Xcoordinate
    11.454457900000001,       !- Vertex 3 Ycoordinate
    7.35,                     !- Vertex 3 Zcoordinate
    2.26671245,               !- Vertex 4 Xcoordinate
    11.454457900000001,       !- Vertex 4 Ycoordinate
    13.65;                    !- Vertex 4 Zcoordinate

FENESTRATIONSURFACE:DETAILED,
    Block Build1_Alt0 Storey 0 Wall 0001 window,    !- Name
    Window,                   !- Surface Type
    Project External Window,    !- Construction Name
    Block Build1_Alt0 Storey 0 Wall 0001,    !- Building Surface Name
    ,                         !- Outside Boundary Condition Object
    autocalculate,            !- View Factor to Ground
    ,                         !- Frame and Divider Name
    1.0,                      !- Multiplier
    autocalculate,            !- Number of Vertices
    16.5643908,               !- Vertex 1 Xcoordinate
    -3.309563e+00,            !- Vertex 1 Ycoordinate
    7.8,                      !- Vertex 1 Zcoordinate
    16.5643908,               !- Vertex 2 Xcoordinate
    -3.309563e+00,            !- Vertex 2 Ycoordinate
    4.2,                      !- Vertex 2 Zcoordinate
    17.3452092,               !- Vertex 3 Xcoordinate
    7.15366315,               !- Vertex 3 Ycoordinate
    4.2,                      !- Vertex 3 Zcoordinate
    17.3452092,               !- Vertex 4 Xcoordinate
    7.15366315,               !- Vertex 4 Ycoordinate
    7.8;                      !- Vertex 4 Zcoordinate

FENESTRATIONSURFACE:DETAILED,
    Block Build1_Alt0 Storey 0 Wall 0002 window,    !- Name
    Window,                   !- Surface Type
    Project External Window,    !- Construction Name
    Block Build1_Alt0 Storey 0 Wall 0002,    !- Building Surface Name
    ,                         !- Outside Boundary Condition Object
    autocalculate,            !- View Factor to Ground
    ,                         !- Frame and Divider Name
    1.0,                      !- Multiplier
    autocalculate,            !- Number of Vertices
    17.347594,                !- Vertex 1 Xcoordinate
    7.160596,                 !- Vertex 1 Ycoordinate
    7.8,                      !- Vertex 1 Zcoordinate
    17.347594,                !- Vertex 2 Xcoordinate
    7.160596,                 !- Vertex 2 Ycoordinate
    4.2,                      !- Vertex 2 Zcoordinate
    21.331606,                !- Vertex 3 Xcoordinate
    10.549204,                !- Vertex 3 Ycoordinate
    4.2,                      !- Vertex 3 Zcoordinate
    21.331606,                !- Vertex 4 Xcoordinate
    10.549204,                !- Vertex 4 Ycoordinate
    7.8;                      !- Vertex 4 Zcoordinate

FENESTRATIONSURFACE:DETAILED,
    Block Build1_Alt0 Storey 0 Wall 0003 window,    !- Name
    Window,                   !- Surface Type
    Project External Window,    !- Construction Name
    Block Build1_Alt0 Storey 0 Wall 0003,    !- Building Surface Name
    ,                         !- Outside Boundary Condition Object
    autocalculate,            !- View Factor to Ground
    ,                         !- Frame and Divider Name
    1.0,                      !- Multiplier
    autocalculate,            !- Number of Vertices
    21.3312735,               !- Vertex 1 Xcoordinate
    10.553619000000001,       !- Vertex 1 Ycoordinate
    7.8,                      !- Vertex 1 Zcoordinate
    21.3312735,               !- Vertex 2 Xcoordinate
    10.553619000000001,       !- Vertex 2 Ycoordinate
    4.2,                      !- Vertex 2 Zcoordinate
    16.682926499999997,       !- Vertex 3 Xcoordinate
    15.986180999999998,       !- Vertex 3 Ycoordinate
    4.2,                      !- Vertex 3 Zcoordinate
    16.682926499999997,       !- Vertex 4 Xcoordinate
    15.986180999999998,       !- Vertex 4 Ycoordinate
    7.8;                      !- Vertex 4 Zcoordinate

FENESTRATIONSURFACE:DETAILED,
    Block Build1_Alt0 Storey 0 Wall 0004 window,    !- Name
    Window,                   !- Surface Type
    Project External Window,    !- Construction Name
    Block Build1_Alt0 Storey 0 Wall 0004,    !- Building Surface Name
    ,                         !- Outside Boundary Condition Object
    autocalculate,            !- View Factor to Ground
    ,                         !- Frame and Divider Name
    1.0,                      !- Multiplier
    autocalculate,            !- Number of Vertices
    16.679129999999997,       !- Vertex 1 Xcoordinate
    15.987598499999999,       !- Vertex 1 Ycoordinate
    7.8,                      !- Vertex 1 Zcoordinate
    16.679129999999997,       !- Vertex 2 Xcoordinate
    15.987598499999999,       !- Vertex 2 Ycoordinate
    4.2,                      !- Vertex 2 Zcoordinate
    13.74207,                 !- Vertex 3 Xcoordinate
    13.3872015,               !- Vertex 3 Ycoordinate
    4.2,                      !- Vertex 3 Zcoordinate
    13.74207,                 !- Vertex 4 Xcoordinate
    13.3872015,               !- Vertex 4 Ycoordinate
    7.8;                      !- Vertex 4 Zcoordinate

FENESTRATIONSURFACE:DETAILED,
    Block Build1_Alt0 Storey 0 Wall 0005 window,    !- Name
    Window,                   !- Surface Type
    Project External Window,    !- Construction Name
    Block Build1_Alt0 Storey 0 Wall 0005,    !- Building Surface Name
    ,                         !- Outside Boundary Condition Object
    autocalculate,            !- View Factor to Ground
    ,                         !- Frame and Divider Name
    1.0,                      !- Multiplier
    autocalculate,            !- Number of Vertices
    13.73856365,              !- Vertex 1 Xcoordinate
    13.3882604,               !- Vertex 1 Ycoordinate
    7.8,                      !- Vertex 1 Zcoordinate
    13.73856365,              !- Vertex 2 Xcoordinate
    13.3882604,               !- Vertex 2 Ycoordinate
    4.2,                      !- Vertex 2 Zcoordinate
    9.66993635,               !- Vertex 3 Xcoordinate
    18.1043396,               !- Vertex 3 Ycoordinate
    4.2,                      !- Vertex 3 Zcoordinate
    9.66993635,               !- Vertex 4 Xcoordinate
    18.1043396,               !- Vertex 4 Ycoordinate
    7.8;                      !- Vertex 4 Zcoordinate

FENESTRATIONSURFACE:DETAILED,
    Block Build1_Alt0 Storey 0 Wall 0007 window,    !- Name
    Window,                   !- Surface Type
    Project External Window,    !- Construction Name
    Block Build1_Alt0 Storey 0 Wall 0007,    !- Building Surface Name
    ,                         !- Outside Boundary Condition Object
    autocalculate,            !- View Factor to Ground
    ,                         !- Frame and Divider Name
    1.0,                      !- Multiplier
    autocalculate,            !- Number of Vertices
    2.27213145,               !- Vertex 1 Xcoordinate
    11.4483674,               !- Vertex 1 Ycoordinate
    7.8,                      !- Vertex 1 Zcoordinate
    2.27213145,               !- Vertex 2 Xcoordinate
    11.4483674,               !- Vertex 2 Ycoordinate
    4.2,                      !- Vertex 2 Zcoordinate
    7.1301685500000005,       !- Vertex 3 Xcoordinate
    5.9886326,                !- Vertex 3 Ycoordinate
    4.2,                      !- Vertex 3 Zcoordinate
    7.1301685500000005,       !- Vertex 4 Xcoordinate
    5.9886326,                !- Vertex 4 Ycoordinate
    7.8;                      !- Vertex 4 Zcoordinate

FENESTRATIONSURFACE:DETAILED,
    Block Build1_Alt0 Storey 0 Wall 0008 window,    !- Name
    Window,                   !- Surface Type
    Project External Window,    !- Construction Name
    Block Build1_Alt0 Storey 0 Wall 0008,    !- Building Surface Name
    ,                         !- Outside Boundary Condition Object
    autocalculate,            !- View Factor to Ground
    ,                         !- Frame and Divider Name
    1.0,                      !- Multiplier
    autocalculate,            !- Number of Vertices
    7.13227735,               !- Vertex 1 Xcoordinate
    5.981522200000001,        !- Vertex 1 Ycoordinate
    7.8,                      !- Vertex 1 Zcoordinate
    7.13227735,               !- Vertex 2 Xcoordinate
    5.981522200000001,        !- Vertex 2 Ycoordinate
    4.2,                      !- Vertex 2 Zcoordinate
    6.4876226500000005,       !- Vertex 3 Xcoordinate
    -2.765322e+00,            !- Vertex 3 Ycoordinate
    4.2,                      !- Vertex 3 Zcoordinate
    6.4876226500000005,       !- Vertex 4 Xcoordinate
    -2.765322e+00,            !- Vertex 4 Ycoordinate
    7.8;                      !- Vertex 4 Zcoordinate

FENESTRATIONSURFACE:DETAILED,
    Block Build2_Alt0 Storey 0 Wall 0002 window,    !- Name
    Window,                   !- Surface Type
    Project External Window,    !- Construction Name
    Block Build2_Alt0 Storey 0 Wall 0002,    !- Building Surface Name
    ,                         !- Outside Boundary Condition Object
    autocalculate,            !- View Factor to Ground
    ,                         !- Frame and Divider Name
    1.0,                      !- Multiplier
    autocalculate,            !- Number of Vertices
    6.48694415,               !- Vertex 1 Xcoordinate
    -2.7745312,               !- Vertex 1 Ycoordinate
    13.65,                    !- Vertex 1 Zcoordinate
    6.48694415,               !- Vertex 2 Xcoordinate
    -2.7745312,               !- Vertex 2 Ycoordinate
    7.35,                     !- Vertex 2 Zcoordinate
    5.77595585,               !- Vertex 3 Xcoordinate
    -12.4272688,              !- Vertex 3 Ycoordinate
    7.35,                     !- Vertex 3 Zcoordinate
    5.77595585,               !- Vertex 4 Xcoordinate
    -12.4272688,              !- Vertex 4 Ycoordinate
    13.65;                    !- Vertex 4 Zcoordinate

FENESTRATIONSURFACE:DETAILED,
    Block Build2_Alt0 Storey 0 Wall 0003 window,    !- Name
    Window,                   !- Surface Type
    Project External Window,    !- Construction Name
    Block Build2_Alt0 Storey 0 Wall 0003,    !- Building Surface Name
    ,                         !- Outside Boundary Condition Object
    autocalculate,            !- View Factor to Ground
    ,                         !- Frame and Divider Name
    1.0,                      !- Multiplier
    autocalculate,            !- Number of Vertices
    5.771236999999999,        !- Vertex 1 Xcoordinate
    -12.4357975,              !- Vertex 1 Ycoordinate
    13.65,                    !- Vertex 1 Zcoordinate
    5.771236999999999,        !- Vertex 2 Xcoordinate
    -12.4357975,              !- Vertex 2 Ycoordinate
    7.35,                     !- Vertex 2 Zcoordinate
    -2.946037,                !- Vertex 3 Xcoordinate
    -19.8234025,              !- Vertex 3 Ycoordinate
    7.35,                     !- Vertex 3 Zcoordinate
    -2.946037,                !- Vertex 4 Xcoordinate
    -19.8234025,              !- Vertex 4 Ycoordinate
    13.65;                    !- Vertex 4 Zcoordinate

FENESTRATIONSURFACE:DETAILED,
    Block Build2_Alt0 Storey 0 Wall 0004 window,    !- Name
    Window,                   !- Surface Type
    Project External Window,    !- Construction Name
    Block Build2_Alt0 Storey 0 Wall 0004,    !- Building Surface Name
    ,                         !- Outside Boundary Condition Object
    autocalculate,            !- View Factor to Ground
    ,                         !- Frame and Divider Name
    1.0,                      !- Multiplier
    autocalculate,            !- Number of Vertices
    -2.947110e+00,            !- Vertex 1 Xcoordinate
    -19.830964,               !- Vertex 1 Ycoordinate
    13.65,                    !- Vertex 1 Zcoordinate
    -2.947110e+00,            !- Vertex 2 Xcoordinate
    -19.830964,               !- Vertex 2 Ycoordinate
    7.35,                     !- Vertex 2 Zcoordinate
    3.62631,                  !- Vertex 3 Xcoordinate
    -27.551236,               !- Vertex 3 Ycoordinate
    7.35,                     !- Vertex 3 Zcoordinate
    3.62631,                  !- Vertex 4 Xcoordinate
    -27.551236,               !- Vertex 4 Ycoordinate
    13.65;                    !- Vertex 4 Zcoordinate

FENESTRATIONSURFACE:DETAILED,
    Block Build2_Alt0 Storey 0 Wall 0005 window,    !- Name
    Window,                   !- Surface Type
    Project External Window,    !- Construction Name
    Block Build2_Alt0 Storey 0 Wall 0005,    !- Building Surface Name
    ,                         !- Outside Boundary Condition Object
    autocalculate,            !- View Factor to Ground
    ,                         !- Frame and Divider Name
    1.0,                      !- Multiplier
    autocalculate,            !- Number of Vertices
    3.633349,                 !- Vertex 1 Xcoordinate
    -27.55187,                !- Vertex 1 Ycoordinate
    13.65,                    !- Vertex 1 Zcoordinate
    3.633349,                 !- Vertex 2 Xcoordinate
    -27.55187,                !- Vertex 2 Ycoordinate
    7.35,                     !- Vertex 2 Zcoordinate
    11.123850999999998,       !- Vertex 3 Xcoordinate
    -2.109833e+01,            !- Vertex 3 Ycoordinate
    7.35,                     !- Vertex 3 Zcoordinate
    11.123850999999998,       !- Vertex 4 Xcoordinate
    -2.109833e+01,            !- Vertex 4 Ycoordinate
    13.65;                    !- Vertex 4 Zcoordinate

FENESTRATIONSURFACE:DETAILED,
    Block Build2_Alt0 Storey 0 Wall 0006 window,    !- Name
    Window,                   !- Surface Type
    Project External Window,    !- Construction Name
    Block Build2_Alt0 Storey 0 Wall 0006,    !- Building Surface Name
    ,                         !- Outside Boundary Condition Object
    autocalculate,            !- View Factor to Ground
    ,                         !- Frame and Divider Name
    1.0,                      !- Multiplier
    autocalculate,            !- Number of Vertices
    11.1294525,               !- Vertex 1 Xcoordinate
    -21.097264,               !- Vertex 1 Ycoordinate
    13.65,                    !- Vertex 1 Zcoordinate
    11.1294525,               !- Vertex 2 Xcoordinate
    -21.097264,               !- Vertex 2 Ycoordinate
    7.35,                     !- Vertex 2 Zcoordinate
    14.8307475,               !- Vertex 3 Xcoordinate
    -25.420936,               !- Vertex 3 Ycoordinate
    7.35,                     !- Vertex 3 Zcoordinate
    14.8307475,               !- Vertex 4 Xcoordinate
    -25.420936,               !- Vertex 4 Ycoordinate
    13.65;                    !- Vertex 4 Zcoordinate

FENESTRATIONSURFACE:DETAILED,
    Block Build2_Alt0 Storey 0 Wall 0007 window,    !- Name
    Window,                   !- Surface Type
    Project External Window,    !- Construction Name
    Block Build2_Alt0 Storey 0 Wall 0007,    !- Building Surface Name
    ,                         !- Outside Boundary Condition Object
    autocalculate,            !- View Factor to Ground
    ,                         !- Frame and Divider Name
    1.0,                      !- Multiplier
    autocalculate,            !- Number of Vertices
    14.835996,                !- Vertex 1 Xcoordinate
    -2.542019e+01,            !- Vertex 1 Ycoordinate
    13.65,                    !- Vertex 1 Zcoordinate
    14.835996,                !- Vertex 2 Xcoordinate
    -2.542019e+01,            !- Vertex 2 Ycoordinate
    7.35,                     !- Vertex 2 Zcoordinate
    21.621204000000002,       !- Vertex 3 Xcoordinate
    -1.961301e+01,            !- Vertex 3 Ycoordinate
    7.35,                     !- Vertex 3 Zcoordinate
    21.621204000000002,       !- Vertex 4 Xcoordinate
    -1.961301e+01,            !- Vertex 4 Ycoordinate
    13.65;                    !- Vertex 4 Zcoordinate

FENESTRATIONSURFACE:DETAILED,
    Block Build2_Alt0 Storey 0 Wall 0008 window,    !- Name
    Window,                   !- Surface Type
    Project External Window,    !- Construction Name
    Block Build2_Alt0 Storey 0 Wall 0008,    !- Building Surface Name
    ,                         !- Outside Boundary Condition Object
    autocalculate,            !- View Factor to Ground
    ,                         !- Frame and Divider Name
    1.0,                      !- Multiplier
    autocalculate,            !- Number of Vertices
    21.621713500000002,       !- Vertex 1 Xcoordinate
    -19.6067255,              !- Vertex 1 Ycoordinate
    13.65,                    !- Vertex 1 Zcoordinate
    21.621713500000002,       !- Vertex 2 Xcoordinate
    -19.6067255,              !- Vertex 2 Ycoordinate
    7.35,                     !- Vertex 2 Zcoordinate
    15.8544865,               !- Vertex 3 Xcoordinate
    -12.8644745,              !- Vertex 3 Ycoordinate
    7.35,                     !- Vertex 3 Zcoordinate
    15.8544865,               !- Vertex 4 Xcoordinate
    -12.8644745,              !- Vertex 4 Ycoordinate
    13.65;                    !- Vertex 4 Zcoordinate

FENESTRATIONSURFACE:DETAILED,
    Block Build2_Alt0 Storey 0 Wall 0009 window,    !- Name
    Window,                   !- Surface Type
    Project External Window,    !- Construction Name
    Block Build2_Alt0 Storey 0 Wall 0009,    !- Building Surface Name
    ,                         !- Outside Boundary Condition Object
    autocalculate,            !- View Factor to Ground
    ,                         !- Frame and Divider Name
    1.0,                      !- Multiplier
    autocalculate,            !- Number of Vertices
    15.8519562,               !- Vertex 1 Xcoordinate
    -12.85632685,             !- Vertex 1 Ycoordinate
    13.65,                    !- Vertex 1 Zcoordinate
    15.8519562,               !- Vertex 2 Xcoordinate
    -12.85632685,             !- Vertex 2 Ycoordinate
    7.35,                     !- Vertex 2 Zcoordinate
    16.5636438,               !- Vertex 3 Xcoordinate
    -3.31957315,              !- Vertex 3 Ycoordinate
    7.35,                     !- Vertex 3 Zcoordinate
    16.5636438,               !- Vertex 4 Xcoordinate
    -3.31957315,              !- Vertex 4 Ycoordinate
    13.65;                    !- Vertex 4 Zcoordinate

FENESTRATIONSURFACE:DETAILED,
    Block Build0_Alt0 Storey 0 Wall 0001_1 window,    !- Name
    Window,                   !- Surface Type
    Project External Window,    !- Construction Name
    Block Build0_Alt0 Storey 0 Wall 0001_1,    !- Building Surface Name
    ,                         !- Outside Boundary Condition Object
    autocalculate,            !- View Factor to Ground
    ,                         !- Frame and Divider Name
    1.0,                      !- Multiplier
    autocalculate,            !- Number of Vertices
    2.273399099597009,        !- Vertex 1 Xcoordinate
    11.454427799637461,       !- Vertex 1 Ycoordinate
    17.85,                    !- Vertex 1 Zcoordinate
    2.273399099597009,        !- Vertex 2 Xcoordinate
    11.454427799637461,       !- Vertex 2 Ycoordinate
    15.15,                    !- Vertex 2 Zcoordinate
    9.664200899767456,        !- Vertex 3 Xcoordinate
    18.1033721997908,         !- Vertex 3 Ycoordinate
    15.15,                    !- Vertex 3 Zcoordinate
    9.664200899767456,        !- Vertex 4 Xcoordinate
    18.1033721997908,         !- Vertex 4 Ycoordinate
    17.85;                    !- Vertex 4 Zcoordinate

FENESTRATIONSURFACE:DETAILED,
    Block Build2_Alt0 Storey 0 Wall 0001_2 window,    !- Name
    Window,                   !- Surface Type
    Project External Window,    !- Construction Name
    Block Build2_Alt0 Storey 0 Wall 0001_2,    !- Building Surface Name
    ,                         !- Outside Boundary Condition Object
    autocalculate,            !- View Factor to Ground
    ,                         !- Frame and Divider Name
    1.0,                      !- Multiplier
    autocalculate,            !- Number of Vertices
    16.558961649780162,       !- Vertex 1 Xcoordinate
    -3.314527449988108,       !- Vertex 1 Ycoordinate
    17.85,                    !- Vertex 1 Zcoordinate
    16.558961649780162,       !- Vertex 2 Xcoordinate
    -3.314527449988108,       !- Vertex 2 Ycoordinate
    15.15,                    !- Vertex 2 Zcoordinate
    6.492338349687867,        !- Vertex 3 Xcoordinate
    -2.769972549983115,       !- Vertex 3 Ycoordinate
    15.15,                    !- Vertex 3 Zcoordinate
    6.492338349687867,        !- Vertex 4 Xcoordinate
    -2.769972549983115,       !- Vertex 4 Ycoordinate
    17.85;                    !- Vertex 4 Zcoordinate

INTERNALMASS,
    Block Build0_Alt0 Storey 0IntMass,    !- Name
    HeatedZoneIntMassObj,     !- Construction Name
    Block Build0_Alt0 Storey 0,    !- Zone or ZoneList Name
    6928;                     !- Surface Area

INTERNALMASS,
    Block Build1_Alt0 Storey 0IntMass,    !- Name
    HeatedZoneIntMassObj,     !- Construction Name
    Block Build1_Alt0 Storey 0,    !- Zone or ZoneList Name
    1847;                     !- Surface Area

INTERNALMASS,
    Block Build2_Alt0 Storey 0IntMass,    !- Name
    HeatedZoneIntMassObj,     !- Construction Name
    Block Build2_Alt0 Storey 0,    !- Zone or ZoneList Name
    4376;                     !- Surface Area

SHADING:SITE:DETAILED,
    Shading_V183_1,           !- Name
    ,                         !- Transmittance Schedule Name
    autocalculate,            !- Number of Vertices
    -157.7724,                !- Vertex 1 Xcoordinate
    41.9059,                  !- Vertex 1 Ycoordinate
    12.7,                     !- Vertex 1 Zcoordinate
    -157.7724,                !- Vertex 2 Xcoordinate
    41.9059,                  !- Vertex 2 Ycoordinate
    0,                        !- Vertex 2 Zcoordinate
    -163.9564,                !- Vertex 3 Xcoordinate
    49.0579,                  !- Vertex 3 Ycoordinate
    0,                        !- Vertex 3 Zcoordinate
    -163.9564,                !- Vertex 4 Xcoordinate
    49.0579,                  !- Vertex 4 Ycoordinate
    12.7;                     !- Vertex 4 Zcoordinate

SHADING:SITE:DETAILED,
    Shading_V187_1,           !- Name
    ,                         !- Transmittance Schedule Name
    autocalculate,            !- Number of Vertices
    -133.2574,                !- Vertex 1 Xcoordinate
    49.0699,                  !- Vertex 1 Ycoordinate
    12.7,                     !- Vertex 1 Zcoordinate
    -133.2574,                !- Vertex 2 Xcoordinate
    49.0699,                  !- Vertex 2 Ycoordinate
    0,                        !- Vertex 2 Zcoordinate
    -120.7194,                !- Vertex 3 Xcoordinate
    48.2649,                  !- Vertex 3 Ycoordinate
    0,                        !- Vertex 3 Zcoordinate
    -120.7194,                !- Vertex 4 Xcoordinate
    48.2649,                  !- Vertex 4 Ycoordinate
    12.7;                     !- Vertex 4 Zcoordinate

SHADING:SITE:DETAILED,
    Shading_V207_1,           !- Name
    ,                         !- Transmittance Schedule Name
    autocalculate,            !- Number of Vertices
    -167.4194,                !- Vertex 1 Xcoordinate
    33.5909,                  !- Vertex 1 Ycoordinate
    12.7,                     !- Vertex 1 Zcoordinate
    -167.4194,                !- Vertex 2 Xcoordinate
    33.5909,                  !- Vertex 2 Ycoordinate
    0,                        !- Vertex 2 Zcoordinate
    -157.7724,                !- Vertex 3 Xcoordinate
    41.9059,                  !- Vertex 3 Ycoordinate
    0,                        !- Vertex 3 Zcoordinate
    -157.7724,                !- Vertex 4 Xcoordinate
    41.9059,                  !- Vertex 4 Ycoordinate
    12.7;                     !- Vertex 4 Zcoordinate

SHADING:SITE:DETAILED,
    Shading_V274_1,           !- Name
    ,                         !- Transmittance Schedule Name
    autocalculate,            !- Number of Vertices
    -96.5104,                 !- Vertex 1 Xcoordinate
    46.3369,                  !- Vertex 1 Ycoordinate
    17.1,                     !- Vertex 1 Zcoordinate
    -96.5104,                 !- Vertex 2 Xcoordinate
    46.3369,                  !- Vertex 2 Ycoordinate
    0,                        !- Vertex 2 Zcoordinate
    -83.8684,                 !- Vertex 3 Xcoordinate
    45.3499,                  !- Vertex 3 Ycoordinate
    0,                        !- Vertex 3 Zcoordinate
    -83.8684,                 !- Vertex 4 Xcoordinate
    45.3499,                  !- Vertex 4 Ycoordinate
    17.1;                     !- Vertex 4 Zcoordinate

SHADING:SITE:DETAILED,
    Shading_V275_1,           !- Name
    ,                         !- Transmittance Schedule Name
    autocalculate,            !- Number of Vertices
    -83.8684,                 !- Vertex 1 Xcoordinate
    45.3499,                  !- Vertex 1 Ycoordinate
    17.1,                     !- Vertex 1 Zcoordinate
    -83.8684,                 !- Vertex 2 Xcoordinate
    45.3499,                  !- Vertex 2 Ycoordinate
    0,                        !- Vertex 2 Zcoordinate
    -83.1344,                 !- Vertex 3 Xcoordinate
    54.7399,                  !- Vertex 3 Ycoordinate
    0,                        !- Vertex 3 Zcoordinate
    -83.1344,                 !- Vertex 4 Xcoordinate
    54.7399,                  !- Vertex 4 Ycoordinate
    17.1;                     !- Vertex 4 Zcoordinate

SHADING:SITE:DETAILED,
    Shading_V281_1,           !- Name
    ,                         !- Transmittance Schedule Name
    autocalculate,            !- Number of Vertices
    -34.9604,                 !- Vertex 1 Xcoordinate
    39.9639,                  !- Vertex 1 Ycoordinate
    18.7,                     !- Vertex 1 Zcoordinate
    -34.9604,                 !- Vertex 2 Xcoordinate
    39.9639,                  !- Vertex 2 Ycoordinate
    0,                        !- Vertex 2 Zcoordinate
    -27.7894,                 !- Vertex 3 Xcoordinate
    46.1299,                  !- Vertex 3 Ycoordinate
    0,                        !- Vertex 3 Zcoordinate
    -27.7894,                 !- Vertex 4 Xcoordinate
    46.1299,                  !- Vertex 4 Ycoordinate
    18.7;                     !- Vertex 4 Zcoordinate

SHADING:SITE:DETAILED,
    Shading_V343_1,           !- Name
    ,                         !- Transmittance Schedule Name
    autocalculate,            !- Number of Vertices
    -104.3734,                !- Vertex 1 Xcoordinate
    6.3049,                   !- Vertex 1 Ycoordinate
    9.8,                      !- Vertex 1 Zcoordinate
    -104.3734,                !- Vertex 2 Xcoordinate
    6.3049,                   !- Vertex 2 Ycoordinate
    0,                        !- Vertex 2 Zcoordinate
    -136.1174,                !- Vertex 3 Xcoordinate
    24.5299,                  !- Vertex 3 Ycoordinate
    0,                        !- Vertex 3 Zcoordinate
    -136.1174,                !- Vertex 4 Xcoordinate
    24.5299,                  !- Vertex 4 Ycoordinate
    9.8;                      !- Vertex 4 Zcoordinate

SHADING:SITE:DETAILED,
    Shading_V346_1,           !- Name
    ,                         !- Transmittance Schedule Name
    autocalculate,            !- Number of Vertices
    -109.9964,                !- Vertex 1 Xcoordinate
    -3.4501,                  !- Vertex 1 Ycoordinate
    9.8,                      !- Vertex 1 Zcoordinate
    -109.9964,                !- Vertex 2 Xcoordinate
    -3.4501,                  !- Vertex 2 Ycoordinate
    0,                        !- Vertex 2 Zcoordinate
    -104.3734,                !- Vertex 3 Xcoordinate
    6.3049,                   !- Vertex 3 Ycoordinate
    0,                        !- Vertex 3 Zcoordinate
    -104.3734,                !- Vertex 4 Xcoordinate
    6.3049,                   !- Vertex 4 Ycoordinate
    9.8;                      !- Vertex 4 Zcoordinate

SHADING:SITE:DETAILED,
    Shading_V381_1,           !- Name
    ,                         !- Transmittance Schedule Name
    autocalculate,            !- Number of Vertices
    -64.3054,                 !- Vertex 1 Xcoordinate
    -80.3791,                 !- Vertex 1 Ycoordinate
    8.6,                      !- Vertex 1 Zcoordinate
    -64.3054,                 !- Vertex 2 Xcoordinate
    -80.3791,                 !- Vertex 2 Ycoordinate
    0,                        !- Vertex 2 Zcoordinate
    -78.1964,                 !- Vertex 3 Xcoordinate
    -62.1251,                 !- Vertex 3 Ycoordinate
    0,                        !- Vertex 3 Zcoordinate
    -78.1964,                 !- Vertex 4 Xcoordinate
    -62.1251,                 !- Vertex 4 Ycoordinate
    8.6;                      !- Vertex 4 Zcoordinate

SHADING:SITE:DETAILED,
    Shading_V382_1,           !- Name
    ,                         !- Transmittance Schedule Name
    autocalculate,            !- Number of Vertices
    -78.1964,                 !- Vertex 1 Xcoordinate
    -62.1251,                 !- Vertex 1 Ycoordinate
    8.6,                      !- Vertex 1 Zcoordinate
    -78.1964,                 !- Vertex 2 Xcoordinate
    -62.1251,                 !- Vertex 2 Ycoordinate
    0,                        !- Vertex 2 Zcoordinate
    -86.4124,                 !- Vertex 3 Xcoordinate
    -68.3951,                 !- Vertex 3 Ycoordinate
    0,                        !- Vertex 3 Zcoordinate
    -86.4124,                 !- Vertex 4 Xcoordinate
    -68.3951,                 !- Vertex 4 Ycoordinate
    8.6;                      !- Vertex 4 Zcoordinate

SHADING:SITE:DETAILED,
    Shading_V385_1,           !- Name
    ,                         !- Transmittance Schedule Name
    autocalculate,            !- Number of Vertices
    -105.4964,                !- Vertex 1 Xcoordinate
    -49.1491,                 !- Vertex 1 Ycoordinate
    10.4,                     !- Vertex 1 Zcoordinate
    -105.4964,                !- Vertex 2 Xcoordinate
    -49.1491,                 !- Vertex 2 Ycoordinate
    0,                        !- Vertex 2 Zcoordinate
    -115.8124,                !- Vertex 3 Xcoordinate
    -50.8511,                 !- Vertex 3 Ycoordinate
    0,                        !- Vertex 3 Zcoordinate
    -115.8124,                !- Vertex 4 Xcoordinate
    -50.8511,                 !- Vertex 4 Ycoordinate
    10.4;                     !- Vertex 4 Zcoordinate

SHADING:SITE:DETAILED,
    Shading_V388_1,           !- Name
    ,                         !- Transmittance Schedule Name
    autocalculate,            !- Number of Vertices
    -101.9934,                !- Vertex 1 Xcoordinate
    -72.6211,                 !- Vertex 1 Ycoordinate
    10.4,                     !- Vertex 1 Zcoordinate
    -101.9934,                !- Vertex 2 Xcoordinate
    -72.6211,                 !- Vertex 2 Ycoordinate
    0,                        !- Vertex 2 Zcoordinate
    -105.4964,                !- Vertex 3 Xcoordinate
    -49.1491,                 !- Vertex 3 Ycoordinate
    0,                        !- Vertex 3 Zcoordinate
    -105.4964,                !- Vertex 4 Xcoordinate
    -49.1491,                 !- Vertex 4 Ycoordinate
    10.4;                     !- Vertex 4 Zcoordinate

SHADING:SITE:DETAILED,
    Shading_V408_1,           !- Name
    ,                         !- Transmittance Schedule Name
    autocalculate,            !- Number of Vertices
    -90.9584,                 !- Vertex 1 Xcoordinate
    -25.8591,                 !- Vertex 1 Ycoordinate
    10.2,                     !- Vertex 1 Zcoordinate
    -90.9584,                 !- Vertex 2 Xcoordinate
    -25.8591,                 !- Vertex 2 Ycoordinate
    0,                        !- Vertex 2 Zcoordinate
    -83.4834,                 !- Vertex 3 Xcoordinate
    -18.9611,                 !- Vertex 3 Ycoordinate
    0,                        !- Vertex 3 Zcoordinate
    -83.4834,                 !- Vertex 4 Xcoordinate
    -18.9611,                 !- Vertex 4 Ycoordinate
    10.2;                     !- Vertex 4 Zcoordinate

SHADING:SITE:DETAILED,
    Shading_V409_1,           !- Name
    ,                         !- Transmittance Schedule Name
    autocalculate,            !- Number of Vertices
    -83.4834,                 !- Vertex 1 Xcoordinate
    -18.9611,                 !- Vertex 1 Ycoordinate
    10.2,                     !- Vertex 1 Zcoordinate
    -83.4834,                 !- Vertex 2 Xcoordinate
    -18.9611,                 !- Vertex 2 Ycoordinate
    0,                        !- Vertex 2 Zcoordinate
    -98.9244,                 !- Vertex 3 Xcoordinate
    -0.9791,                  !- Vertex 3 Ycoordinate
    0,                        !- Vertex 3 Zcoordinate
    -98.9244,                 !- Vertex 4 Xcoordinate
    -0.9791,                  !- Vertex 4 Ycoordinate
    10.2;                     !- Vertex 4 Zcoordinate

SHADING:SITE:DETAILED,
    Shading_V67_1,            !- Name
    ,                         !- Transmittance Schedule Name
    autocalculate,            !- Number of Vertices
    -7.2444,                  !- Vertex 1 Xcoordinate
    74.4529,                  !- Vertex 1 Ycoordinate
    15,                       !- Vertex 1 Zcoordinate
    -7.2444,                  !- Vertex 2 Xcoordinate
    74.4529,                  !- Vertex 2 Ycoordinate
    0,                        !- Vertex 2 Zcoordinate
    -0.6224,                  !- Vertex 3 Xcoordinate
    66.7439,                  !- Vertex 3 Ycoordinate
    0,                        !- Vertex 3 Zcoordinate
    -0.6224,                  !- Vertex 4 Xcoordinate
    66.7439,                  !- Vertex 4 Ycoordinate
    15;                       !- Vertex 4 Zcoordinate

SHADING:SITE:DETAILED,
    Shading_V68_1,            !- Name
    ,                         !- Transmittance Schedule Name
    autocalculate,            !- Number of Vertices
    -0.6224,                  !- Vertex 1 Xcoordinate
    66.7439,                  !- Vertex 1 Ycoordinate
    15,                       !- Vertex 1 Zcoordinate
    -0.6224,                  !- Vertex 2 Xcoordinate
    66.7439,                  !- Vertex 2 Ycoordinate
    0,                        !- Vertex 2 Zcoordinate
    7.2216,                   !- Vertex 3 Xcoordinate
    73.5759,                  !- Vertex 3 Ycoordinate
    0,                        !- Vertex 3 Zcoordinate
    7.2216,                   !- Vertex 4 Xcoordinate
    73.5759,                  !- Vertex 4 Ycoordinate
    15;                       !- Vertex 4 Zcoordinate

SHADING:SITE:DETAILED,
    Shading_V69_1,            !- Name
    ,                         !- Transmittance Schedule Name
    autocalculate,            !- Number of Vertices
    7.2216,                   !- Vertex 1 Xcoordinate
    73.5759,                  !- Vertex 1 Ycoordinate
    15,                       !- Vertex 1 Zcoordinate
    7.2216,                   !- Vertex 2 Xcoordinate
    73.5759,                  !- Vertex 2 Ycoordinate
    0,                        !- Vertex 2 Zcoordinate
    10.4446,                  !- Vertex 3 Xcoordinate
    70.0179,                  !- Vertex 3 Ycoordinate
    0,                        !- Vertex 3 Zcoordinate
    10.4446,                  !- Vertex 4 Xcoordinate
    70.0179,                  !- Vertex 4 Ycoordinate
    15;                       !- Vertex 4 Zcoordinate

SHADING:SITE:DETAILED,
    Shading_V105_1,           !- Name
    ,                         !- Transmittance Schedule Name
    autocalculate,            !- Number of Vertices
    12.7856,                  !- Vertex 1 Xcoordinate
    51.8579,                  !- Vertex 1 Ycoordinate
    15.5,                     !- Vertex 1 Zcoordinate
    12.7856,                  !- Vertex 2 Xcoordinate
    51.8579,                  !- Vertex 2 Ycoordinate
    0,                        !- Vertex 2 Zcoordinate
    19.4116,                  !- Vertex 3 Xcoordinate
    44.1129,                  !- Vertex 3 Ycoordinate
    0,                        !- Vertex 3 Zcoordinate
    19.4116,                  !- Vertex 4 Xcoordinate
    44.1129,                  !- Vertex 4 Ycoordinate
    15.5;                     !- Vertex 4 Zcoordinate

SHADING:SITE:DETAILED,
    Shading_V106_1,           !- Name
    ,                         !- Transmittance Schedule Name
    autocalculate,            !- Number of Vertices
    19.4116,                  !- Vertex 1 Xcoordinate
    44.1129,                  !- Vertex 1 Ycoordinate
    15.5,                     !- Vertex 1 Zcoordinate
    19.4116,                  !- Vertex 2 Xcoordinate
    44.1129,                  !- Vertex 2 Ycoordinate
    0,                        !- Vertex 2 Zcoordinate
    22.4186,                  !- Vertex 3 Xcoordinate
    46.7509,                  !- Vertex 3 Ycoordinate
    0,                        !- Vertex 3 Zcoordinate
    22.4186,                  !- Vertex 4 Xcoordinate
    46.7509,                  !- Vertex 4 Ycoordinate
    15.5;                     !- Vertex 4 Zcoordinate

SHADING:SITE:DETAILED,
    Shading_V107_1,           !- Name
    ,                         !- Transmittance Schedule Name
    autocalculate,            !- Number of Vertices
    22.4186,                  !- Vertex 1 Xcoordinate
    46.7509,                  !- Vertex 1 Ycoordinate
    15.5,                     !- Vertex 1 Zcoordinate
    22.4186,                  !- Vertex 2 Xcoordinate
    46.7509,                  !- Vertex 2 Ycoordinate
    0,                        !- Vertex 2 Zcoordinate
    28.8506,                  !- Vertex 3 Xcoordinate
    39.2359,                  !- Vertex 3 Ycoordinate
    0,                        !- Vertex 3 Zcoordinate
    28.8506,                  !- Vertex 4 Xcoordinate
    39.2359,                  !- Vertex 4 Ycoordinate
    15.5;                     !- Vertex 4 Zcoordinate

SHADING:SITE:DETAILED,
    Shading_V108_1,           !- Name
    ,                         !- Transmittance Schedule Name
    autocalculate,            !- Number of Vertices
    28.8506,                  !- Vertex 1 Xcoordinate
    39.2359,                  !- Vertex 1 Ycoordinate
    15.5,                     !- Vertex 1 Zcoordinate
    28.8506,                  !- Vertex 2 Xcoordinate
    39.2359,                  !- Vertex 2 Ycoordinate
    0,                        !- Vertex 2 Zcoordinate
    37.1046,                  !- Vertex 3 Xcoordinate
    46.3169,                  !- Vertex 3 Ycoordinate
    0,                        !- Vertex 3 Zcoordinate
    37.1046,                  !- Vertex 4 Xcoordinate
    46.3169,                  !- Vertex 4 Ycoordinate
    15.5;                     !- Vertex 4 Zcoordinate

SHADING:SITE:DETAILED,
    Shading_V132_1,           !- Name
    ,                         !- Transmittance Schedule Name
    autocalculate,            !- Number of Vertices
    105.5906,                 !- Vertex 1 Xcoordinate
    -56.6351,                 !- Vertex 1 Ycoordinate
    15.5,                     !- Vertex 1 Zcoordinate
    105.5906,                 !- Vertex 2 Xcoordinate
    -56.6351,                 !- Vertex 2 Ycoordinate
    0,                        !- Vertex 2 Zcoordinate
    111.6726,                 !- Vertex 3 Xcoordinate
    -63.7131,                 !- Vertex 3 Ycoordinate
    0,                        !- Vertex 3 Zcoordinate
    111.6726,                 !- Vertex 4 Xcoordinate
    -63.7131,                 !- Vertex 4 Ycoordinate
    15.5;                     !- Vertex 4 Zcoordinate

SHADING:SITE:DETAILED,
    Shading_V135_1,           !- Name
    ,                         !- Transmittance Schedule Name
    autocalculate,            !- Number of Vertices
    125.3916,                 !- Vertex 1 Xcoordinate
    -73.5931,                 !- Vertex 1 Ycoordinate
    15.5,                     !- Vertex 1 Zcoordinate
    125.3916,                 !- Vertex 2 Xcoordinate
    -73.5931,                 !- Vertex 2 Ycoordinate
    0,                        !- Vertex 2 Zcoordinate
    122.3076,                 !- Vertex 3 Xcoordinate
    -76.1871,                 !- Vertex 3 Ycoordinate
    0,                        !- Vertex 3 Zcoordinate
    122.3076,                 !- Vertex 4 Xcoordinate
    -76.1871,                 !- Vertex 4 Ycoordinate
    15.5;                     !- Vertex 4 Zcoordinate

SHADING:SITE:DETAILED,
    Shading_V136_1,           !- Name
    ,                         !- Transmittance Schedule Name
    autocalculate,            !- Number of Vertices
    122.3076,                 !- Vertex 1 Xcoordinate
    -76.1871,                 !- Vertex 1 Ycoordinate
    15.5,                     !- Vertex 1 Zcoordinate
    122.3076,                 !- Vertex 2 Xcoordinate
    -76.1871,                 !- Vertex 2 Ycoordinate
    0,                        !- Vertex 2 Zcoordinate
    126.7466,                 !- Vertex 3 Xcoordinate
    -81.2881,                 !- Vertex 3 Ycoordinate
    0,                        !- Vertex 3 Zcoordinate
    126.7466,                 !- Vertex 4 Xcoordinate
    -81.2881,                 !- Vertex 4 Ycoordinate
    15.5;                     !- Vertex 4 Zcoordinate

SHADING:SITE:DETAILED,
    Shading_V139_1,           !- Name
    ,                         !- Transmittance Schedule Name
    autocalculate,            !- Number of Vertices
    89.6266,                  !- Vertex 1 Xcoordinate
    -16.4221,                 !- Vertex 1 Ycoordinate
    15.5,                     !- Vertex 1 Zcoordinate
    89.6266,                  !- Vertex 2 Xcoordinate
    -16.4221,                 !- Vertex 2 Ycoordinate
    0,                        !- Vertex 2 Zcoordinate
    82.0996,                  !- Vertex 3 Xcoordinate
    -22.9891,                 !- Vertex 3 Ycoordinate
    0,                        !- Vertex 3 Zcoordinate
    82.0996,                  !- Vertex 4 Xcoordinate
    -22.9891,                 !- Vertex 4 Ycoordinate
    15.5;                     !- Vertex 4 Zcoordinate

SHADING:SITE:DETAILED,
    Shading_V140_1,           !- Name
    ,                         !- Transmittance Schedule Name
    autocalculate,            !- Number of Vertices
    82.0996,                  !- Vertex 1 Xcoordinate
    -22.9891,                 !- Vertex 1 Ycoordinate
    15.5,                     !- Vertex 1 Zcoordinate
    82.0996,                  !- Vertex 2 Xcoordinate
    -22.9891,                 !- Vertex 2 Ycoordinate
    0,                        !- Vertex 2 Zcoordinate
    88.5366,                  !- Vertex 3 Xcoordinate
    -30.5091,                 !- Vertex 3 Ycoordinate
    0,                        !- Vertex 3 Zcoordinate
    88.5366,                  !- Vertex 4 Xcoordinate
    -30.5091,                 !- Vertex 4 Ycoordinate
    15.5;                     !- Vertex 4 Zcoordinate

SHADING:SITE:DETAILED,
    Shading_V141_1,           !- Name
    ,                         !- Transmittance Schedule Name
    autocalculate,            !- Number of Vertices
    88.5366,                  !- Vertex 1 Xcoordinate
    -30.5091,                 !- Vertex 1 Ycoordinate
    15.5,                     !- Vertex 1 Zcoordinate
    88.5366,                  !- Vertex 2 Xcoordinate
    -30.5091,                 !- Vertex 2 Ycoordinate
    0,                        !- Vertex 2 Zcoordinate
    85.4976,                  !- Vertex 3 Xcoordinate
    -33.1091,                 !- Vertex 3 Ycoordinate
    0,                        !- Vertex 3 Zcoordinate
    85.4976,                  !- Vertex 4 Xcoordinate
    -33.1091,                 !- Vertex 4 Ycoordinate
    15.5;                     !- Vertex 4 Zcoordinate

SHADING:SITE:DETAILED,
    Shading_V142_1,           !- Name
    ,                         !- Transmittance Schedule Name
    autocalculate,            !- Number of Vertices
    85.4976,                  !- Vertex 1 Xcoordinate
    -33.1091,                 !- Vertex 1 Ycoordinate
    15.5,                     !- Vertex 1 Zcoordinate
    85.4976,                  !- Vertex 2 Xcoordinate
    -33.1091,                 !- Vertex 2 Ycoordinate
    0,                        !- Vertex 2 Zcoordinate
    91.7286,                  !- Vertex 3 Xcoordinate
    -40.3921,                 !- Vertex 3 Ycoordinate
    0,                        !- Vertex 3 Zcoordinate
    91.7286,                  !- Vertex 4 Xcoordinate
    -40.3921,                 !- Vertex 4 Ycoordinate
    15.5;                     !- Vertex 4 Zcoordinate

SHADING:SITE:DETAILED,
    Shading_V153_1,           !- Name
    ,                         !- Transmittance Schedule Name
    autocalculate,            !- Number of Vertices
    113.5356,                 !- Vertex 1 Xcoordinate
    4.1079,                   !- Vertex 1 Ycoordinate
    15.5,                     !- Vertex 1 Zcoordinate
    113.5356,                 !- Vertex 2 Xcoordinate
    4.1079,                   !- Vertex 2 Ycoordinate
    0,                        !- Vertex 2 Zcoordinate
    104.2166,                 !- Vertex 3 Xcoordinate
    -3.8491,                  !- Vertex 3 Ycoordinate
    0,                        !- Vertex 3 Zcoordinate
    104.2166,                 !- Vertex 4 Xcoordinate
    -3.8491,                  !- Vertex 4 Ycoordinate
    15.5;                     !- Vertex 4 Zcoordinate

SHADING:SITE:DETAILED,
    Shading_V181_1,           !- Name
    ,                         !- Transmittance Schedule Name
    autocalculate,            !- Number of Vertices
    71.1076,                  !- Vertex 1 Xcoordinate
    -41.0441,                 !- Vertex 1 Ycoordinate
    19.2,                     !- Vertex 1 Zcoordinate
    71.1076,                  !- Vertex 2 Xcoordinate
    -41.0441,                 !- Vertex 2 Ycoordinate
    0,                        !- Vertex 2 Zcoordinate
    65.0486,                  !- Vertex 3 Xcoordinate
    -46.2691,                 !- Vertex 3 Ycoordinate
    0,                        !- Vertex 3 Zcoordinate
    65.0486,                  !- Vertex 4 Xcoordinate
    -46.2691,                 !- Vertex 4 Ycoordinate
    19.2;                     !- Vertex 4 Zcoordinate

SHADING:SITE:DETAILED,
    Shading_V221_1,           !- Name
    ,                         !- Transmittance Schedule Name
    autocalculate,            !- Number of Vertices
    71.9716,                  !- Vertex 1 Xcoordinate
    63.4429,                  !- Vertex 1 Ycoordinate
    14.3,                     !- Vertex 1 Zcoordinate
    71.9716,                  !- Vertex 2 Xcoordinate
    63.4429,                  !- Vertex 2 Ycoordinate
    0,                        !- Vertex 2 Zcoordinate
    75.7876,                  !- Vertex 3 Xcoordinate
    58.9839,                  !- Vertex 3 Ycoordinate
    0,                        !- Vertex 3 Zcoordinate
    75.7876,                  !- Vertex 4 Xcoordinate
    58.9839,                  !- Vertex 4 Ycoordinate
    14.3;                     !- Vertex 4 Zcoordinate

SHADING:SITE:DETAILED,
    Shading_V223_1,           !- Name
    ,                         !- Transmittance Schedule Name
    autocalculate,            !- Number of Vertices
    78.8276,                  !- Vertex 1 Xcoordinate
    61.5839,                  !- Vertex 1 Ycoordinate
    14.3,                     !- Vertex 1 Zcoordinate
    78.8276,                  !- Vertex 2 Xcoordinate
    61.5839,                  !- Vertex 2 Ycoordinate
    0,                        !- Vertex 2 Zcoordinate
    100.6826,                 !- Vertex 3 Xcoordinate
    59.8859,                  !- Vertex 3 Ycoordinate
    0,                        !- Vertex 3 Zcoordinate
    100.6826,                 !- Vertex 4 Xcoordinate
    59.8859,                  !- Vertex 4 Ycoordinate
    14.3;                     !- Vertex 4 Zcoordinate

SHADING:SITE:DETAILED,
    Shading_V224_1,           !- Name
    ,                         !- Transmittance Schedule Name
    autocalculate,            !- Number of Vertices
    100.6826,                 !- Vertex 1 Xcoordinate
    59.8859,                  !- Vertex 1 Ycoordinate
    14.3,                     !- Vertex 1 Zcoordinate
    100.6826,                 !- Vertex 2 Xcoordinate
    59.8859,                  !- Vertex 2 Ycoordinate
    0,                        !- Vertex 2 Zcoordinate
    104.2586,                 !- Vertex 3 Xcoordinate
    55.7069,                  !- Vertex 3 Ycoordinate
    0,                        !- Vertex 3 Zcoordinate
    104.2586,                 !- Vertex 4 Xcoordinate
    55.7069,                  !- Vertex 4 Ycoordinate
    14.3;                     !- Vertex 4 Zcoordinate

SHADING:SITE:DETAILED,
    Shading_V354_1,           !- Name
    ,                         !- Transmittance Schedule Name
    autocalculate,            !- Number of Vertices
    37.1046,                  !- Vertex 1 Xcoordinate
    46.3169,                  !- Vertex 1 Ycoordinate
    3.7,                      !- Vertex 1 Zcoordinate
    37.1046,                  !- Vertex 2 Xcoordinate
    46.3169,                  !- Vertex 2 Ycoordinate
    0,                        !- Vertex 2 Zcoordinate
    45.1196,                  !- Vertex 3 Xcoordinate
    45.7289,                  !- Vertex 3 Ycoordinate
    0,                        !- Vertex 3 Zcoordinate
    45.1196,                  !- Vertex 4 Xcoordinate
    45.7289,                  !- Vertex 4 Ycoordinate
    3.7;                      !- Vertex 4 Zcoordinate

SHADING:SITE:DETAILED,
    Shading_V355_1,           !- Name
    ,                         !- Transmittance Schedule Name
    autocalculate,            !- Number of Vertices
    45.1196,                  !- Vertex 1 Xcoordinate
    45.7289,                  !- Vertex 1 Ycoordinate
    3.7,                      !- Vertex 1 Zcoordinate
    45.1196,                  !- Vertex 2 Xcoordinate
    45.7289,                  !- Vertex 2 Ycoordinate
    0,                        !- Vertex 2 Zcoordinate
    49.5296,                  !- Vertex 3 Xcoordinate
    49.5029,                  !- Vertex 3 Ycoordinate
    0,                        !- Vertex 3 Zcoordinate
    49.5296,                  !- Vertex 4 Xcoordinate
    49.5029,                  !- Vertex 4 Ycoordinate
    3.7;                      !- Vertex 4 Zcoordinate

SHADING:SITE:DETAILED,
    Shading_V371_1,           !- Name
    ,                         !- Transmittance Schedule Name
    autocalculate,            !- Number of Vertices
    116.4076,                 !- Vertex 1 Xcoordinate
    56.8899,                  !- Vertex 1 Ycoordinate
    14.2,                     !- Vertex 1 Zcoordinate
    116.4076,                 !- Vertex 2 Xcoordinate
    56.8899,                  !- Vertex 2 Ycoordinate
    0,                        !- Vertex 2 Zcoordinate
    108.8096,                 !- Vertex 3 Xcoordinate
    50.3889,                  !- Vertex 3 Ycoordinate
    0,                        !- Vertex 3 Zcoordinate
    108.8096,                 !- Vertex 4 Xcoordinate
    50.3889,                  !- Vertex 4 Ycoordinate
    14.2;                     !- Vertex 4 Zcoordinate

SHADING:SITE:DETAILED,
    Shading_V372_1,           !- Name
    ,                         !- Transmittance Schedule Name
    autocalculate,            !- Number of Vertices
    108.8096,                 !- Vertex 1 Xcoordinate
    50.3889,                  !- Vertex 1 Ycoordinate
    14.2,                     !- Vertex 1 Zcoordinate
    108.8096,                 !- Vertex 2 Xcoordinate
    50.3889,                  !- Vertex 2 Ycoordinate
    0,                        !- Vertex 2 Zcoordinate
    116.0626,                 !- Vertex 3 Xcoordinate
    41.9119,                  !- Vertex 3 Ycoordinate
    0,                        !- Vertex 3 Zcoordinate
    116.0626,                 !- Vertex 4 Xcoordinate
    41.9119,                  !- Vertex 4 Ycoordinate
    14.2;                     !- Vertex 4 Zcoordinate

SHADING:SITE:DETAILED,
    Shading_V373_1,           !- Name
    ,                         !- Transmittance Schedule Name
    autocalculate,            !- Number of Vertices
    116.0626,                 !- Vertex 1 Xcoordinate
    41.9119,                  !- Vertex 1 Ycoordinate
    14.2,                     !- Vertex 1 Zcoordinate
    116.0626,                 !- Vertex 2 Xcoordinate
    41.9119,                  !- Vertex 2 Ycoordinate
    0,                        !- Vertex 2 Zcoordinate
    115.0186,                 !- Vertex 3 Xcoordinate
    28.0599,                  !- Vertex 3 Ycoordinate
    0,                        !- Vertex 3 Zcoordinate
    115.0186,                 !- Vertex 4 Xcoordinate
    28.0599,                  !- Vertex 4 Ycoordinate
    14.2;                     !- Vertex 4 Zcoordinate

SHADING:SITE:DETAILED,
    Shading_V374_1,           !- Name
    ,                         !- Transmittance Schedule Name
    autocalculate,            !- Number of Vertices
    115.0186,                 !- Vertex 1 Xcoordinate
    28.0599,                  !- Vertex 1 Ycoordinate
    14.2,                     !- Vertex 1 Zcoordinate
    115.0186,                 !- Vertex 2 Xcoordinate
    28.0599,                  !- Vertex 2 Ycoordinate
    0,                        !- Vertex 2 Zcoordinate
    108.5286,                 !- Vertex 3 Xcoordinate
    22.4799,                  !- Vertex 3 Ycoordinate
    0,                        !- Vertex 3 Zcoordinate
    108.5286,                 !- Vertex 4 Xcoordinate
    22.4799,                  !- Vertex 4 Ycoordinate
    14.2;                     !- Vertex 4 Zcoordinate

SHADING:SITE:DETAILED,
    Shading_V375_1,           !- Name
    ,                         !- Transmittance Schedule Name
    autocalculate,            !- Number of Vertices
    108.5286,                 !- Vertex 1 Xcoordinate
    22.4799,                  !- Vertex 1 Ycoordinate
    14.2,                     !- Vertex 1 Zcoordinate
    108.5286,                 !- Vertex 2 Xcoordinate
    22.4799,                  !- Vertex 2 Ycoordinate
    0,                        !- Vertex 2 Zcoordinate
    114.8626,                 !- Vertex 3 Xcoordinate
    14.8649,                  !- Vertex 3 Ycoordinate
    0,                        !- Vertex 3 Zcoordinate
    114.8626,                 !- Vertex 4 Xcoordinate
    14.8649,                  !- Vertex 4 Ycoordinate
    14.2;                     !- Vertex 4 Zcoordinate

SHADING:SITE:DETAILED,
    Shading_V377_1,           !- Name
    ,                         !- Transmittance Schedule Name
    autocalculate,            !- Number of Vertices
    117.8586,                 !- Vertex 1 Xcoordinate
    17.5179,                  !- Vertex 1 Ycoordinate
    14.2,                     !- Vertex 1 Zcoordinate
    117.8586,                 !- Vertex 2 Xcoordinate
    17.5179,                  !- Vertex 2 Ycoordinate
    0,                        !- Vertex 2 Zcoordinate
    138.0176,                 !- Vertex 3 Xcoordinate
    -6.0471,                  !- Vertex 3 Ycoordinate
    0,                        !- Vertex 3 Zcoordinate
    138.0176,                 !- Vertex 4 Xcoordinate
    -6.0471,                  !- Vertex 4 Ycoordinate
    14.2;                     !- Vertex 4 Zcoordinate

SHADING:SITE:DETAILED,
    Shading_V433_1,           !- Name
    ,                         !- Transmittance Schedule Name
    autocalculate,            !- Number of Vertices
    104.2166,                 !- Vertex 1 Xcoordinate
    -3.8491,                  !- Vertex 1 Ycoordinate
    3.6,                      !- Vertex 1 Zcoordinate
    104.2166,                 !- Vertex 2 Xcoordinate
    -3.8491,                  !- Vertex 2 Ycoordinate
    0,                        !- Vertex 2 Zcoordinate
    93.6876,                  !- Vertex 3 Xcoordinate
    -3.2141,                  !- Vertex 3 Ycoordinate
    0,                        !- Vertex 3 Zcoordinate
    93.6876,                  !- Vertex 4 Xcoordinate
    -3.2141,                  !- Vertex 4 Ycoordinate
    3.6;                      !- Vertex 4 Zcoordinate

SHADING:SITE:DETAILED,
    Shading_V434_1,           !- Name
    ,                         !- Transmittance Schedule Name
    autocalculate,            !- Number of Vertices
    93.6876,                  !- Vertex 1 Xcoordinate
    -3.2141,                  !- Vertex 1 Ycoordinate
    3.6,                      !- Vertex 1 Zcoordinate
    93.6876,                  !- Vertex 2 Xcoordinate
    -3.2141,                  !- Vertex 2 Ycoordinate
    0,                        !- Vertex 2 Zcoordinate
    90.5666,                  !- Vertex 3 Xcoordinate
    -5.8361,                  !- Vertex 3 Ycoordinate
    0,                        !- Vertex 3 Zcoordinate
    90.5666,                  !- Vertex 4 Xcoordinate
    -5.8361,                  !- Vertex 4 Ycoordinate
    3.6;                      !- Vertex 4 Zcoordinate

SHADING:SITE:DETAILED,
    Shading_V435_1,           !- Name
    ,                         !- Transmittance Schedule Name
    autocalculate,            !- Number of Vertices
    90.5666,                  !- Vertex 1 Xcoordinate
    -5.8361,                  !- Vertex 1 Ycoordinate
    3.6,                      !- Vertex 1 Zcoordinate
    90.5666,                  !- Vertex 2 Xcoordinate
    -5.8361,                  !- Vertex 2 Ycoordinate
    0,                        !- Vertex 2 Zcoordinate
    89.6266,                  !- Vertex 3 Xcoordinate
    -16.4221,                 !- Vertex 3 Ycoordinate
    0,                        !- Vertex 3 Zcoordinate
    89.6266,                  !- Vertex 4 Xcoordinate
    -16.4221,                 !- Vertex 4 Ycoordinate
    3.6;                      !- Vertex 4 Zcoordinate

SHADING:SITE:DETAILED,
    Shading_V446_1,           !- Name
    ,                         !- Transmittance Schedule Name
    autocalculate,            !- Number of Vertices
    140.1066,                 !- Vertex 1 Xcoordinate
    -90.9851,                 !- Vertex 1 Ycoordinate
    6.7,                      !- Vertex 1 Zcoordinate
    140.1066,                 !- Vertex 2 Xcoordinate
    -90.9851,                 !- Vertex 2 Ycoordinate
    0,                        !- Vertex 2 Zcoordinate
    139.7996,                 !- Vertex 3 Xcoordinate
    -95.2041,                 !- Vertex 3 Ycoordinate
    0,                        !- Vertex 3 Zcoordinate
    139.7996,                 !- Vertex 4 Xcoordinate
    -95.2041,                 !- Vertex 4 Ycoordinate
    6.7;                      !- Vertex 4 Zcoordinate

SHADING:SITE:DETAILED,
    Shading_V492_1,           !- Name
    ,                         !- Transmittance Schedule Name
    autocalculate,            !- Number of Vertices
    134.6736,                 !- Vertex 1 Xcoordinate
    70.4429,                  !- Vertex 1 Ycoordinate
    16.4,                     !- Vertex 1 Zcoordinate
    134.6736,                 !- Vertex 2 Xcoordinate
    70.4429,                  !- Vertex 2 Ycoordinate
    0,                        !- Vertex 2 Zcoordinate
    137.2746,                 !- Vertex 3 Xcoordinate
    67.4039,                  !- Vertex 3 Ycoordinate
    0,                        !- Vertex 3 Zcoordinate
    137.2746,                 !- Vertex 4 Xcoordinate
    67.4039,                  !- Vertex 4 Ycoordinate
    16.4;                     !- Vertex 4 Zcoordinate

SHADING:SITE:DETAILED,
    Shading_V26_1,            !- Name
    ,                         !- Transmittance Schedule Name
    autocalculate,            !- Number of Vertices
    -23.4444,                 !- Vertex 1 Xcoordinate
    -35.1181,                 !- Vertex 1 Ycoordinate
    9,                        !- Vertex 1 Zcoordinate
    -23.4444,                 !- Vertex 2 Xcoordinate
    -35.1181,                 !- Vertex 2 Ycoordinate
    0,                        !- Vertex 2 Zcoordinate
    -32.6294,                 !- Vertex 3 Xcoordinate
    -20.2551,                 !- Vertex 3 Ycoordinate
    0,                        !- Vertex 3 Zcoordinate
    -32.6294,                 !- Vertex 4 Xcoordinate
    -20.2551,                 !- Vertex 4 Ycoordinate
    9;                        !- Vertex 4 Zcoordinate

SHADING:SITE:DETAILED,
    Shading_V27_1,            !- Name
    ,                         !- Transmittance Schedule Name
    autocalculate,            !- Number of Vertices
    -32.6294,                 !- Vertex 1 Xcoordinate
    -20.2551,                 !- Vertex 1 Ycoordinate
    9,                        !- Vertex 1 Zcoordinate
    -32.6294,                 !- Vertex 2 Xcoordinate
    -20.2551,                 !- Vertex 2 Ycoordinate
    0,                        !- Vertex 2 Zcoordinate
    -41.3434,                 !- Vertex 3 Xcoordinate
    -25.7181,                 !- Vertex 3 Ycoordinate
    0,                        !- Vertex 3 Zcoordinate
    -41.3434,                 !- Vertex 4 Xcoordinate
    -25.7181,                 !- Vertex 4 Ycoordinate
    9;                        !- Vertex 4 Zcoordinate

SHADING:SITE:DETAILED,
    Shading_V168_1,           !- Name
    ,                         !- Transmittance Schedule Name
    autocalculate,            !- Number of Vertices
    -7.8414,                  !- Vertex 1 Xcoordinate
    -35.4601,                 !- Vertex 1 Ycoordinate
    9,                        !- Vertex 1 Zcoordinate
    -7.8414,                  !- Vertex 2 Xcoordinate
    -35.4601,                 !- Vertex 2 Ycoordinate
    0,                        !- Vertex 2 Zcoordinate
    -16.3814,                 !- Vertex 3 Xcoordinate
    -40.7081,                 !- Vertex 3 Ycoordinate
    0,                        !- Vertex 3 Zcoordinate
    -16.3814,                 !- Vertex 4 Xcoordinate
    -40.7081,                 !- Vertex 4 Ycoordinate
    9;                        !- Vertex 4 Zcoordinate

SHADING:SITE:DETAILED,
    Shading_V171_1,           !- Name
    ,                         !- Transmittance Schedule Name
    autocalculate,            !- Number of Vertices
    1.2196,                   !- Vertex 1 Xcoordinate
    -49.9031,                 !- Vertex 1 Ycoordinate
    9,                        !- Vertex 1 Zcoordinate
    1.2196,                   !- Vertex 2 Xcoordinate
    -49.9031,                 !- Vertex 2 Ycoordinate
    0,                        !- Vertex 2 Zcoordinate
    -7.8414,                  !- Vertex 3 Xcoordinate
    -35.4601,                 !- Vertex 3 Ycoordinate
    0,                        !- Vertex 3 Zcoordinate
    -7.8414,                  !- Vertex 4 Xcoordinate
    -35.4601,                 !- Vertex 4 Ycoordinate
    9;                        !- Vertex 4 Zcoordinate

SHADING:SITE:DETAILED,
    Shading_V11_1,            !- Name
    ,                         !- Transmittance Schedule Name
    autocalculate,            !- Number of Vertices
    17.4006,                  !- Vertex 1 Xcoordinate
    -28.4251,                 !- Vertex 1 Ycoordinate
    16.1,                     !- Vertex 1 Zcoordinate
    17.4006,                  !- Vertex 2 Xcoordinate
    -28.4251,                 !- Vertex 2 Ycoordinate
    0,                        !- Vertex 2 Zcoordinate
    19.8936,                  !- Vertex 3 Xcoordinate
    -31.3371,                 !- Vertex 3 Ycoordinate
    0,                        !- Vertex 3 Zcoordinate
    19.8936,                  !- Vertex 4 Xcoordinate
    -31.3371,                 !- Vertex 4 Ycoordinate
    16.1;                     !- Vertex 4 Zcoordinate

SHADING:SITE:DETAILED,
    Shading_V12_1,            !- Name
    ,                         !- Transmittance Schedule Name
    autocalculate,            !- Number of Vertices
    19.8936,                  !- Vertex 1 Xcoordinate
    -31.3371,                 !- Vertex 1 Ycoordinate
    16.1,                     !- Vertex 1 Zcoordinate
    19.8936,                  !- Vertex 2 Xcoordinate
    -31.3371,                 !- Vertex 2 Ycoordinate
    0,                        !- Vertex 2 Zcoordinate
    12.3846,                  !- Vertex 3 Xcoordinate
    -37.8061,                 !- Vertex 3 Ycoordinate
    0,                        !- Vertex 3 Zcoordinate
    12.3846,                  !- Vertex 4 Xcoordinate
    -37.8061,                 !- Vertex 4 Ycoordinate
    16.1;                     !- Vertex 4 Zcoordinate

SHADING:SITE:DETAILED,
    Shading_V289_1,           !- Name
    ,                         !- Transmittance Schedule Name
    autocalculate,            !- Number of Vertices
    7.7816,                   !- Vertex 1 Xcoordinate
    -155.0041,                !- Vertex 1 Ycoordinate
    7.8,                      !- Vertex 1 Zcoordinate
    7.7816,                   !- Vertex 2 Xcoordinate
    -155.0041,                !- Vertex 2 Ycoordinate
    0,                        !- Vertex 2 Zcoordinate
    -0.7644,                  !- Vertex 3 Xcoordinate
    -157.0501,                !- Vertex 3 Ycoordinate
    0,                        !- Vertex 3 Zcoordinate
    -0.7644,                  !- Vertex 4 Xcoordinate
    -157.0501,                !- Vertex 4 Ycoordinate
    7.8;                      !- Vertex 4 Zcoordinate

SHADING:SITE:DETAILED,
    Shading_V292_1,           !- Name
    ,                         !- Transmittance Schedule Name
    autocalculate,            !- Number of Vertices
    11.7976,                  !- Vertex 1 Xcoordinate
    -171.9651,                !- Vertex 1 Ycoordinate
    7.8,                      !- Vertex 1 Zcoordinate
    11.7976,                  !- Vertex 2 Xcoordinate
    -171.9651,                !- Vertex 2 Ycoordinate
    0,                        !- Vertex 2 Zcoordinate
    7.7816,                   !- Vertex 3 Xcoordinate
    -155.0041,                !- Vertex 3 Ycoordinate
    0,                        !- Vertex 3 Zcoordinate
    7.7816,                   !- Vertex 4 Xcoordinate
    -155.0041,                !- Vertex 4 Ycoordinate
    7.8;                      !- Vertex 4 Zcoordinate

SHADING:SITE:DETAILED,
    Shading_V503_1,           !- Name
    ,                         !- Transmittance Schedule Name
    autocalculate,            !- Number of Vertices
    31.5116,                  !- Vertex 1 Xcoordinate
    -87.6091,                 !- Vertex 1 Ycoordinate
    8.3,                      !- Vertex 1 Zcoordinate
    31.5116,                  !- Vertex 2 Xcoordinate
    -87.6091,                 !- Vertex 2 Ycoordinate
    0,                        !- Vertex 2 Zcoordinate
    23.3876,                  !- Vertex 3 Xcoordinate
    -79.4251,                 !- Vertex 3 Ycoordinate
    0,                        !- Vertex 3 Zcoordinate
    23.3876,                  !- Vertex 4 Xcoordinate
    -79.4251,                 !- Vertex 4 Ycoordinate
    8.3;                      !- Vertex 4 Zcoordinate

SHADING:SITE:DETAILED,
    Shading_V504_1,           !- Name
    ,                         !- Transmittance Schedule Name
    autocalculate,            !- Number of Vertices
    23.3876,                  !- Vertex 1 Xcoordinate
    -79.4251,                 !- Vertex 1 Ycoordinate
    8.3,                      !- Vertex 1 Zcoordinate
    23.3876,                  !- Vertex 2 Xcoordinate
    -79.4251,                 !- Vertex 2 Ycoordinate
    0,                        !- Vertex 2 Zcoordinate
    15.9756,                  !- Vertex 3 Xcoordinate
    -86.8821,                 !- Vertex 3 Ycoordinate
    0,                        !- Vertex 3 Zcoordinate
    15.9756,                  !- Vertex 4 Xcoordinate
    -86.8821,                 !- Vertex 4 Ycoordinate
    8.3;                      !- Vertex 4 Zcoordinate

SHADING:SITE:DETAILED,
    Shading_V184_1,           !- Name
    ,                         !- Transmittance Schedule Name
    autocalculate,            !- Number of Vertices
    -163.9564,                !- Vertex 1 Xcoordinate
    49.0579,                  !- Vertex 1 Ycoordinate
    12.7,                     !- Vertex 1 Zcoordinate
    -163.9564,                !- Vertex 2 Xcoordinate
    49.0579,                  !- Vertex 2 Ycoordinate
    0,                        !- Vertex 2 Zcoordinate
    -151.3954,                !- Vertex 3 Xcoordinate
    59.8839,                  !- Vertex 3 Ycoordinate
    0,                        !- Vertex 3 Zcoordinate
    -151.3954,                !- Vertex 4 Xcoordinate
    59.8839,                  !- Vertex 4 Ycoordinate
    12.7;                     !- Vertex 4 Zcoordinate

SHADING:SITE:DETAILED,
    Shading_V188_1,           !- Name
    ,                         !- Transmittance Schedule Name
    autocalculate,            !- Number of Vertices
    -120.7194,                !- Vertex 1 Xcoordinate
    48.2649,                  !- Vertex 1 Ycoordinate
    12.7,                     !- Vertex 1 Zcoordinate
    -120.7194,                !- Vertex 2 Xcoordinate
    48.2649,                  !- Vertex 2 Ycoordinate
    0,                        !- Vertex 2 Zcoordinate
    -119.9304,                !- Vertex 3 Xcoordinate
    57.5259,                  !- Vertex 3 Ycoordinate
    0,                        !- Vertex 3 Zcoordinate
    -119.9304,                !- Vertex 4 Xcoordinate
    57.5259,                  !- Vertex 4 Ycoordinate
    12.7;                     !- Vertex 4 Zcoordinate

SHADING:SITE:DETAILED,
    Shading_V189_1,           !- Name
    ,                         !- Transmittance Schedule Name
    autocalculate,            !- Number of Vertices
    -119.9304,                !- Vertex 1 Xcoordinate
    57.5259,                  !- Vertex 1 Ycoordinate
    12.7,                     !- Vertex 1 Zcoordinate
    -119.9304,                !- Vertex 2 Xcoordinate
    57.5259,                  !- Vertex 2 Ycoordinate
    0,                        !- Vertex 2 Zcoordinate
    -113.0164,                !- Vertex 3 Xcoordinate
    57.0069,                  !- Vertex 3 Ycoordinate
    0,                        !- Vertex 3 Zcoordinate
    -113.0164,                !- Vertex 4 Xcoordinate
    57.0069,                  !- Vertex 4 Ycoordinate
    12.7;                     !- Vertex 4 Zcoordinate

SHADING:SITE:DETAILED,
    Shading_V227_1,           !- Name
    ,                         !- Transmittance Schedule Name
    autocalculate,            !- Number of Vertices
    -75.1359,                 !- Vertex 1 Xcoordinate
    54.1466,                  !- Vertex 1 Ycoordinate
    11.3,                     !- Vertex 1 Zcoordinate
    -75.1359,                 !- Vertex 2 Xcoordinate
    54.1466,                  !- Vertex 2 Ycoordinate
    0,                        !- Vertex 2 Zcoordinate
    -64.3684,                 !- Vertex 3 Xcoordinate
    53.3479,                  !- Vertex 3 Ycoordinate
    0,                        !- Vertex 3 Zcoordinate
    -64.3684,                 !- Vertex 4 Xcoordinate
    53.3479,                  !- Vertex 4 Ycoordinate
    11.3;                     !- Vertex 4 Zcoordinate

SHADING:SITE:DETAILED,
    Shading_V229_1,           !- Name
    ,                         !- Transmittance Schedule Name
    autocalculate,            !- Number of Vertices
    -58.2874,                 !- Vertex 1 Xcoordinate
    46.3229,                  !- Vertex 1 Ycoordinate
    11.3,                     !- Vertex 1 Zcoordinate
    -58.2874,                 !- Vertex 2 Xcoordinate
    46.3229,                  !- Vertex 2 Ycoordinate
    0,                        !- Vertex 2 Zcoordinate
    -50.6474,                 !- Vertex 3 Xcoordinate
    52.9099,                  !- Vertex 3 Ycoordinate
    0,                        !- Vertex 3 Zcoordinate
    -50.6474,                 !- Vertex 4 Xcoordinate
    52.9099,                  !- Vertex 4 Ycoordinate
    11.3;                     !- Vertex 4 Zcoordinate

SHADING:SITE:DETAILED,
    Shading_V230_1,           !- Name
    ,                         !- Transmittance Schedule Name
    autocalculate,            !- Number of Vertices
    -50.6474,                 !- Vertex 1 Xcoordinate
    52.9099,                  !- Vertex 1 Ycoordinate
    11.3,                     !- Vertex 1 Zcoordinate
    -50.6474,                 !- Vertex 2 Xcoordinate
    52.9099,                  !- Vertex 2 Ycoordinate
    0,                        !- Vertex 2 Zcoordinate
    -58.1564,                 !- Vertex 3 Xcoordinate
    61.6259,                  !- Vertex 3 Ycoordinate
    0,                        !- Vertex 3 Zcoordinate
    -58.1564,                 !- Vertex 4 Xcoordinate
    61.6259,                  !- Vertex 4 Ycoordinate
    11.3;                     !- Vertex 4 Zcoordinate

SHADING:SITE:DETAILED,
    Shading_V231_1,           !- Name
    ,                         !- Transmittance Schedule Name
    autocalculate,            !- Number of Vertices
    -58.1564,                 !- Vertex 1 Xcoordinate
    61.6259,                  !- Vertex 1 Ycoordinate
    11.3,                     !- Vertex 1 Zcoordinate
    -58.1564,                 !- Vertex 2 Xcoordinate
    61.6259,                  !- Vertex 2 Ycoordinate
    0,                        !- Vertex 2 Zcoordinate
    -57.8414,                 !- Vertex 3 Xcoordinate
    65.9879,                  !- Vertex 3 Ycoordinate
    0,                        !- Vertex 3 Zcoordinate
    -57.8414,                 !- Vertex 4 Xcoordinate
    65.9879,                  !- Vertex 4 Ycoordinate
    11.3;                     !- Vertex 4 Zcoordinate

SHADING:SITE:DETAILED,
    Shading_V276_1,           !- Name
    ,                         !- Transmittance Schedule Name
    autocalculate,            !- Number of Vertices
    -83.1344,                 !- Vertex 1 Xcoordinate
    54.7399,                  !- Vertex 1 Ycoordinate
    17.1,                     !- Vertex 1 Zcoordinate
    -83.1344,                 !- Vertex 2 Xcoordinate
    54.7399,                  !- Vertex 2 Ycoordinate
    0,                        !- Vertex 2 Zcoordinate
    -75.1359,                 !- Vertex 3 Xcoordinate
    54.1466,                  !- Vertex 3 Ycoordinate
    0,                        !- Vertex 3 Zcoordinate
    -75.1359,                 !- Vertex 4 Xcoordinate
    54.1466,                  !- Vertex 4 Ycoordinate
    17.1;                     !- Vertex 4 Zcoordinate

SHADING:SITE:DETAILED,
    Shading_V280_1,           !- Name
    ,                         !- Transmittance Schedule Name
    autocalculate,            !- Number of Vertices
    -43.2244,                 !- Vertex 1 Xcoordinate
    49.5869,                  !- Vertex 1 Ycoordinate
    18.7,                     !- Vertex 1 Zcoordinate
    -43.2244,                 !- Vertex 2 Xcoordinate
    49.5869,                  !- Vertex 2 Ycoordinate
    0,                        !- Vertex 2 Zcoordinate
    -34.9604,                 !- Vertex 3 Xcoordinate
    39.9639,                  !- Vertex 3 Ycoordinate
    0,                        !- Vertex 3 Zcoordinate
    -34.9604,                 !- Vertex 4 Xcoordinate
    39.9639,                  !- Vertex 4 Ycoordinate
    18.7;                     !- Vertex 4 Zcoordinate

SHADING:SITE:DETAILED,
    Shading_V282_1,           !- Name
    ,                         !- Transmittance Schedule Name
    autocalculate,            !- Number of Vertices
    -27.7894,                 !- Vertex 1 Xcoordinate
    46.1299,                  !- Vertex 1 Ycoordinate
    18.7,                     !- Vertex 1 Zcoordinate
    -27.7894,                 !- Vertex 2 Xcoordinate
    46.1299,                  !- Vertex 2 Ycoordinate
    0,                        !- Vertex 2 Zcoordinate
    -22.8064,                 !- Vertex 3 Xcoordinate
    40.3269,                  !- Vertex 3 Ycoordinate
    0,                        !- Vertex 3 Zcoordinate
    -22.8064,                 !- Vertex 4 Xcoordinate
    40.3269,                  !- Vertex 4 Ycoordinate
    18.7;                     !- Vertex 4 Zcoordinate

SHADING:SITE:DETAILED,
    Shading_V283_1,           !- Name
    ,                         !- Transmittance Schedule Name
    autocalculate,            !- Number of Vertices
    -22.8064,                 !- Vertex 1 Xcoordinate
    40.3269,                  !- Vertex 1 Ycoordinate
    18.7,                     !- Vertex 1 Zcoordinate
    -22.8064,                 !- Vertex 2 Xcoordinate
    40.3269,                  !- Vertex 2 Ycoordinate
    0,                        !- Vertex 2 Zcoordinate
    -15.1644,                 !- Vertex 3 Xcoordinate
    46.9149,                  !- Vertex 3 Ycoordinate
    0,                        !- Vertex 3 Zcoordinate
    -15.1644,                 !- Vertex 4 Xcoordinate
    46.9149,                  !- Vertex 4 Ycoordinate
    18.7;                     !- Vertex 4 Zcoordinate

SHADING:SITE:DETAILED,
    Shading_V449_1,           !- Name
    ,                         !- Transmittance Schedule Name
    autocalculate,            !- Number of Vertices
    -32.0434,                 !- Vertex 1 Xcoordinate
    -149.5541,                !- Vertex 1 Ycoordinate
    6.4,                      !- Vertex 1 Zcoordinate
    -32.0434,                 !- Vertex 2 Xcoordinate
    -149.5541,                !- Vertex 2 Ycoordinate
    0,                        !- Vertex 2 Zcoordinate
    -42.0604,                 !- Vertex 3 Xcoordinate
    -151.9551,                !- Vertex 3 Ycoordinate
    0,                        !- Vertex 3 Zcoordinate
    -42.0604,                 !- Vertex 4 Xcoordinate
    -151.9551,                !- Vertex 4 Ycoordinate
    6.4;                      !- Vertex 4 Zcoordinate

SHADING:SITE:DETAILED,
    Shading_V452_1,           !- Name
    ,                         !- Transmittance Schedule Name
    autocalculate,            !- Number of Vertices
    -25.2144,                 !- Vertex 1 Xcoordinate
    -177.6951,                !- Vertex 1 Ycoordinate
    6.4,                      !- Vertex 1 Zcoordinate
    -25.2144,                 !- Vertex 2 Xcoordinate
    -177.6951,                !- Vertex 2 Ycoordinate
    0,                        !- Vertex 2 Zcoordinate
    -32.0434,                 !- Vertex 3 Xcoordinate
    -149.5541,                !- Vertex 3 Ycoordinate
    0,                        !- Vertex 3 Zcoordinate
    -32.0434,                 !- Vertex 4 Xcoordinate
    -149.5541,                !- Vertex 4 Ycoordinate
    6.4;                      !- Vertex 4 Zcoordinate

SHADING:SITE:DETAILED,
    Shading_V35_1,            !- Name
    ,                         !- Transmittance Schedule Name
    autocalculate,            !- Number of Vertices
    68.6906,                  !- Vertex 1 Xcoordinate
    122.3809,                 !- Vertex 1 Ycoordinate
    12.4,                     !- Vertex 1 Zcoordinate
    68.6906,                  !- Vertex 2 Xcoordinate
    122.3809,                 !- Vertex 2 Ycoordinate
    0,                        !- Vertex 2 Zcoordinate
    76.2986,                  !- Vertex 3 Xcoordinate
    128.9239,                 !- Vertex 3 Ycoordinate
    0,                        !- Vertex 3 Zcoordinate
    76.2986,                  !- Vertex 4 Xcoordinate
    128.9239,                 !- Vertex 4 Ycoordinate
    12.4;                     !- Vertex 4 Zcoordinate

SHADING:SITE:DETAILED,
    Shading_V70_1,            !- Name
    ,                         !- Transmittance Schedule Name
    autocalculate,            !- Number of Vertices
    10.4446,                  !- Vertex 1 Xcoordinate
    70.0179,                  !- Vertex 1 Ycoordinate
    15,                       !- Vertex 1 Zcoordinate
    10.4446,                  !- Vertex 2 Xcoordinate
    70.0179,                  !- Vertex 2 Ycoordinate
    0,                        !- Vertex 2 Zcoordinate
    15.4726,                  !- Vertex 3 Xcoordinate
    74.3209,                  !- Vertex 3 Ycoordinate
    0,                        !- Vertex 3 Zcoordinate
    15.4726,                  !- Vertex 4 Xcoordinate
    74.3209,                  !- Vertex 4 Ycoordinate
    15;                       !- Vertex 4 Zcoordinate

SHADING:SITE:DETAILED,
    Shading_V73_1,            !- Name
    ,                         !- Transmittance Schedule Name
    autocalculate,            !- Number of Vertices
    24.7096,                  !- Vertex 1 Xcoordinate
    88.6459,                  !- Vertex 1 Ycoordinate
    15,                       !- Vertex 1 Zcoordinate
    24.7096,                  !- Vertex 2 Xcoordinate
    88.6459,                  !- Vertex 2 Ycoordinate
    0,                        !- Vertex 2 Zcoordinate
    27.9126,                  !- Vertex 3 Xcoordinate
    84.9659,                  !- Vertex 3 Ycoordinate
    0,                        !- Vertex 3 Zcoordinate
    27.9126,                  !- Vertex 4 Xcoordinate
    84.9659,                  !- Vertex 4 Ycoordinate
    15;                       !- Vertex 4 Zcoordinate

SHADING:SITE:DETAILED,
    Shading_V74_1,            !- Name
    ,                         !- Transmittance Schedule Name
    autocalculate,            !- Number of Vertices
    27.9126,                  !- Vertex 1 Xcoordinate
    84.9659,                  !- Vertex 1 Ycoordinate
    15,                       !- Vertex 1 Zcoordinate
    27.9126,                  !- Vertex 2 Xcoordinate
    84.9659,                  !- Vertex 2 Ycoordinate
    0,                        !- Vertex 2 Zcoordinate
    32.9946,                  !- Vertex 3 Xcoordinate
    89.3159,                  !- Vertex 3 Ycoordinate
    0,                        !- Vertex 3 Zcoordinate
    32.9946,                  !- Vertex 4 Xcoordinate
    89.3159,                  !- Vertex 4 Ycoordinate
    15;                       !- Vertex 4 Zcoordinate

SHADING:SITE:DETAILED,
    Shading_V103_1,           !- Name
    ,                         !- Transmittance Schedule Name
    autocalculate,            !- Number of Vertices
    16.9066,                  !- Vertex 1 Xcoordinate
    62.2599,                  !- Vertex 1 Ycoordinate
    15.5,                     !- Vertex 1 Zcoordinate
    16.9066,                  !- Vertex 2 Xcoordinate
    62.2599,                  !- Vertex 2 Ycoordinate
    0,                        !- Vertex 2 Zcoordinate
    20.3646,                  !- Vertex 3 Xcoordinate
    58.2799,                  !- Vertex 3 Ycoordinate
    0,                        !- Vertex 3 Zcoordinate
    20.3646,                  !- Vertex 4 Xcoordinate
    58.2799,                  !- Vertex 4 Ycoordinate
    15.5;                     !- Vertex 4 Zcoordinate

SHADING:SITE:DETAILED,
    Shading_V104_1,           !- Name
    ,                         !- Transmittance Schedule Name
    autocalculate,            !- Number of Vertices
    20.3646,                  !- Vertex 1 Xcoordinate
    58.2799,                  !- Vertex 1 Ycoordinate
    15.5,                     !- Vertex 1 Zcoordinate
    20.3646,                  !- Vertex 2 Xcoordinate
    58.2799,                  !- Vertex 2 Ycoordinate
    0,                        !- Vertex 2 Zcoordinate
    12.7856,                  !- Vertex 3 Xcoordinate
    51.8579,                  !- Vertex 3 Ycoordinate
    0,                        !- Vertex 3 Zcoordinate
    12.7856,                  !- Vertex 4 Xcoordinate
    51.8579,                  !- Vertex 4 Ycoordinate
    15.5;                     !- Vertex 4 Zcoordinate

SHADING:SITE:DETAILED,
    Shading_V285_1,           !- Name
    ,                         !- Transmittance Schedule Name
    autocalculate,            !- Number of Vertices
    -20.9914,                 !- Vertex 1 Xcoordinate
    53.6809,                  !- Vertex 1 Ycoordinate
    18.7,                     !- Vertex 1 Zcoordinate
    -20.9914,                 !- Vertex 2 Xcoordinate
    53.6809,                  !- Vertex 2 Ycoordinate
    0,                        !- Vertex 2 Zcoordinate
    -15.7244,                 !- Vertex 3 Xcoordinate
    58.2939,                  !- Vertex 3 Ycoordinate
    0,                        !- Vertex 3 Zcoordinate
    -15.7244,                 !- Vertex 4 Xcoordinate
    58.2939,                  !- Vertex 4 Ycoordinate
    18.7;                     !- Vertex 4 Zcoordinate

SHADING:SITE:DETAILED,
    Shading_V427_1,           !- Name
    ,                         !- Transmittance Schedule Name
    autocalculate,            !- Number of Vertices
    45.4276,                  !- Vertex 1 Xcoordinate
    99.9549,                  !- Vertex 1 Ycoordinate
    15.9,                     !- Vertex 1 Zcoordinate
    45.4276,                  !- Vertex 2 Xcoordinate
    99.9549,                  !- Vertex 2 Ycoordinate
    0,                        !- Vertex 2 Zcoordinate
    53.1126,                  !- Vertex 3 Xcoordinate
    106.5309,                 !- Vertex 3 Ycoordinate
    0,                        !- Vertex 3 Zcoordinate
    53.1126,                  !- Vertex 4 Xcoordinate
    106.5309,                 !- Vertex 4 Ycoordinate
    15.9;                     !- Vertex 4 Zcoordinate

SHADING:SITE:DETAILED,
    Shading_V72_1,            !- Name
    ,                         !- Transmittance Schedule Name
    autocalculate,            !- Number of Vertices
    12.2896,                  !- Vertex 1 Xcoordinate
    77.9379,                  !- Vertex 1 Ycoordinate
    15,                       !- Vertex 1 Zcoordinate
    12.2896,                  !- Vertex 2 Xcoordinate
    77.9379,                  !- Vertex 2 Ycoordinate
    0,                        !- Vertex 2 Zcoordinate
    24.7096,                  !- Vertex 3 Xcoordinate
    88.6459,                  !- Vertex 3 Ycoordinate
    0,                        !- Vertex 3 Zcoordinate
    24.7096,                  !- Vertex 4 Xcoordinate
    88.6459,                  !- Vertex 4 Ycoordinate
    15;                       !- Vertex 4 Zcoordinate

SHADING:SITE:DETAILED,
    Shading_V284_1,           !- Name
    ,                         !- Transmittance Schedule Name
    autocalculate,            !- Number of Vertices
    -15.1644,                 !- Vertex 1 Xcoordinate
    46.9149,                  !- Vertex 1 Ycoordinate
    18.7,                     !- Vertex 1 Zcoordinate
    -15.1644,                 !- Vertex 2 Xcoordinate
    46.9149,                  !- Vertex 2 Ycoordinate
    0,                        !- Vertex 2 Zcoordinate
    -20.9914,                 !- Vertex 3 Xcoordinate
    53.6809,                  !- Vertex 3 Ycoordinate
    0,                        !- Vertex 3 Zcoordinate
    -20.9914,                 !- Vertex 4 Xcoordinate
    53.6809,                  !- Vertex 4 Ycoordinate
    18.7;                     !- Vertex 4 Zcoordinate

SHADING:SITE:DETAILED,
    Shading_V84_1,            !- Name
    ,                         !- Transmittance Schedule Name
    autocalculate,            !- Number of Vertices
    -17.1934,                 !- Vertex 1 Xcoordinate
    -72.0951,                 !- Vertex 1 Ycoordinate
    8,                        !- Vertex 1 Zcoordinate
    -17.1934,                 !- Vertex 2 Xcoordinate
    -72.0951,                 !- Vertex 2 Ycoordinate
    0,                        !- Vertex 2 Zcoordinate
    -25.7204,                 !- Vertex 3 Xcoordinate
    -78.2651,                 !- Vertex 3 Ycoordinate
    0,                        !- Vertex 3 Zcoordinate
    -25.7204,                 !- Vertex 4 Xcoordinate
    -78.2651,                 !- Vertex 4 Ycoordinate
    8;                        !- Vertex 4 Zcoordinate

SHADING:SITE:DETAILED,
    Shading_V18_1,            !- Name
    ,                         !- Transmittance Schedule Name
    autocalculate,            !- Number of Vertices
    71.0496,                  !- Vertex 1 Xcoordinate
    -145.1151,                !- Vertex 1 Ycoordinate
    6.6,                      !- Vertex 1 Zcoordinate
    71.0496,                  !- Vertex 2 Xcoordinate
    -145.1151,                !- Vertex 2 Ycoordinate
    0,                        !- Vertex 2 Zcoordinate
    61.4316,                  !- Vertex 3 Xcoordinate
    -148.7961,                !- Vertex 3 Ycoordinate
    0,                        !- Vertex 3 Zcoordinate
    61.4316,                  !- Vertex 4 Xcoordinate
    -148.7961,                !- Vertex 4 Ycoordinate
    6.6;                      !- Vertex 4 Zcoordinate

SHADING:SITE:DETAILED,
    Shading_V25_1,            !- Name
    ,                         !- Transmittance Schedule Name
    autocalculate,            !- Number of Vertices
    -32.1774,                 !- Vertex 1 Xcoordinate
    -40.5341,                 !- Vertex 1 Ycoordinate
    9,                        !- Vertex 1 Zcoordinate
    -32.1774,                 !- Vertex 2 Xcoordinate
    -40.5341,                 !- Vertex 2 Ycoordinate
    0,                        !- Vertex 2 Zcoordinate
    -23.4444,                 !- Vertex 3 Xcoordinate
    -35.1181,                 !- Vertex 3 Ycoordinate
    0,                        !- Vertex 3 Zcoordinate
    -23.4444,                 !- Vertex 4 Xcoordinate
    -35.1181,                 !- Vertex 4 Ycoordinate
    9;                        !- Vertex 4 Zcoordinate

SHADING:SITE:DETAILED,
    Shading_V8_1,             !- Name
    ,                         !- Transmittance Schedule Name
    autocalculate,            !- Number of Vertices
    38.36,                    !- Vertex 1 Xcoordinate
    -27.4751,                 !- Vertex 1 Ycoordinate
    16.1,                     !- Vertex 1 Zcoordinate
    38.36,                    !- Vertex 2 Xcoordinate
    -27.4751,                 !- Vertex 2 Ycoordinate
    0,                        !- Vertex 2 Zcoordinate
    27.6446,                  !- Vertex 3 Xcoordinate
    -26.6421,                 !- Vertex 3 Ycoordinate
    0,                        !- Vertex 3 Zcoordinate
    27.6446,                  !- Vertex 4 Xcoordinate
    -26.6421,                 !- Vertex 4 Ycoordinate
    16.1;                     !- Vertex 4 Zcoordinate

SHADING:SITE:DETAILED,
    Shading_V9_1,             !- Name
    ,                         !- Transmittance Schedule Name
    autocalculate,            !- Number of Vertices
    27.6446,                  !- Vertex 1 Xcoordinate
    -26.6421,                 !- Vertex 1 Ycoordinate
    16.1,                     !- Vertex 1 Zcoordinate
    27.6446,                  !- Vertex 2 Xcoordinate
    -26.6421,                 !- Vertex 2 Ycoordinate
    0,                        !- Vertex 2 Zcoordinate
    24.1536,                  !- Vertex 3 Xcoordinate
    -22.5631,                 !- Vertex 3 Ycoordinate
    0,                        !- Vertex 3 Zcoordinate
    24.1536,                  !- Vertex 4 Xcoordinate
    -22.5631,                 !- Vertex 4 Ycoordinate
    16.1;                     !- Vertex 4 Zcoordinate

SHADING:SITE:DETAILED,
    Shading_V131_1,           !- Name
    ,                         !- Transmittance Schedule Name
    autocalculate,            !- Number of Vertices
    113.3386,                 !- Vertex 1 Xcoordinate
    -49.8731,                 !- Vertex 1 Ycoordinate
    15.5,                     !- Vertex 1 Zcoordinate
    113.3386,                 !- Vertex 2 Xcoordinate
    -49.8731,                 !- Vertex 2 Ycoordinate
    0,                        !- Vertex 2 Zcoordinate
    105.5906,                 !- Vertex 3 Xcoordinate
    -56.6351,                 !- Vertex 3 Ycoordinate
    0,                        !- Vertex 3 Zcoordinate
    105.5906,                 !- Vertex 4 Xcoordinate
    -56.6351,                 !- Vertex 4 Ycoordinate
    15.5;                     !- Vertex 4 Zcoordinate

SHADING:SITE:DETAILED,
    Shading_V222_1,           !- Name
    ,                         !- Transmittance Schedule Name
    autocalculate,            !- Number of Vertices
    75.7876,                  !- Vertex 1 Xcoordinate
    58.9839,                  !- Vertex 1 Ycoordinate
    14.3,                     !- Vertex 1 Zcoordinate
    75.7876,                  !- Vertex 2 Xcoordinate
    58.9839,                  !- Vertex 2 Ycoordinate
    0,                        !- Vertex 2 Zcoordinate
    78.8276,                  !- Vertex 3 Xcoordinate
    61.5839,                  !- Vertex 3 Ycoordinate
    0,                        !- Vertex 3 Zcoordinate
    78.8276,                  !- Vertex 4 Xcoordinate
    61.5839,                  !- Vertex 4 Ycoordinate
    14.3;                     !- Vertex 4 Zcoordinate

SHADING:SITE:DETAILED,
    Shading_V352_1,           !- Name
    ,                         !- Transmittance Schedule Name
    autocalculate,            !- Number of Vertices
    51.7546,                  !- Vertex 1 Xcoordinate
    -24.7651,                 !- Vertex 1 Ycoordinate
    12.2,                     !- Vertex 1 Zcoordinate
    51.7546,                  !- Vertex 2 Xcoordinate
    -24.7651,                 !- Vertex 2 Ycoordinate
    0,                        !- Vertex 2 Zcoordinate
    47.7366,                  !- Vertex 3 Xcoordinate
    -28.2041,                 !- Vertex 3 Ycoordinate
    0,                        !- Vertex 3 Zcoordinate
    47.7366,                  !- Vertex 4 Xcoordinate
    -28.2041,                 !- Vertex 4 Ycoordinate
    12.2;                     !- Vertex 4 Zcoordinate

SHADING:SITE:DETAILED,
    Shading_V353_1,           !- Name
    ,                         !- Transmittance Schedule Name
    autocalculate,            !- Number of Vertices
    47.7366,                  !- Vertex 1 Xcoordinate
    -28.2041,                 !- Vertex 1 Ycoordinate
    12.2,                     !- Vertex 1 Zcoordinate
    47.7366,                  !- Vertex 2 Xcoordinate
    -28.2041,                 !- Vertex 2 Ycoordinate
    0,                        !- Vertex 2 Zcoordinate
    38.36,                    !- Vertex 3 Xcoordinate
    -27.4751,                 !- Vertex 3 Ycoordinate
    0,                        !- Vertex 3 Zcoordinate
    38.36,                    !- Vertex 4 Xcoordinate
    -27.4751,                 !- Vertex 4 Ycoordinate
    12.2;                     !- Vertex 4 Zcoordinate

SHADING:SITE:DETAILED,
    Shading_V487_1,           !- Name
    ,                         !- Transmittance Schedule Name
    autocalculate,            !- Number of Vertices
    155.0736,                 !- Vertex 1 Xcoordinate
    88.0049,                  !- Vertex 1 Ycoordinate
    16.4,                     !- Vertex 1 Zcoordinate
    155.0736,                 !- Vertex 2 Xcoordinate
    88.0049,                  !- Vertex 2 Ycoordinate
    0,                        !- Vertex 2 Zcoordinate
    149.9656,                 !- Vertex 3 Xcoordinate
    83.6339,                  !- Vertex 3 Ycoordinate
    0,                        !- Vertex 3 Zcoordinate
    149.9656,                 !- Vertex 4 Xcoordinate
    83.6339,                  !- Vertex 4 Ycoordinate
    16.4;                     !- Vertex 4 Zcoordinate

SHADING:SITE:DETAILED,
    Shading_V488_1,           !- Name
    ,                         !- Transmittance Schedule Name
    autocalculate,            !- Number of Vertices
    149.9656,                 !- Vertex 1 Xcoordinate
    83.6339,                  !- Vertex 1 Ycoordinate
    16.4,                     !- Vertex 1 Zcoordinate
    149.9656,                 !- Vertex 2 Xcoordinate
    83.6339,                  !- Vertex 2 Ycoordinate
    0,                        !- Vertex 2 Zcoordinate
    152.5796,                 !- Vertex 3 Xcoordinate
    80.6049,                  !- Vertex 3 Ycoordinate
    0,                        !- Vertex 3 Zcoordinate
    152.5796,                 !- Vertex 4 Xcoordinate
    80.6049,                  !- Vertex 4 Ycoordinate
    16.4;                     !- Vertex 4 Zcoordinate

SHADING:SITE:DETAILED,
    Shading_V491_1,           !- Name
    ,                         !- Transmittance Schedule Name
    autocalculate,            !- Number of Vertices
    139.7606,                 !- Vertex 1 Xcoordinate
    74.7809,                  !- Vertex 1 Ycoordinate
    16.4,                     !- Vertex 1 Zcoordinate
    139.7606,                 !- Vertex 2 Xcoordinate
    74.7809,                  !- Vertex 2 Ycoordinate
    0,                        !- Vertex 2 Zcoordinate
    134.6736,                 !- Vertex 3 Xcoordinate
    70.4429,                  !- Vertex 3 Ycoordinate
    0,                        !- Vertex 3 Zcoordinate
    134.6736,                 !- Vertex 4 Xcoordinate
    70.4429,                  !- Vertex 4 Ycoordinate
    16.4;                     !- Vertex 4 Zcoordinate

SHADING:SITE:DETAILED,
    Shading_V10_1,            !- Name
    ,                         !- Transmittance Schedule Name
    autocalculate,            !- Number of Vertices
    24.1536,                  !- Vertex 1 Xcoordinate
    -22.5631,                 !- Vertex 1 Ycoordinate
    16.1,                     !- Vertex 1 Zcoordinate
    24.1536,                  !- Vertex 2 Xcoordinate
    -22.5631,                 !- Vertex 2 Ycoordinate
    0,                        !- Vertex 2 Zcoordinate
    17.4006,                  !- Vertex 3 Xcoordinate
    -28.4251,                 !- Vertex 3 Ycoordinate
    0,                        !- Vertex 3 Zcoordinate
    17.4006,                  !- Vertex 4 Xcoordinate
    -28.4251,                 !- Vertex 4 Ycoordinate
    16.1;                     !- Vertex 4 Zcoordinate

SHADING:SITE:DETAILED,
    Shading_V83_1,            !- Name
    ,                         !- Transmittance Schedule Name
    autocalculate,            !- Number of Vertices
    -10.3974,                 !- Vertex 1 Xcoordinate
    -81.4281,                 !- Vertex 1 Ycoordinate
    8,                        !- Vertex 1 Zcoordinate
    -10.3974,                 !- Vertex 2 Xcoordinate
    -81.4281,                 !- Vertex 2 Ycoordinate
    0,                        !- Vertex 2 Zcoordinate
    -17.1934,                 !- Vertex 3 Xcoordinate
    -72.0951,                 !- Vertex 3 Ycoordinate
    0,                        !- Vertex 3 Zcoordinate
    -17.1934,                 !- Vertex 4 Xcoordinate
    -72.0951,                 !- Vertex 4 Ycoordinate
    8;                        !- Vertex 4 Zcoordinate

SHADING:SITE:DETAILED,
    Shading_V65_1,            !- Name
    ,                         !- Transmittance Schedule Name
    autocalculate,            !- Number of Vertices
    -9.6984,                  !- Vertex 1 Xcoordinate
    83.4499,                  !- Vertex 1 Ycoordinate
    15,                       !- Vertex 1 Zcoordinate
    -9.6984,                  !- Vertex 2 Xcoordinate
    83.4499,                  !- Vertex 2 Ycoordinate
    0,                        !- Vertex 2 Zcoordinate
    -4.1844,                  !- Vertex 3 Xcoordinate
    77.0299,                  !- Vertex 3 Ycoordinate
    0,                        !- Vertex 3 Zcoordinate
    -4.1844,                  !- Vertex 4 Xcoordinate
    77.0299,                  !- Vertex 4 Ycoordinate
    15;                       !- Vertex 4 Zcoordinate

SHADING:SITE:DETAILED,
    Shading_V21_1,            !- Name
    ,                         !- Transmittance Schedule Name
    autocalculate,            !- Number of Vertices
    -67.2004,                 !- Vertex 1 Xcoordinate
    -116.9301,                !- Vertex 1 Ycoordinate
    6.9,                      !- Vertex 1 Zcoordinate
    -67.2004,                 !- Vertex 2 Xcoordinate
    -116.9301,                !- Vertex 2 Ycoordinate
    0,                        !- Vertex 2 Zcoordinate
    -62.4194,                 !- Vertex 3 Xcoordinate
    -107.9191,                !- Vertex 3 Ycoordinate
    0,                        !- Vertex 3 Zcoordinate
    -62.4194,                 !- Vertex 4 Xcoordinate
    -107.9191,                !- Vertex 4 Ycoordinate
    6.9;                      !- Vertex 4 Zcoordinate

SHADING:SITE:DETAILED,
    Shading_V22_1,            !- Name
    ,                         !- Transmittance Schedule Name
    autocalculate,            !- Number of Vertices
    -62.4194,                 !- Vertex 1 Xcoordinate
    -107.9191,                !- Vertex 1 Ycoordinate
    6.9,                      !- Vertex 1 Zcoordinate
    -62.4194,                 !- Vertex 2 Xcoordinate
    -107.9191,                !- Vertex 2 Ycoordinate
    0,                        !- Vertex 2 Zcoordinate
    -85.0384,                 !- Vertex 3 Xcoordinate
    -95.8231,                 !- Vertex 3 Ycoordinate
    0,                        !- Vertex 3 Zcoordinate
    -85.0384,                 !- Vertex 4 Xcoordinate
    -95.8231,                 !- Vertex 4 Ycoordinate
    6.9;                      !- Vertex 4 Zcoordinate

SHADING:SITE:DETAILED,
    Shading_V220_1,           !- Name
    ,                         !- Transmittance Schedule Name
    autocalculate,            !- Number of Vertices
    75.0106,                  !- Vertex 1 Xcoordinate
    66.0439,                  !- Vertex 1 Ycoordinate
    14.3,                     !- Vertex 1 Zcoordinate
    75.0106,                  !- Vertex 2 Xcoordinate
    66.0439,                  !- Vertex 2 Ycoordinate
    0,                        !- Vertex 2 Zcoordinate
    71.9716,                  !- Vertex 3 Xcoordinate
    63.4429,                  !- Vertex 3 Ycoordinate
    0,                        !- Vertex 3 Zcoordinate
    71.9716,                  !- Vertex 4 Xcoordinate
    63.4429,                  !- Vertex 4 Ycoordinate
    14.3;                     !- Vertex 4 Zcoordinate

SHADING:SITE:DETAILED,
    Shading_V493_1,           !- Name
    ,                         !- Transmittance Schedule Name
    autocalculate,            !- Number of Vertices
    137.2746,                 !- Vertex 1 Xcoordinate
    67.4039,                  !- Vertex 1 Ycoordinate
    16.4,                     !- Vertex 1 Zcoordinate
    137.2746,                 !- Vertex 2 Xcoordinate
    67.4039,                  !- Vertex 2 Ycoordinate
    0,                        !- Vertex 2 Zcoordinate
    129.3606,                 !- Vertex 3 Xcoordinate
    60.6549,                  !- Vertex 3 Ycoordinate
    0,                        !- Vertex 3 Zcoordinate
    129.3606,                 !- Vertex 4 Xcoordinate
    60.6549,                  !- Vertex 4 Ycoordinate
    16.4;                     !- Vertex 4 Zcoordinate

SHADING:SITE:DETAILED,
    Shading_V94_1,            !- Name
    ,                         !- Transmittance Schedule Name
    autocalculate,            !- Number of Vertices
    50.1125,                  !- Vertex 1 Xcoordinate
    57.6308,                  !- Vertex 1 Ycoordinate
    15.5,                     !- Vertex 1 Zcoordinate
    50.1125,                  !- Vertex 2 Xcoordinate
    57.6308,                  !- Vertex 2 Ycoordinate
    0,                        !- Vertex 2 Zcoordinate
    62.0236,                  !- Vertex 3 Xcoordinate
    67.8769,                  !- Vertex 3 Ycoordinate
    0,                        !- Vertex 3 Zcoordinate
    62.0236,                  !- Vertex 4 Xcoordinate
    67.8769,                  !- Vertex 4 Ycoordinate
    15.5;                     !- Vertex 4 Zcoordinate

SHADING:SITE:DETAILED,
    Shading_V225_1,           !- Name
    ,                         !- Transmittance Schedule Name
    autocalculate,            !- Number of Vertices
    104.2586,                 !- Vertex 1 Xcoordinate
    55.7069,                  !- Vertex 1 Ycoordinate
    14.3,                     !- Vertex 1 Zcoordinate
    104.2586,                 !- Vertex 2 Xcoordinate
    55.7069,                  !- Vertex 2 Ycoordinate
    0,                        !- Vertex 2 Zcoordinate
    111.8556,                 !- Vertex 3 Xcoordinate
    62.2079,                  !- Vertex 3 Ycoordinate
    0,                        !- Vertex 3 Zcoordinate
    111.8556,                 !- Vertex 4 Xcoordinate
    62.2079,                  !- Vertex 4 Ycoordinate
    14.3;                     !- Vertex 4 Zcoordinate

SHADING:SITE:DETAILED,
    Shading_V253_1,           !- Name
    ,                         !- Transmittance Schedule Name
    autocalculate,            !- Number of Vertices
    128.8466,                 !- Vertex 1 Xcoordinate
    77.1589,                  !- Vertex 1 Ycoordinate
    16.1,                     !- Vertex 1 Zcoordinate
    128.8466,                 !- Vertex 2 Xcoordinate
    77.1589,                  !- Vertex 2 Ycoordinate
    0,                        !- Vertex 2 Zcoordinate
    133.9316,                 !- Vertex 3 Xcoordinate
    81.5059,                  !- Vertex 3 Ycoordinate
    0,                        !- Vertex 3 Zcoordinate
    133.9316,                 !- Vertex 4 Xcoordinate
    81.5059,                  !- Vertex 4 Ycoordinate
    16.1;                     !- Vertex 4 Zcoordinate

SHADING:SITE:DETAILED,
    Shading_V257_1,           !- Name
    ,                         !- Transmittance Schedule Name
    autocalculate,            !- Number of Vertices
    144.1736,                 !- Vertex 1 Xcoordinate
    90.3259,                  !- Vertex 1 Ycoordinate
    16.1,                     !- Vertex 1 Zcoordinate
    144.1736,                 !- Vertex 2 Xcoordinate
    90.3259,                  !- Vertex 2 Ycoordinate
    0,                        !- Vertex 2 Zcoordinate
    149.2586,                 !- Vertex 3 Xcoordinate
    94.6959,                  !- Vertex 3 Ycoordinate
    0,                        !- Vertex 3 Zcoordinate
    149.2586,                 !- Vertex 4 Xcoordinate
    94.6959,                  !- Vertex 4 Ycoordinate
    16.1;                     !- Vertex 4 Zcoordinate

ELECTRICEQUIPMENT,
    Block Build0_Alt0 Storey 0Load,    !- Name
    Block Build0_Alt0 Storey 0,    !- Zone or ZoneList Name
    LoadSchedule,             !- Schedule Name
    Watts/Area,               !- Design Level Calculation Method
    ,                         !- Design Level
    0.07,                     !- Watts per Zone Floor Area
    ,                         !- Watts per Person
    0,                        !- Fraction Latent
    0,                        !- Fraction Radiant
    0,                        !- Fraction Lost
    General;                  !- EndUse Subcategory

ELECTRICEQUIPMENT,
    Block Build1_Alt0 Storey 0Load,    !- Name
    Block Build1_Alt0 Storey 0,    !- Zone or ZoneList Name
    LoadSchedule,             !- Schedule Name
    Watts/Area,               !- Design Level Calculation Method
    ,                         !- Design Level
    0.04,                     !- Watts per Zone Floor Area
    ,                         !- Watts per Person
    0,                        !- Fraction Latent
    0,                        !- Fraction Radiant
    0,                        !- Fraction Lost
    General;                  !- EndUse Subcategory

ELECTRICEQUIPMENT,
    Block Build2_Alt0 Storey 0Load,    !- Name
    Block Build2_Alt0 Storey 0,    !- Zone or ZoneList Name
    LoadSchedule,             !- Schedule Name
    Watts/Area,               !- Design Level Calculation Method
    ,                         !- Design Level
    0.07,                     !- Watts per Zone Floor Area
    ,                         !- Watts per Person
    0,                        !- Fraction Latent
    0,                        !- Fraction Radiant
    0,                        !- Fraction Lost
    General;                  !- EndUse Subcategory

ZONEINFILTRATION:FLOWCOEFFICIENT,
    Block Build0_Alt0 Storey 0Leak,    !- Name
    Block Build0_Alt0 Storey 0,    !- Zone Name
    AlwaysON,                 !- Schedule Name
    2.026307e-01,             !- Flow Coefficient
    0.107,                    !- Stack Coefficient
    0.667,                    !- Pressure Exponent
    0.167,                    !- Wind Coefficient
    0.61;                     !- Shelter Factor

ZONEINFILTRATION:FLOWCOEFFICIENT,
    Block Build1_Alt0 Storey 0Leak,    !- Name
    Block Build1_Alt0 Storey 0,    !- Zone Name
    AlwaysON,                 !- Schedule Name
    6.039037e-02,             !- Flow Coefficient
    0.107,                    !- Stack Coefficient
    0.667,                    !- Pressure Exponent
    0.167,                    !- Wind Coefficient
    0.61;                     !- Shelter Factor

ZONEINFILTRATION:FLOWCOEFFICIENT,
    Block Build2_Alt0 Storey 0Leak,    !- Name
    Block Build2_Alt0 Storey 0,    !- Zone Name
    AlwaysON,                 !- Schedule Name
    0.1444457543613255,       !- Flow Coefficient
    0.107,                    !- Stack Coefficient
    0.667,                    !- Pressure Exponent
    0.167,                    !- Wind Coefficient
    0.61;                     !- Shelter Factor

ZONEVENTILATION:DESIGNFLOWRATE,
    Block Build0_Alt0 Storey 0FreeCool,    !- Name
    Block Build0_Alt0 Storey 0,    !- Zone or ZoneList Name
    AlwaysON,                 !- Schedule Name
    AirChanges/Hour,          !- Design Flow Rate Calculation Method
    ,                         !- Design Flow Rate
    ,                         !- Flow Rate per Zone Floor Area
    ,                         !- Flow Rate per Person
    4,                        !- Air Changes per Hour
    Natural,                  !- Ventilation Type
    0,                        !- Fan Pressure Rise
    1,                        !- Fan Total Efficiency
    1,                        !- Constant Term Coefficient
    0,                        !- Temperature Term Coefficient
    0,                        !- Velocity Term Coefficient
    0,                        !- Velocity Squared Term Coefficient
    26,                       !- Minimum Indoor Temperature
    ,                         !- Minimum Indoor Temperature Schedule Name
    100,                      !- Maximum Indoor Temperature
    ,                         !- Maximum Indoor Temperature Schedule Name
    1,                        !- Delta Temperature
    ,                         !- Delta Temperature Schedule Name
    -100,                     !- Minimum Outdoor Temperature
    ,                         !- Minimum Outdoor Temperature Schedule Name
    100,                      !- Maximum Outdoor Temperature
    ,                         !- Maximum Outdoor Temperature Schedule Name
    40;                       !- Maximum Wind Speed

ZONEVENTILATION:DESIGNFLOWRATE,
    Block Build1_Alt0 Storey 0FreeCool,    !- Name
    Block Build1_Alt0 Storey 0,    !- Zone or ZoneList Name
    AlwaysON,                 !- Schedule Name
    AirChanges/Hour,          !- Design Flow Rate Calculation Method
    ,                         !- Design Flow Rate
    ,                         !- Flow Rate per Zone Floor Area
    ,                         !- Flow Rate per Person
    4,                        !- Air Changes per Hour
    Natural,                  !- Ventilation Type
    0,                        !- Fan Pressure Rise
    1,                        !- Fan Total Efficiency
    1,                        !- Constant Term Coefficient
    0,                        !- Temperature Term Coefficient
    0,                        !- Velocity Term Coefficient
    0,                        !- Velocity Squared Term Coefficient
    26,                       !- Minimum Indoor Temperature
    ,                         !- Minimum Indoor Temperature Schedule Name
    100,                      !- Maximum Indoor Temperature
    ,                         !- Maximum Indoor Temperature Schedule Name
    1,                        !- Delta Temperature
    ,                         !- Delta Temperature Schedule Name
    -100,                     !- Minimum Outdoor Temperature
    ,                         !- Minimum Outdoor Temperature Schedule Name
    100,                      !- Maximum Outdoor Temperature
    ,                         !- Maximum Outdoor Temperature Schedule Name
    40;                       !- Maximum Wind Speed

ZONEVENTILATION:DESIGNFLOWRATE,
    Block Build2_Alt0 Storey 0FreeCool,    !- Name
    Block Build2_Alt0 Storey 0,    !- Zone or ZoneList Name
    AlwaysON,                 !- Schedule Name
    AirChanges/Hour,          !- Design Flow Rate Calculation Method
    ,                         !- Design Flow Rate
    ,                         !- Flow Rate per Zone Floor Area
    ,                         !- Flow Rate per Person
    4,                        !- Air Changes per Hour
    Natural,                  !- Ventilation Type
    0,                        !- Fan Pressure Rise
    1,                        !- Fan Total Efficiency
    1,                        !- Constant Term Coefficient
    0,                        !- Temperature Term Coefficient
    0,                        !- Velocity Term Coefficient
    0,                        !- Velocity Squared Term Coefficient
    26,                       !- Minimum Indoor Temperature
    ,                         !- Minimum Indoor Temperature Schedule Name
    100,                      !- Maximum Indoor Temperature
    ,                         !- Maximum Indoor Temperature Schedule Name
    1,                        !- Delta Temperature
    ,                         !- Delta Temperature Schedule Name
    -100,                     !- Minimum Outdoor Temperature
    ,                         !- Minimum Outdoor Temperature Schedule Name
    100,                      !- Maximum Outdoor Temperature
    ,                         !- Maximum Outdoor Temperature Schedule Name
    40;                       !- Maximum Wind Speed

HVACTEMPLATE:THERMOSTAT,
    ResidZone,                !- Name
    ,                         !- Heating Setpoint Schedule Name
    21,                       !- Constant Heating Setpoint
    ,                         !- Cooling Setpoint Schedule Name
    50;                       !- Constant Cooling Setpoint

HVACTEMPLATE:ZONE:IDEALLOADSAIRSYSTEM,
    Block Build0_Alt0 Storey 0,    !- Zone Name
    ResidZone,                !- Template Thermostat Name
    ,                         !- System Availability Schedule Name
    50,                       !- Maximum Heating Supply Air Temperature
    13,                       !- Minimum Cooling Supply Air Temperature
    0.0156,                   !- Maximum Heating Supply Air Humidity Ratio
    0.0077,                   !- Minimum Cooling Supply Air Humidity Ratio
    NoLimit,                  !- Heating Limit
    ,                         !- Maximum Heating Air Flow Rate
    86598.21513175002,        !- Maximum Sensible Heating Capacity
    NoLimit,                  !- Cooling Limit
    ,                         !- Maximum Cooling Air Flow Rate
    ,                         !- Maximum Total Cooling Capacity
    ,                         !- Heating Availability Schedule Name
    ,                         !- Cooling Availability Schedule Name
    ConstantSensibleHeatRatio,    !- Dehumidification Control Type
    0.7,                      !- Cooling Sensible Heat Ratio
    60,                       !- Dehumidification Setpoint
    None,                     !- Humidification Control Type
    30,                       !- Humidification Setpoint
    Flow/Area,                !- Outdoor Air Method
    0.007,                    !- Outdoor Air Flow Rate per Person
    2.450000e-03,             !- Outdoor Air Flow Rate per Zone Floor Area
    0,                        !- Outdoor Air Flow Rate per Zone
    ,                         !- Design Specification Outdoor Air Object Name
    None,                     !- Demand Controlled Ventilation Type
    NoEconomizer,             !- Outdoor Air Economizer Type
    Sensible,                 !- Heat Recovery Type
    0.65,                     !- Sensible Heat Recovery Effectiveness
    0;                        !- Latent Heat Recovery Effectiveness

HVACTEMPLATE:ZONE:IDEALLOADSAIRSYSTEM,
    Block Build1_Alt0 Storey 0,    !- Zone Name
    ResidZone,                !- Template Thermostat Name
    ,                         !- System Availability Schedule Name
    50,                       !- Maximum Heating Supply Air Temperature
    13,                       !- Minimum Cooling Supply Air Temperature
    0.0156,                   !- Maximum Heating Supply Air Humidity Ratio
    0.0077,                   !- Minimum Cooling Supply Air Humidity Ratio
    NoLimit,                  !- Heating Limit
    ,                         !- Maximum Heating Air Flow Rate
    23087.3753065,            !- Maximum Sensible Heating Capacity
    NoLimit,                  !- Cooling Limit
    ,                         !- Maximum Cooling Air Flow Rate
    ,                         !- Maximum Total Cooling Capacity
    ,                         !- Heating Availability Schedule Name
    ,                         !- Cooling Availability Schedule Name
    ConstantSensibleHeatRatio,    !- Dehumidification Control Type
    0.7,                      !- Cooling Sensible Heat Ratio
    60,                       !- Dehumidification Setpoint
    None,                     !- Humidification Control Type
    30,                       !- Humidification Setpoint
    Flow/Area,                !- Outdoor Air Method
    0.007,                    !- Outdoor Air Flow Rate per Person
    1.400000e-03,             !- Outdoor Air Flow Rate per Zone Floor Area
    0,                        !- Outdoor Air Flow Rate per Zone
    ,                         !- Design Specification Outdoor Air Object Name
    None,                     !- Demand Controlled Ventilation Type
    NoEconomizer,             !- Outdoor Air Economizer Type
    Sensible,                 !- Heat Recovery Type
    0.65,                     !- Sensible Heat Recovery Effectiveness
    0;                        !- Latent Heat Recovery Effectiveness

HVACTEMPLATE:ZONE:IDEALLOADSAIRSYSTEM,
    Block Build2_Alt0 Storey 0,    !- Zone Name
    ResidZone,                !- Template Thermostat Name
    ,                         !- System Availability Schedule Name
    50,                       !- Maximum Heating Supply Air Temperature
    13,                       !- Minimum Cooling Supply Air Temperature
    0.0156,                   !- Maximum Heating Supply Air Humidity Ratio
    0.0077,                   !- Minimum Cooling Supply Air Humidity Ratio
    NoLimit,                  !- Heating Limit
    ,                         !- Maximum Heating Air Flow Rate
    54706.08440062499,        !- Maximum Sensible Heating Capacity
    NoLimit,                  !- Cooling Limit
    ,                         !- Maximum Cooling Air Flow Rate
    ,                         !- Maximum Total Cooling Capacity
    ,                         !- Heating Availability Schedule Name
    ,                         !- Cooling Availability Schedule Name
    ConstantSensibleHeatRatio,    !- Dehumidification Control Type
    0.7,                      !- Cooling Sensible Heat Ratio
    60,                       !- Dehumidification Setpoint
    None,                     !- Humidification Control Type
    30,                       !- Humidification Setpoint
    Flow/Area,                !- Outdoor Air Method
    0.007,                    !- Outdoor Air Flow Rate per Person
    2.450000e-03,             !- Outdoor Air Flow Rate per Zone Floor Area
    0,                        !- Outdoor Air Flow Rate per Zone
    ,                         !- Design Specification Outdoor Air Object Name
    None,                     !- Demand Controlled Ventilation Type
    NoEconomizer,             !- Outdoor Air Economizer Type
    Sensible,                 !- Heat Recovery Type
    0.65,                     !- Sensible Heat Recovery Effectiveness
    0;                        !- Latent Heat Recovery Effectiveness

OUTDOORAIR:NODE,
    Block Build0_Alt0 Storey 0 IDEAL LOADS OUTDOOR AIR INLET,    !- Name
    -1,                       !- Height Above Ground
    ,                         !- Drybulb Temperature Schedule Name
    ,                         !- Wetbulb Temperature Schedule Name
    ,                         !- Wind Speed Schedule Name
    ,                         !- Wind Direction Schedule Name
    ,                         !- Wind Pressure Coefficient Curve Name
    No,                       !- Symmetric Wind Pressure Coefficient Curve
    Absolute;                 !- Wind Angle Type

OUTDOORAIR:NODE,
    Block Build1_Alt0 Storey 0 IDEAL LOADS OUTDOOR AIR INLET,    !- Name
    -1,                       !- Height Above Ground
    ,                         !- Drybulb Temperature Schedule Name
    ,                         !- Wetbulb Temperature Schedule Name
    ,                         !- Wind Speed Schedule Name
    ,                         !- Wind Direction Schedule Name
    ,                         !- Wind Pressure Coefficient Curve Name
    No,                       !- Symmetric Wind Pressure Coefficient Curve
    Absolute;                 !- Wind Angle Type

OUTDOORAIR:NODE,
    Block Build2_Alt0 Storey 0 IDEAL LOADS OUTDOOR AIR INLET,    !- Name
    -1,                       !- Height Above Ground
    ,                         !- Drybulb Temperature Schedule Name
    ,                         !- Wetbulb Temperature Schedule Name
    ,                         !- Wind Speed Schedule Name
    ,                         !- Wind Direction Schedule Name
    ,                         !- Wind Pressure Coefficient Curve Name
    No,                       !- Symmetric Wind Pressure Coefficient Curve
    Absolute;                 !- Wind Angle Type

ENERGYMANAGEMENTSYSTEM:SENSOR,
    T0,                       !- Name
    Block Build0_Alt0 Storey 0,    !- OutputVariable or OutputMeter Index Key Name
    Zone Mean Air Temperature;    !- OutputVariable or OutputMeter Name

ENERGYMANAGEMENTSYSTEM:SENSOR,
    T1,                       !- Name
    Block Build1_Alt0 Storey 0,    !- OutputVariable or OutputMeter Index Key Name
    Zone Mean Air Temperature;    !- OutputVariable or OutputMeter Name

ENERGYMANAGEMENTSYSTEM:SENSOR,
    T2,                       !- Name
    Block Build2_Alt0 Storey 0,    !- OutputVariable or OutputMeter Index Key Name
    Zone Mean Air Temperature;    !- OutputVariable or OutputMeter Name

ENERGYMANAGEMENTSYSTEM:SENSOR,
    Pow0,                     !- Name
    Block Build0_Alt0 Storey 0 IDEAL LOADS AIR SYSTEM,    !- OutputVariable or OutputMeter Index Key Name
    Zone Ideal Loads Supply Air Total Heating Rate;    !- OutputVariable or OutputMeter Name

ENERGYMANAGEMENTSYSTEM:SENSOR,
    Pow1,                     !- Name
    Block Build1_Alt0 Storey 0 IDEAL LOADS AIR SYSTEM,    !- OutputVariable or OutputMeter Index Key Name
    Zone Ideal Loads Supply Air Total Heating Rate;    !- OutputVariable or OutputMeter Name

ENERGYMANAGEMENTSYSTEM:SENSOR,
    Pow2,                     !- Name
    Block Build2_Alt0 Storey 0 IDEAL LOADS AIR SYSTEM,    !- OutputVariable or OutputMeter Index Key Name
    Zone Ideal Loads Supply Air Total Heating Rate;    !- OutputVariable or OutputMeter Name

ENERGYMANAGEMENTSYSTEM:SENSOR,
    DHWPow,                   !- Name
    DHW,                      !- OutputVariable or OutputMeter Index Key Name
    Water Use Equipment Heating Rate;    !- OutputVariable or OutputMeter Name

ENERGYMANAGEMENTSYSTEM:PROGRAMCALLINGMANAGER,
    Average Building Temperature,    !- Name
    EndOfZoneTimestepBeforeZoneReporting,    !- EnergyPlus Model Calling Point
    AverageZoneTemps;         !- Program Name 1

ENERGYMANAGEMENTSYSTEM:PROGRAMCALLINGMANAGER,
    Compute Total Building Heat Pow,    !- Name
    EndOfZoneTimestepBeforeZoneReporting,    !- EnergyPlus Model Calling Point
    TotZonePow;               !- Program Name 1

ENERGYMANAGEMENTSYSTEM:PROGRAMCALLINGMANAGER,
    Compute Total DHW Heat Pow,    !- Name
    EndOfZoneTimestepBeforeZoneReporting,    !- EnergyPlus Model Calling Point
    prgmDHWPow;               !- Program Name 1

ENERGYMANAGEMENTSYSTEM:PROGRAM,
    AverageZoneTemps,         !- Name
    SET SumNumerator = T0*Vol0+T1*Vol1+T2*Vol2,    !- Program Line 1
    SET SumDenominator  = Vol0+Vol1+Vol2,    !- Program Line 2
    SET AverageBuildingTemp  = SumNumerator / SumDenominator;    !- Program Line 3

ENERGYMANAGEMENTSYSTEM:PROGRAM,
    TotZonePow,               !- Name
    SET TotBuildPow = Pow0+Pow1+Pow2;    !- Program Line 1

ENERGYMANAGEMENTSYSTEM:PROGRAM,
    prgmDHWPow,               !- Name
    SET TotDHWPow = DHWPow;    !- Program Line 1

ENERGYMANAGEMENTSYSTEM:GLOBALVARIABLE,
    AverageBuildingTemp;      !- Erl Variable 1 Name

ENERGYMANAGEMENTSYSTEM:GLOBALVARIABLE,
    TotBuildPow;              !- Erl Variable 1 Name

ENERGYMANAGEMENTSYSTEM:GLOBALVARIABLE,
    TotDHWPow;                !- Erl Variable 1 Name

ENERGYMANAGEMENTSYSTEM:OUTPUTVARIABLE,
    Mean Heated Zones Air Temperature,    !- Name
    AverageBuildingTemp,      !- EMS Variable Name
    Averaged,                 !- Type of Data in Variable
    ZoneTimeStep;             !- Update Frequency

ENERGYMANAGEMENTSYSTEM:OUTPUTVARIABLE,
    Total Building Heating Power,    !- Name
    TotBuildPow,              !- EMS Variable Name
    Averaged,                 !- Type of Data in Variable
    ZoneTimeStep;             !- Update Frequency

ENERGYMANAGEMENTSYSTEM:OUTPUTVARIABLE,
    Total DHW Heating Power,    !- Name
    TotDHWPow,                !- EMS Variable Name
    Averaged,                 !- Type of Data in Variable
    ZoneTimeStep;             !- Update Frequency

ENERGYMANAGEMENTSYSTEM:INTERNALVARIABLE,
    Vol0,                     !- Name
    Block Build0_Alt0 Storey 0,    !- Internal Data Index Key Name
    Zone Air Volume;          !- Internal Data Type

ENERGYMANAGEMENTSYSTEM:INTERNALVARIABLE,
    Vol1,                     !- Name
    Block Build1_Alt0 Storey 0,    !- Internal Data Index Key Name
    Zone Air Volume;          !- Internal Data Type

ENERGYMANAGEMENTSYSTEM:INTERNALVARIABLE,
    Vol2,                     !- Name
    Block Build2_Alt0 Storey 0,    !- Internal Data Index Key Name
    Zone Air Volume;          !- Internal Data Type

WATERUSE:EQUIPMENT,
    DHW,                      !- Name
    General,                  !- EndUse Subcategory
    1.633930e-08,             !- Peak Flow Rate
    WaterTaps,                !- Flow Rate Fraction Schedule Name
    TargetWaterTemp,          !- Target Temperature Schedule Name
    HotWaterTemp,             !- Hot Water Supply Temperature Schedule Name
    ColdWaterTemp;            !- Cold Water Supply Temperature Schedule Name

Output:VariableDictionary,
    Regular;                  !- Key Field

OUTPUT:ENERGYMANAGEMENTSYSTEM,
    Verbose,                  !- Actuator Availability Dictionary Reporting
    Verbose,                  !- Internal Variable Availability Dictionary Reporting
    Verbose;                  !- EMS Runtime Language Debug Output Level

Output:Table:SummaryReports,
    AllSummary;               !- Report 1 Name

OutputControl:Table:Style,
    HTML;                     !- Column Separator

OUTPUT:VARIABLE,
    *,                        !- Key Value
    Site Outdoor Air Drybulb Temperature,    !- Variable Name
    Hourly;                   !- Reporting Frequency

OUTPUT:VARIABLE,
    *,                        !- Key Value
    Site Outdoor Air Relative Humidity,    !- Variable Name
    Hourly;                   !- Reporting Frequency

OUTPUT:VARIABLE,
    *,                        !- Key Value
    Site Outdoor Air Barometric Pressure,    !- Variable Name
    Hourly;                   !- Reporting Frequency

OUTPUT:VARIABLE,
    *,                        !- Key Value
    Site Wind Speed,          !- Variable Name
    Hourly;                   !- Reporting Frequency

OUTPUT:VARIABLE,
    *,                        !- Key Value
    Site Diffuse Solar Radiation Rate per Area,    !- Variable Name
    Hourly;                   !- Reporting Frequency

OUTPUT:VARIABLE,
    *,                        !- Key Value
    Site Direct Solar Radiation Rate per Area,    !- Variable Name
    Hourly;                   !- Reporting Frequency

OUTPUT:VARIABLE,
    *,                        !- Key Value
    Zone Electric Equipment Electric Power,    !- Variable Name
    Hourly;                   !- Reporting Frequency

OUTPUT:VARIABLE,
    *,                        !- Key Value
    Zone Electric Equipment Total Heating Rate,    !- Variable Name
    Hourly;                   !- Reporting Frequency

OUTPUT:VARIABLE,
    *,                        !- Key Value
    Surface Outside Face Incident Solar Radiation Rate per Area,    !- Variable Name
    Hourly;                   !- Reporting Frequency

OUTPUT:VARIABLE,
    *,                        !- Key Value
    Surface Outside Face Incident Beam Solar Radiation Rate per Area,    !- Variable Name
    Hourly;                   !- Reporting Frequency

OUTPUT:VARIABLE,
    *,                        !- Key Value
    Zone Ideal Loads Supply Air Total Heating Rate,    !- Variable Name
    Hourly;                   !- Reporting Frequency

OUTPUT:VARIABLE,
    *,                        !- Key Value
    Water Use Equipment Hot Water Mass Flow Rate,    !- Variable Name
    Hourly;                   !- Reporting Frequency

OUTPUT:VARIABLE,
    *,                        !- Key Value
    Water Use Equipment Cold Water Mass Flow Rate,    !- Variable Name
    Hourly;                   !- Reporting Frequency

OUTPUT:VARIABLE,
    *,                        !- Key Value
    Water Use Equipment Hot Water Temperature,    !- Variable Name
    Hourly;                   !- Reporting Frequency

OUTPUT:VARIABLE,
    *,                        !- Key Value
    Water Use Equipment Cold Water Temperature,    !- Variable Name
    Hourly;                   !- Reporting Frequency

OUTPUT:VARIABLE,
    *,                        !- Key Value
    Water Use Equipment Heating Rate,    !- Variable Name
    Hourly;                   !- Reporting Frequency

OUTPUT:VARIABLE,
    *,                        !- Key Value
    Mean Heated Zones Air Temperature,    !- Variable Name
    Hourly;                   !- Reporting Frequency

OUTPUT:VARIABLE,
    *,                        !- Key Value
    Total Building Heating Power,    !- Variable Name
    Hourly;                   !- Reporting Frequency

OUTPUT:VARIABLE,
    *,                        !- Key Value
    Total DHW Heating Power,    !- Variable Name
    Hourly;                   !- Reporting Frequency

OUTPUT:DIAGNOSTICS,
    DISPLAYEXTRAWARNINGS,     !- Key 1
    DisplayAdvancedReportVariables;    !- Key 2