!- Darwin Line endings 

Version,
    9.5;                      !- Version Identifier

SimulationControl,
    No,                       !- Do Zone Sizing Calculation
    No,                       !- Do System Sizing Calculation
    No,                       !- Do Plant Sizing Calculation
    No,                       !- Run Simulation for Sizing Periods
    Yes,                      !- Run Simulation for Weather File Run Periods
    No,                       !- Do HVAC Sizing Simulation for Sizing Periods
    1;                        !- Maximum Number of HVAC Sizing Simulation Passes

Building,
    None,                     !- Name
    0,                        !- North Axis
    Suburbs,                  !- Terrain
    0.04,                     !- Loads Convergence Tolerance Value
    0.4,                      !- Temperature Convergence Tolerance Value
    FullExterior,             !- Solar Distribution
    25,                       !- Maximum Number of Warmup Days
    6;                        !- Minimum Number of Warmup Days

SHADOWCALCULATION,
    PolygonClipping,          !- Shading Calculation Method
    Periodic,                 !- Shading Calculation Update Frequency Method
    20,                       !- Shading Calculation Update Frequency
    25000,                    !- Maximum Figures in Shadow Overlap Calculations
    SutherlandHodgman,        !- Polygon Clipping Algorithm
    512,                      !- Pixel Counting Resolution
    SimpleSkyDiffuseModeling,    !- Sky Diffuse Modeling Algorithm
    No,                       !- Output External Shading Calculation Results
    No,                       !- Disable SelfShading Within Shading Zone Groups
    No;                       !- Disable SelfShading From Shading Zone Groups to Other Zones

Timestep,
    4;                        !- Number of Timesteps per Hour

Site:Location,
    WeatherData/USA_CA_San.Francisco.Intl.AP.724940_TMY3.epw,    !- Name
    37.62,                    !- Latitude
    -122.4,                   !- Longitude
    -8,                       !- Time Zone
    2;                        !- Elevation

SizingPeriod:DesignDay,
    DENVER_STAPLETON Ann Htg 99.6% Condns DB,    !- Name
    12,                       !- Month
    21,                       !- Day of Month
    WinterDesignDay,          !- Day Type
    -20,                      !- Maximum DryBulb Temperature
    0,                        !- Daily DryBulb Temperature Range
    ,                         !- DryBulb Temperature Range Modifier Type
    ,                         !- DryBulb Temperature Range Modifier Day Schedule Name
    Wetbulb,                  !- Humidity Condition Type
    -20,                      !- Wetbulb or DewPoint at Maximum DryBulb
    ,                         !- Humidity Condition Day Schedule Name
    ,                         !- Humidity Ratio at Maximum DryBulb
    ,                         !- Enthalpy at Maximum DryBulb
    ,                         !- Daily WetBulb Temperature Range
    100594,                   !- Barometric Pressure
    2.3,                      !- Wind Speed
    180,                      !- Wind Direction
    No,                       !- Rain Indicator
    No,                       !- Snow Indicator
    No,                       !- Daylight Saving Time Indicator
    ASHRAEClearSky,           !- Solar Model Indicator
    ,                         !- Beam Solar Day Schedule Name
    ,                         !- Diffuse Solar Day Schedule Name
    ,                         !- ASHRAE Clear Sky Optical Depth for Beam Irradiance taub
    ,                         !- ASHRAE Clear Sky Optical Depth for Diffuse Irradiance taud
    0;                        !- Sky Clearness

SizingPeriod:DesignDay,
    DENVER_STAPLETON Ann Clg .4% Condns DB=>MWB,    !- Name
    7,                        !- Month
    21,                       !- Day of Month
    SummerDesignDay,          !- Day Type
    34.1,                     !- Maximum DryBulb Temperature
    15.2,                     !- Daily DryBulb Temperature Range
    ,                         !- DryBulb Temperature Range Modifier Type
    ,                         !- DryBulb Temperature Range Modifier Day Schedule Name
    Wetbulb,                  !- Humidity Condition Type
    15.8,                     !- Wetbulb or DewPoint at Maximum DryBulb
    ,                         !- Humidity Condition Day Schedule Name
    ,                         !- Humidity Ratio at Maximum DryBulb
    ,                         !- Enthalpy at Maximum DryBulb
    ,                         !- Daily WetBulb Temperature Range
    100594,                   !- Barometric Pressure
    4,                        !- Wind Speed
    120,                      !- Wind Direction
    No,                       !- Rain Indicator
    No,                       !- Snow Indicator
    No,                       !- Daylight Saving Time Indicator
    ASHRAEClearSky,           !- Solar Model Indicator
    ,                         !- Beam Solar Day Schedule Name
    ,                         !- Diffuse Solar Day Schedule Name
    ,                         !- ASHRAE Clear Sky Optical Depth for Beam Irradiance taub
    ,                         !- ASHRAE Clear Sky Optical Depth for Diffuse Irradiance taud
    1;                        !- Sky Clearness

RunPeriod,
    Run Period 1,             !- Name
    1,                        !- Begin Month
    1,                        !- Begin Day of Month
    ,                         !- Begin Year
    12,                       !- End Month
    31,                       !- End Day of Month
    ,                         !- End Year
    Tuesday,                  !- Day of Week for Start Day
    Yes,                      !- Use Weather File Holidays and Special Days
    Yes,                      !- Use Weather File Daylight Saving Period
    No,                       !- Apply Weekend Holiday Rule
    Yes,                      !- Use Weather File Rain Indicators
    Yes;                      !- Use Weather File Snow Indicators

SITE:GROUNDTEMPERATURE:BUILDINGSURFACE,
    15,                       !- January Ground Temperature
    15,                       !- February Ground Temperature
    15,                       !- March Ground Temperature
    15,                       !- April Ground Temperature
    15,                       !- May Ground Temperature
    15,                       !- June Ground Temperature
    15,                       !- July Ground Temperature
    15,                       !- August Ground Temperature
    15,                       !- September Ground Temperature
    15,                       !- October Ground Temperature
    15,                       !- November Ground Temperature
    15;                       !- December Ground Temperature

SCHEDULETYPELIMITS,
    Any Number,               !- Name
    ,                         !- Lower Limit Value
    ,                         !- Upper Limit Value
    ,                         !- Numeric Type
    Dimensionless;            !- Unit Type

SCHEDULE:COMPACT,
    AlwaysON,                 !- Name
    Any Number,               !- Schedule Type Limits Name
    Through: 12/31,           !- Field 1
    For: AllDays,             !- Field 2
    Until: 24:00,             !- Field 3
    1;                        !- Field 4

SCHEDULE:COMPACT,
    OccupActivity,            !- Name
    Any Number,               !- Schedule Type Limits Name
    Through: 12/31,           !- Field 1
    For: AllDays,             !- Field 2
    Until: 24:00,             !- Field 3
    70;                       !- Field 4

SCHEDULE:COMPACT,
    HotWaterTemp,             !- Name
    Any Number,               !- Schedule Type Limits Name
    Through: 12/31,           !- Field 1
    For: AllDays,             !- Field 2
    Until: 24:00,             !- Field 3
    55;                       !- Field 4

SCHEDULE:COMPACT,
    TargetWaterTemp,          !- Name
    Any Number,               !- Schedule Type Limits Name
    Through: 12/31,           !- Field 1
    For: AllDays,             !- Field 2
    Until: 24:00,             !- Field 3
    37;                       !- Field 4

SCHEDULE:FILE,
    LoadSchedule,             !- Name
    Any Number,               !- Schedule Type Limits Name
    /Users/alizad/PycharmProjects/mubes-ubem/examples/ForTest/InputFiles/Building17_winter.txt,    !- File Name
    1,                        !- Column Number
    0,                        !- Rows to Skip at Top
    8760,                     !- Number of Hours of Data
    Comma,                    !- Column Separator
    No;                       !- Interpolate to Timestep

SCHEDULE:FILE,
    Watertaps,                !- Name
    Any Number,               !- Schedule Type Limits Name
    /Users/alizad/PycharmProjects/mubes-ubem/examples/ForTest/InputFiles/domestic_hot_water_40_apartments.txt,    !- File Name
    1,                        !- Column Number
    0,                        !- Rows to Skip at Top
    8760,                     !- Number of Hours of Data
    Comma,                    !- Column Separator
    No;                       !- Interpolate to Timestep

SCHEDULE:FILE,
    ColdWaterTemp,            !- Name
    Any Number,               !- Schedule Type Limits Name
    /Users/alizad/PycharmProjects/mubes-ubem/examples/ForTest/InputFiles/cold_water_temperature_stockholm.txt,    !- File Name
    1,                        !- Column Number
    0,                        !- Rows to Skip at Top
    8760,                     !- Number of Hours of Data
    Comma,                    !- Column Separator
    No;                       !- Interpolate to Timestep

MATERIAL,
    DefaultMaterial,          !- Name
    Rough,                    !- Roughness
    0.1,                      !- Thickness
    0.1,                      !- Conductivity
    1000,                     !- Density
    1000,                     !- Specific Heat
    0.9,                      !- Thermal Absorptance
    0.7,                      !- Solar Absorptance
    0.7;                      !- Visible Absorptance

MATERIAL,
    Basement Floor,           !- Name
    Rough,                    !- Roughness
    0.1,                      !- Thickness
    0.9,                      !- Conductivity
    2300,                     !- Density
    1000,                     !- Specific Heat
    0.9,                      !- Thermal Absorptance
    0.7,                      !- Solar Absorptance
    0.7;                      !- Visible Absorptance

MATERIAL,
    Heated1rstFloor Inertia,    !- Name
    Rough,                    !- Roughness
    0.1,                      !- Thickness
    0.9,                      !- Conductivity
    2300,                     !- Density
    1000,                     !- Specific Heat
    0.9,                      !- Thermal Absorptance
    0.7,                      !- Solar Absorptance
    0.7;                      !- Visible Absorptance

MATERIAL,
    Heated1rstFloor Insulation,    !- Name
    Rough,                    !- Roughness
    0.15,                     !- Thickness
    0.035,                    !- Conductivity
    150,                      !- Density
    1000,                     !- Specific Heat
    0.9,                      !- Thermal Absorptance
    0.7,                      !- Solar Absorptance
    0.7;                      !- Visible Absorptance

MATERIAL,
    Roof Insulation,          !- Name
    Rough,                    !- Roughness
    0.3,                      !- Thickness
    0.03,                     !- Conductivity
    150,                      !- Density
    1000,                     !- Specific Heat
    0.9,                      !- Thermal Absorptance
    0.7,                      !- Solar Absorptance
    0.7;                      !- Visible Absorptance

MATERIAL,
    Wall Inertia,             !- Name
    Rough,                    !- Roughness
    0.2,                      !- Thickness
    0.9,                      !- Conductivity
    2300,                     !- Density
    1000,                     !- Specific Heat
    0.9,                      !- Thermal Absorptance
    0.7,                      !- Solar Absorptance
    0.7;                      !- Visible Absorptance

MATERIAL,
    Wall Insulation,          !- Name
    Rough,                    !- Roughness
    0.2,                      !- Thickness
    0.03,                     !- Conductivity
    150,                      !- Density
    1000,                     !- Specific Heat
    0.9,                      !- Thermal Absorptance
    0.7,                      !- Solar Absorptance
    0.7;                      !- Visible Absorptance

MATERIAL,
    HeatedZoneIntMass,        !- Name
    Rough,                    !- Roughness
    0.1,                      !- Thickness
    0.3,                      !- Conductivity
    600,                      !- Density
    1400,                     !- Specific Heat
    0.9,                      !- Thermal Absorptance
    0.7,                      !- Solar Absorptance
    0.7;                      !- Visible Absorptance

MATERIAL,
    AirWallMaterial,          !- Name
    MediumSmooth,             !- Roughness
    0.01,                     !- Thickness
    0.6,                      !- Conductivity
    800,                      !- Density
    1000,                     !- Specific Heat
    0.95,                     !- Thermal Absorptance
    0.7,                      !- Solar Absorptance
    0.7;                      !- Visible Absorptance

WINDOWMATERIAL:SIMPLEGLAZINGSYSTEM,
    DefaultGlazing,           !- Name
    2.7,                      !- UFactor
    0.763,                    !- Solar Heat Gain Coefficient
    0.8;                      !- Visible Transmittance

WINDOWMATERIAL:SIMPLEGLAZINGSYSTEM,
    Window,                   !- Name
    1.9,                      !- UFactor
    0.7,                      !- Solar Heat Gain Coefficient
    0.8;                      !- Visible Transmittance

CONSTRUCTION,
    Project Wall,             !- Name
    Wall Inertia,             !- Outside Layer
    Wall Insulation;          !- Layer 2

CONSTRUCTION,
    Project Flat Roof,        !- Name
    Roof Insulation;          !- Outside Layer

CONSTRUCTION,
    Project External Window,    !- Name
    Window;                   !- Outside Layer

CONSTRUCTION,
    Project Heated1rstFloor,    !- Name
    Heated1rstFloor Inertia,    !- Outside Layer
    Heated1rstFloor Insulation;    !- Layer 2

CONSTRUCTION,
    HeatedZoneIntMassObj,     !- Name
    HeatedZoneIntMass;        !- Outside Layer

GlobalGeometryRules,
    UpperLeftCorner,          !- Starting Vertex Position
    CounterClockWise,         !- Vertex Entry Direction
    World;                    !- Coordinate System

ZONE,
    Block Build0_Alt0 Storey 0,    !- Name
    0,                        !- Direction of Relative North
    0,                        !- X Origin
    0,                        !- Y Origin
    0,                        !- Z Origin
    1,                        !- Type
    1,                        !- Multiplier
    autocalculate,            !- Ceiling Height
    autocalculate,            !- Volume
    autocalculate,            !- Floor Area
    ,                         !- Zone Inside Convection Algorithm
    ,                         !- Zone Outside Convection Algorithm
    Yes;                      !- Part of Total Floor Area

BUILDINGSURFACE:DETAILED,
    Block Build0_Alt0 Storey 0 Wall 0001,    !- Name
    wall,                     !- Surface Type
    Project Wall,             !- Construction Name
    Block Build0_Alt0 Storey 0,    !- Zone Name
    outdoors,                 !- Outside Boundary Condition
    ,                         !- Outside Boundary Condition Object
    SunExposed,               !- Sun Exposure
    WindExposed,              !- Wind Exposure
    autocalculate,            !- View Factor to Ground
    autocalculate,            !- Number of Vertices
    1.8319,                   !- Vertex 1 Xcoordinate
    -8.6346,                  !- Vertex 1 Ycoordinate
    21,                       !- Vertex 1 Zcoordinate
    1.8319,                   !- Vertex 2 Xcoordinate
    -8.6346,                  !- Vertex 2 Ycoordinate
    0,                        !- Vertex 2 Zcoordinate
    6.1869,                   !- Vertex 3 Xcoordinate
    -13.7386,                 !- Vertex 3 Ycoordinate
    0,                        !- Vertex 3 Zcoordinate
    6.1869,                   !- Vertex 4 Xcoordinate
    -13.7386,                 !- Vertex 4 Ycoordinate
    21;                       !- Vertex 4 Zcoordinate

BUILDINGSURFACE:DETAILED,
    Block Build0_Alt0 Storey 0 Wall 0002,    !- Name
    wall,                     !- Surface Type
    Project Wall,             !- Construction Name
    Block Build0_Alt0 Storey 0,    !- Zone Name
    outdoors,                 !- Outside Boundary Condition
    ,                         !- Outside Boundary Condition Object
    SunExposed,               !- Sun Exposure
    WindExposed,              !- Wind Exposure
    autocalculate,            !- View Factor to Ground
    autocalculate,            !- Number of Vertices
    6.1869,                   !- Vertex 1 Xcoordinate
    -13.7386,                 !- Vertex 1 Ycoordinate
    21,                       !- Vertex 1 Zcoordinate
    6.1869,                   !- Vertex 2 Xcoordinate
    -13.7386,                 !- Vertex 2 Ycoordinate
    0,                        !- Vertex 2 Zcoordinate
    9.2149,                   !- Vertex 3 Xcoordinate
    -11.1236,                 !- Vertex 3 Ycoordinate
    0,                        !- Vertex 3 Zcoordinate
    9.2149,                   !- Vertex 4 Xcoordinate
    -11.1236,                 !- Vertex 4 Ycoordinate
    21;                       !- Vertex 4 Zcoordinate

BUILDINGSURFACE:DETAILED,
    Block Build0_Alt0 Storey 0 Wall 0003,    !- Name
    wall,                     !- Surface Type
    Project Wall,             !- Construction Name
    Block Build0_Alt0 Storey 0,    !- Zone Name
    outdoors,                 !- Outside Boundary Condition
    ,                         !- Outside Boundary Condition Object
    SunExposed,               !- Sun Exposure
    WindExposed,              !- Wind Exposure
    autocalculate,            !- View Factor to Ground
    autocalculate,            !- Number of Vertices
    9.2149,                   !- Vertex 1 Xcoordinate
    -11.1236,                 !- Vertex 1 Ycoordinate
    21,                       !- Vertex 1 Zcoordinate
    9.2149,                   !- Vertex 2 Xcoordinate
    -11.1236,                 !- Vertex 2 Ycoordinate
    0,                        !- Vertex 2 Zcoordinate
    14.9759,                  !- Vertex 3 Xcoordinate
    -17.8706,                 !- Vertex 3 Ycoordinate
    0,                        !- Vertex 3 Zcoordinate
    14.9759,                  !- Vertex 4 Xcoordinate
    -17.8706,                 !- Vertex 4 Ycoordinate
    21;                       !- Vertex 4 Zcoordinate

BUILDINGSURFACE:DETAILED,
    Block Build0_Alt0 Storey 0 Wall 0004,    !- Name
    wall,                     !- Surface Type
    Project Wall,             !- Construction Name
    Block Build0_Alt0 Storey 0,    !- Zone Name
    outdoors,                 !- Outside Boundary Condition
    ,                         !- Outside Boundary Condition Object
    SunExposed,               !- Sun Exposure
    WindExposed,              !- Wind Exposure
    autocalculate,            !- View Factor to Ground
    autocalculate,            !- Number of Vertices
    14.9759,                  !- Vertex 1 Xcoordinate
    -17.8706,                 !- Vertex 1 Ycoordinate
    21,                       !- Vertex 1 Zcoordinate
    14.9759,                  !- Vertex 2 Xcoordinate
    -17.8706,                 !- Vertex 2 Ycoordinate
    0,                        !- Vertex 2 Zcoordinate
    22.6339,                  !- Vertex 3 Xcoordinate
    -11.3126,                 !- Vertex 3 Ycoordinate
    0,                        !- Vertex 3 Zcoordinate
    22.6339,                  !- Vertex 4 Xcoordinate
    -11.3126,                 !- Vertex 4 Ycoordinate
    21;                       !- Vertex 4 Zcoordinate

BUILDINGSURFACE:DETAILED,
    Block Build0_Alt0 Storey 0 Wall 0005,    !- Name
    wall,                     !- Surface Type
    Project Wall,             !- Construction Name
    Block Build0_Alt0 Storey 0,    !- Zone Name
    outdoors,                 !- Outside Boundary Condition
    ,                         !- Outside Boundary Condition Object
    SunExposed,               !- Sun Exposure
    WindExposed,              !- Wind Exposure
    autocalculate,            !- View Factor to Ground
    autocalculate,            !- Number of Vertices
    22.6339,                  !- Vertex 1 Xcoordinate
    -11.3126,                 !- Vertex 1 Ycoordinate
    21,                       !- Vertex 1 Zcoordinate
    22.6339,                  !- Vertex 2 Xcoordinate
    -11.3126,                 !- Vertex 2 Ycoordinate
    0,                        !- Vertex 2 Zcoordinate
    20.0239,                  !- Vertex 3 Xcoordinate
    -8.2806,                  !- Vertex 3 Ycoordinate
    0,                        !- Vertex 3 Zcoordinate
    20.0239,                  !- Vertex 4 Xcoordinate
    -8.2806,                  !- Vertex 4 Ycoordinate
    21;                       !- Vertex 4 Zcoordinate

BUILDINGSURFACE:DETAILED,
    Block Build0_Alt0 Storey 0 Wall 0006,    !- Name
    wall,                     !- Surface Type
    Project Wall,             !- Construction Name
    Block Build0_Alt0 Storey 0,    !- Zone Name
    outdoors,                 !- Outside Boundary Condition
    ,                         !- Outside Boundary Condition Object
    SunExposed,               !- Sun Exposure
    WindExposed,              !- Wind Exposure
    autocalculate,            !- View Factor to Ground
    autocalculate,            !- Number of Vertices
    20.0239,                  !- Vertex 1 Xcoordinate
    -8.2806,                  !- Vertex 1 Ycoordinate
    21,                       !- Vertex 1 Zcoordinate
    20.0239,                  !- Vertex 2 Xcoordinate
    -8.2806,                  !- Vertex 2 Ycoordinate
    0,                        !- Vertex 2 Zcoordinate
    25.9469,                  !- Vertex 3 Xcoordinate
    -3.2066,                  !- Vertex 3 Ycoordinate
    0,                        !- Vertex 3 Zcoordinate
    25.9469,                  !- Vertex 4 Xcoordinate
    -3.2066,                  !- Vertex 4 Ycoordinate
    21;                       !- Vertex 4 Zcoordinate

BUILDINGSURFACE:DETAILED,
    Block Build0_Alt0 Storey 0 Wall 0007,    !- Name
    wall,                     !- Surface Type
    Project Wall,             !- Construction Name
    Block Build0_Alt0 Storey 0,    !- Zone Name
    outdoors,                 !- Outside Boundary Condition
    ,                         !- Outside Boundary Condition Object
    SunExposed,               !- Sun Exposure
    WindExposed,              !- Wind Exposure
    autocalculate,            !- View Factor to Ground
    autocalculate,            !- Number of Vertices
    25.9469,                  !- Vertex 1 Xcoordinate
    -3.2066,                  !- Vertex 1 Ycoordinate
    21,                       !- Vertex 1 Zcoordinate
    25.9469,                  !- Vertex 2 Xcoordinate
    -3.2066,                  !- Vertex 2 Ycoordinate
    0,                        !- Vertex 2 Zcoordinate
    19.3929,                  !- Vertex 3 Xcoordinate
    4.4904,                   !- Vertex 3 Ycoordinate
    0,                        !- Vertex 3 Zcoordinate
    19.3929,                  !- Vertex 4 Xcoordinate
    4.4904,                   !- Vertex 4 Ycoordinate
    21;                       !- Vertex 4 Zcoordinate

BUILDINGSURFACE:DETAILED,
    Block Build0_Alt0 Storey 0 Wall 0008,    !- Name
    wall,                     !- Surface Type
    Project Wall,             !- Construction Name
    Block Build0_Alt0 Storey 0,    !- Zone Name
    outdoors,                 !- Outside Boundary Condition
    ,                         !- Outside Boundary Condition Object
    SunExposed,               !- Sun Exposure
    WindExposed,              !- Wind Exposure
    autocalculate,            !- View Factor to Ground
    autocalculate,            !- Number of Vertices
    19.3929,                  !- Vertex 1 Xcoordinate
    4.4904,                   !- Vertex 1 Ycoordinate
    21,                       !- Vertex 1 Zcoordinate
    19.3929,                  !- Vertex 2 Xcoordinate
    4.4904,                   !- Vertex 2 Ycoordinate
    0,                        !- Vertex 2 Zcoordinate
    13.4829,                  !- Vertex 3 Xcoordinate
    -0.5966,                  !- Vertex 3 Ycoordinate
    0,                        !- Vertex 3 Zcoordinate
    13.4829,                  !- Vertex 4 Xcoordinate
    -0.5966,                  !- Vertex 4 Ycoordinate
    21;                       !- Vertex 4 Zcoordinate

BUILDINGSURFACE:DETAILED,
    Block Build0_Alt0 Storey 0 Wall 0009,    !- Name
    wall,                     !- Surface Type
    Project Wall,             !- Construction Name
    Block Build0_Alt0 Storey 0,    !- Zone Name
    outdoors,                 !- Outside Boundary Condition
    ,                         !- Outside Boundary Condition Object
    SunExposed,               !- Sun Exposure
    WindExposed,              !- Wind Exposure
    autocalculate,            !- View Factor to Ground
    autocalculate,            !- Number of Vertices
    13.4829,                  !- Vertex 1 Xcoordinate
    -0.5966,                  !- Vertex 1 Ycoordinate
    21,                       !- Vertex 1 Zcoordinate
    13.4829,                  !- Vertex 2 Xcoordinate
    -0.5966,                  !- Vertex 2 Ycoordinate
    0,                        !- Vertex 2 Zcoordinate
    -1.1021,                  !- Vertex 3 Xcoordinate
    16.2984,                  !- Vertex 3 Ycoordinate
    0,                        !- Vertex 3 Zcoordinate
    -1.1021,                  !- Vertex 4 Xcoordinate
    16.2984,                  !- Vertex 4 Ycoordinate
    21;                       !- Vertex 4 Zcoordinate

BUILDINGSURFACE:DETAILED,
    Block Build0_Alt0 Storey 0 Wall 0010,    !- Name
    wall,                     !- Surface Type
    Project Wall,             !- Construction Name
    Block Build0_Alt0 Storey 0,    !- Zone Name
    outdoors,                 !- Outside Boundary Condition
    ,                         !- Outside Boundary Condition Object
    SunExposed,               !- Sun Exposure
    WindExposed,              !- Wind Exposure
    autocalculate,            !- View Factor to Ground
    autocalculate,            !- Number of Vertices
    -1.1021,                  !- Vertex 1 Xcoordinate
    16.2984,                  !- Vertex 1 Ycoordinate
    21,                       !- Vertex 1 Zcoordinate
    -1.1021,                  !- Vertex 2 Xcoordinate
    16.2984,                  !- Vertex 2 Ycoordinate
    0,                        !- Vertex 2 Zcoordinate
    4.7879,                   !- Vertex 3 Xcoordinate
    21.3964,                  !- Vertex 3 Ycoordinate
    0,                        !- Vertex 3 Zcoordinate
    4.7879,                   !- Vertex 4 Xcoordinate
    21.3964,                  !- Vertex 4 Ycoordinate
    21;                       !- Vertex 4 Zcoordinate

BUILDINGSURFACE:DETAILED,
    Block Build0_Alt0 Storey 0 Wall 0011,    !- Name
    wall,                     !- Surface Type
    Project Wall,             !- Construction Name
    Block Build0_Alt0 Storey 0,    !- Zone Name
    outdoors,                 !- Outside Boundary Condition
    ,                         !- Outside Boundary Condition Object
    SunExposed,               !- Sun Exposure
    WindExposed,              !- Wind Exposure
    autocalculate,            !- View Factor to Ground
    autocalculate,            !- Number of Vertices
    4.7879,                   !- Vertex 1 Xcoordinate
    21.3964,                  !- Vertex 1 Ycoordinate
    21,                       !- Vertex 1 Zcoordinate
    4.7879,                   !- Vertex 2 Xcoordinate
    21.3964,                  !- Vertex 2 Ycoordinate
    0,                        !- Vertex 2 Zcoordinate
    -0.7391,                  !- Vertex 3 Xcoordinate
    27.8714,                  !- Vertex 3 Ycoordinate
    0,                        !- Vertex 3 Zcoordinate
    -0.7391,                  !- Vertex 4 Xcoordinate
    27.8714,                  !- Vertex 4 Ycoordinate
    21;                       !- Vertex 4 Zcoordinate

BUILDINGSURFACE:DETAILED,
    Block Build0_Alt0 Storey 0 Wall 0012,    !- Name
    wall,                     !- Surface Type
    Project Wall,             !- Construction Name
    Block Build0_Alt0 Storey 0,    !- Zone Name
    outdoors,                 !- Outside Boundary Condition
    ,                         !- Outside Boundary Condition Object
    SunExposed,               !- Sun Exposure
    WindExposed,              !- Wind Exposure
    autocalculate,            !- View Factor to Ground
    autocalculate,            !- Number of Vertices
    -0.7391,                  !- Vertex 1 Xcoordinate
    27.8714,                  !- Vertex 1 Ycoordinate
    21,                       !- Vertex 1 Zcoordinate
    -0.7391,                  !- Vertex 2 Xcoordinate
    27.8714,                  !- Vertex 2 Ycoordinate
    0,                        !- Vertex 2 Zcoordinate
    -6.6881,                  !- Vertex 3 Xcoordinate
    22.8244,                  !- Vertex 3 Ycoordinate
    0,                        !- Vertex 3 Zcoordinate
    -6.6881,                  !- Vertex 4 Xcoordinate
    22.8244,                  !- Vertex 4 Ycoordinate
    21;                       !- Vertex 4 Zcoordinate

BUILDINGSURFACE:DETAILED,
    Block Build0_Alt0 Storey 0 Wall 0013,    !- Name
    wall,                     !- Surface Type
    Project Wall,             !- Construction Name
    Block Build0_Alt0 Storey 0,    !- Zone Name
    outdoors,                 !- Outside Boundary Condition
    ,                         !- Outside Boundary Condition Object
    SunExposed,               !- Sun Exposure
    WindExposed,              !- Wind Exposure
    autocalculate,            !- View Factor to Ground
    autocalculate,            !- Number of Vertices
    -6.6881,                  !- Vertex 1 Xcoordinate
    22.8244,                  !- Vertex 1 Ycoordinate
    21,                       !- Vertex 1 Zcoordinate
    -6.6881,                  !- Vertex 2 Xcoordinate
    22.8244,                  !- Vertex 2 Ycoordinate
    0,                        !- Vertex 2 Zcoordinate
    -9.2671,                  !- Vertex 3 Xcoordinate
    25.8824,                  !- Vertex 3 Ycoordinate
    0,                        !- Vertex 3 Zcoordinate
    -9.2671,                  !- Vertex 4 Xcoordinate
    25.8824,                  !- Vertex 4 Ycoordinate
    21;                       !- Vertex 4 Zcoordinate

BUILDINGSURFACE:DETAILED,
    Block Build0_Alt0 Storey 0 Wall 0014,    !- Name
    wall,                     !- Surface Type
    Project Wall,             !- Construction Name
    Block Build0_Alt0 Storey 0,    !- Zone Name
    outdoors,                 !- Outside Boundary Condition
    ,                         !- Outside Boundary Condition Object
    SunExposed,               !- Sun Exposure
    WindExposed,              !- Wind Exposure
    autocalculate,            !- View Factor to Ground
    autocalculate,            !- Number of Vertices
    -9.2671,                  !- Vertex 1 Xcoordinate
    25.8824,                  !- Vertex 1 Ycoordinate
    21,                       !- Vertex 1 Zcoordinate
    -9.2671,                  !- Vertex 2 Xcoordinate
    25.8824,                  !- Vertex 2 Ycoordinate
    0,                        !- Vertex 2 Zcoordinate
    -16.9861,                 !- Vertex 3 Xcoordinate
    19.3364,                  !- Vertex 3 Ycoordinate
    0,                        !- Vertex 3 Zcoordinate
    -16.9861,                 !- Vertex 4 Xcoordinate
    19.3364,                  !- Vertex 4 Ycoordinate
    21;                       !- Vertex 4 Zcoordinate

BUILDINGSURFACE:DETAILED,
    Block Build0_Alt0 Storey 0 Wall 0015,    !- Name
    wall,                     !- Surface Type
    Project Wall,             !- Construction Name
    Block Build0_Alt0 Storey 0,    !- Zone Name
    outdoors,                 !- Outside Boundary Condition
    ,                         !- Outside Boundary Condition Object
    SunExposed,               !- Sun Exposure
    WindExposed,              !- Wind Exposure
    autocalculate,            !- View Factor to Ground
    autocalculate,            !- Number of Vertices
    -16.9861,                 !- Vertex 1 Xcoordinate
    19.3364,                  !- Vertex 1 Ycoordinate
    21,                       !- Vertex 1 Zcoordinate
    -16.9861,                 !- Vertex 2 Xcoordinate
    19.3364,                  !- Vertex 2 Ycoordinate
    0,                        !- Vertex 2 Zcoordinate
    4.8419,                   !- Vertex 3 Xcoordinate
    -6.0436,                  !- Vertex 3 Ycoordinate
    0,                        !- Vertex 3 Zcoordinate
    4.8419,                   !- Vertex 4 Xcoordinate
    -6.0436,                  !- Vertex 4 Ycoordinate
    21;                       !- Vertex 4 Zcoordinate

BUILDINGSURFACE:DETAILED,
    Block Build0_Alt0 Storey 0 Wall 0016,    !- Name
    wall,                     !- Surface Type
    Project Wall,             !- Construction Name
    Block Build0_Alt0 Storey 0,    !- Zone Name
    outdoors,                 !- Outside Boundary Condition
    ,                         !- Outside Boundary Condition Object
    SunExposed,               !- Sun Exposure
    WindExposed,              !- Wind Exposure
    autocalculate,            !- View Factor to Ground
    autocalculate,            !- Number of Vertices
    4.8419,                   !- Vertex 1 Xcoordinate
    -6.0436,                  !- Vertex 1 Ycoordinate
    21,                       !- Vertex 1 Zcoordinate
    4.8419,                   !- Vertex 2 Xcoordinate
    -6.0436,                  !- Vertex 2 Ycoordinate
    0,                        !- Vertex 2 Zcoordinate
    1.8319,                   !- Vertex 3 Xcoordinate
    -8.6346,                  !- Vertex 3 Ycoordinate
    0,                        !- Vertex 3 Zcoordinate
    1.8319,                   !- Vertex 4 Xcoordinate
    -8.6346,                  !- Vertex 4 Ycoordinate
    21;                       !- Vertex 4 Zcoordinate

BUILDINGSURFACE:DETAILED,
    Block Build0_Alt0 Storey 0 Floor 0001,    !- Name
    floor,                    !- Surface Type
    Project Heated1rstFloor,    !- Construction Name
    Block Build0_Alt0 Storey 0,    !- Zone Name
    ground,                   !- Outside Boundary Condition
    ,                         !- Outside Boundary Condition Object
    NoSun,                    !- Sun Exposure
    NoWind,                   !- Wind Exposure
    autocalculate,            !- View Factor to Ground
    autocalculate,            !- Number of Vertices
    4.7879,                   !- Vertex 1 Xcoordinate
    21.3964,                  !- Vertex 1 Ycoordinate
    0,                        !- Vertex 1 Zcoordinate
    -1.1021,                  !- Vertex 2 Xcoordinate
    16.2984,                  !- Vertex 2 Ycoordinate
    0,                        !- Vertex 2 Zcoordinate
    13.4829,                  !- Vertex 3 Xcoordinate
    -0.5966,                  !- Vertex 3 Ycoordinate
    0,                        !- Vertex 3 Zcoordinate
    19.3929,                  !- Vertex 4 Xcoordinate
    4.4904,                   !- Vertex 4 Ycoordinate
    0,                        !- Vertex 4 Zcoordinate
    25.9469,                  !- Vertex 5 Xcoordinate
    -3.2066,                  !- Vertex 5 Ycoordinate
    0,                        !- Vertex 5 Zcoordinate
    20.0239,                  !- Vertex 6 Xcoordinate
    -8.2806,                  !- Vertex 6 Ycoordinate
    0,                        !- Vertex 6 Zcoordinate
    22.6339,                  !- Vertex 7 Xcoordinate
    -11.3126,                 !- Vertex 7 Ycoordinate
    0,                        !- Vertex 7 Zcoordinate
    14.9759,                  !- Vertex 8 Xcoordinate
    -17.8706,                 !- Vertex 8 Ycoordinate
    0,                        !- Vertex 8 Zcoordinate
    9.2149,                   !- Vertex 9 Xcoordinate
    -11.1236,                 !- Vertex 9 Ycoordinate
    0,                        !- Vertex 9 Zcoordinate
    6.1869,                   !- Vertex 10 Xcoordinate
    -13.7386,                 !- Vertex 10 Ycoordinate
    0,                        !- Vertex 10 Zcoordinate
    1.8319,                   !- Vertex 11 Xcoordinate
    -8.6346,                  !- Vertex 11 Ycoordinate
    0,                        !- Vertex 11 Zcoordinate
    4.8419,                   !- Vertex 12 Xcoordinate
    -6.0436,                  !- Vertex 12 Ycoordinate
    0,                        !- Vertex 12 Zcoordinate
    -16.9861,                 !- Vertex 13 Xcoordinate
    19.3364,                  !- Vertex 13 Ycoordinate
    0,                        !- Vertex 13 Zcoordinate
    -9.2671,                  !- Vertex 14 Xcoordinate
    25.8824,                  !- Vertex 14 Ycoordinate
    0,                        !- Vertex 14 Zcoordinate
    -6.6881,                  !- Vertex 15 Xcoordinate
    22.8244,                  !- Vertex 15 Ycoordinate
    0,                        !- Vertex 15 Zcoordinate
    -0.7391,                  !- Vertex 16 Xcoordinate
    27.8714,                  !- Vertex 16 Ycoordinate
    0;                        !- Vertex 16 Zcoordinate

BUILDINGSURFACE:DETAILED,
    Block Build0_Alt0 Storey 0 Roof 0001_0,    !- Name
    roof,                     !- Surface Type
    Project Flat Roof,        !- Construction Name
    Block Build0_Alt0 Storey 0,    !- Zone Name
    outdoors,                 !- Outside Boundary Condition
    ,                         !- Outside Boundary Condition Object
    SunExposed,               !- Sun Exposure
    WindExposed,              !- Wind Exposure
    autocalculate,            !- View Factor to Ground
    autocalculate,            !- Number of Vertices
    9.2149,                   !- Vertex 1 Xcoordinate
    -11.1236,                 !- Vertex 1 Ycoordinate
    21,                       !- Vertex 1 Zcoordinate
    13.4829,                  !- Vertex 2 Xcoordinate
    -0.5966,                  !- Vertex 2 Ycoordinate
    21,                       !- Vertex 2 Zcoordinate
    -1.1021,                  !- Vertex 3 Xcoordinate
    16.2984,                  !- Vertex 3 Ycoordinate
    21;                       !- Vertex 3 Zcoordinate

BUILDINGSURFACE:DETAILED,
    Block Build0_Alt0 Storey 0 Roof 0001_1,    !- Name
    roof,                     !- Surface Type
    Project Flat Roof,        !- Construction Name
    Block Build0_Alt0 Storey 0,    !- Zone Name
    outdoors,                 !- Outside Boundary Condition
    ,                         !- Outside Boundary Condition Object
    SunExposed,               !- Sun Exposure
    WindExposed,              !- Wind Exposure
    autocalculate,            !- View Factor to Ground
    autocalculate,            !- Number of Vertices
    9.2149,                   !- Vertex 1 Xcoordinate
    -11.1236,                 !- Vertex 1 Ycoordinate
    21,                       !- Vertex 1 Zcoordinate
    4.8419,                   !- Vertex 2 Xcoordinate
    -6.0436,                  !- Vertex 2 Ycoordinate
    21,                       !- Vertex 2 Zcoordinate
    1.8319,                   !- Vertex 3 Xcoordinate
    -8.6346,                  !- Vertex 3 Ycoordinate
    21,                       !- Vertex 3 Zcoordinate
    6.1869,                   !- Vertex 4 Xcoordinate
    -13.7386,                 !- Vertex 4 Ycoordinate
    21;                       !- Vertex 4 Zcoordinate

BUILDINGSURFACE:DETAILED,
    Block Build0_Alt0 Storey 0 Roof 0001_2,    !- Name
    roof,                     !- Surface Type
    Project Flat Roof,        !- Construction Name
    Block Build0_Alt0 Storey 0,    !- Zone Name
    outdoors,                 !- Outside Boundary Condition
    ,                         !- Outside Boundary Condition Object
    SunExposed,               !- Sun Exposure
    WindExposed,              !- Wind Exposure
    autocalculate,            !- View Factor to Ground
    autocalculate,            !- Number of Vertices
    22.6339,                  !- Vertex 1 Xcoordinate
    -11.3126,                 !- Vertex 1 Ycoordinate
    21,                       !- Vertex 1 Zcoordinate
    20.0239,                  !- Vertex 2 Xcoordinate
    -8.2806,                  !- Vertex 2 Ycoordinate
    21,                       !- Vertex 2 Zcoordinate
    9.2149,                   !- Vertex 3 Xcoordinate
    -11.1236,                 !- Vertex 3 Ycoordinate
    21,                       !- Vertex 3 Zcoordinate
    14.9759,                  !- Vertex 4 Xcoordinate
    -17.8706,                 !- Vertex 4 Ycoordinate
    21;                       !- Vertex 4 Zcoordinate

BUILDINGSURFACE:DETAILED,
    Block Build0_Alt0 Storey 0 Roof 0001_3,    !- Name
    roof,                     !- Surface Type
    Project Flat Roof,        !- Construction Name
    Block Build0_Alt0 Storey 0,    !- Zone Name
    outdoors,                 !- Outside Boundary Condition
    ,                         !- Outside Boundary Condition Object
    SunExposed,               !- Sun Exposure
    WindExposed,              !- Wind Exposure
    autocalculate,            !- View Factor to Ground
    autocalculate,            !- Number of Vertices
    4.8419,                   !- Vertex 1 Xcoordinate
    -6.0436,                  !- Vertex 1 Ycoordinate
    21,                       !- Vertex 1 Zcoordinate
    -6.6881,                  !- Vertex 2 Xcoordinate
    22.8244,                  !- Vertex 2 Ycoordinate
    21,                       !- Vertex 2 Zcoordinate
    -9.2671,                  !- Vertex 3 Xcoordinate
    25.8824,                  !- Vertex 3 Ycoordinate
    21,                       !- Vertex 3 Zcoordinate
    -16.9861,                 !- Vertex 4 Xcoordinate
    19.3364,                  !- Vertex 4 Ycoordinate
    21;                       !- Vertex 4 Zcoordinate

BUILDINGSURFACE:DETAILED,
    Block Build0_Alt0 Storey 0 Roof 0001_4,    !- Name
    roof,                     !- Surface Type
    Project Flat Roof,        !- Construction Name
    Block Build0_Alt0 Storey 0,    !- Zone Name
    outdoors,                 !- Outside Boundary Condition
    ,                         !- Outside Boundary Condition Object
    SunExposed,               !- Sun Exposure
    WindExposed,              !- Wind Exposure
    autocalculate,            !- View Factor to Ground
    autocalculate,            !- Number of Vertices
    4.7879,                   !- Vertex 1 Xcoordinate
    21.3964,                  !- Vertex 1 Ycoordinate
    21,                       !- Vertex 1 Zcoordinate
    -0.7391,                  !- Vertex 2 Xcoordinate
    27.8714,                  !- Vertex 2 Ycoordinate
    21,                       !- Vertex 2 Zcoordinate
    -6.6881,                  !- Vertex 3 Xcoordinate
    22.8244,                  !- Vertex 3 Ycoordinate
    21,                       !- Vertex 3 Zcoordinate
    -1.1021,                  !- Vertex 4 Xcoordinate
    16.2984,                  !- Vertex 4 Ycoordinate
    21;                       !- Vertex 4 Zcoordinate

BUILDINGSURFACE:DETAILED,
    Block Build0_Alt0 Storey 0 Roof 0001_5,    !- Name
    roof,                     !- Surface Type
    Project Flat Roof,        !- Construction Name
    Block Build0_Alt0 Storey 0,    !- Zone Name
    outdoors,                 !- Outside Boundary Condition
    ,                         !- Outside Boundary Condition Object
    SunExposed,               !- Sun Exposure
    WindExposed,              !- Wind Exposure
    autocalculate,            !- View Factor to Ground
    autocalculate,            !- Number of Vertices
    9.2149,                   !- Vertex 1 Xcoordinate
    -11.1236,                 !- Vertex 1 Ycoordinate
    21,                       !- Vertex 1 Zcoordinate
    -1.1021,                  !- Vertex 2 Xcoordinate
    16.2984,                  !- Vertex 2 Ycoordinate
    21,                       !- Vertex 2 Zcoordinate
    -6.6881,                  !- Vertex 3 Xcoordinate
    22.8244,                  !- Vertex 3 Ycoordinate
    21,                       !- Vertex 3 Zcoordinate
    4.8419,                   !- Vertex 4 Xcoordinate
    -6.0436,                  !- Vertex 4 Ycoordinate
    21;                       !- Vertex 4 Zcoordinate

BUILDINGSURFACE:DETAILED,
    Block Build0_Alt0 Storey 0 Roof 0001_6,    !- Name
    roof,                     !- Surface Type
    Project Flat Roof,        !- Construction Name
    Block Build0_Alt0 Storey 0,    !- Zone Name
    outdoors,                 !- Outside Boundary Condition
    ,                         !- Outside Boundary Condition Object
    SunExposed,               !- Sun Exposure
    WindExposed,              !- Wind Exposure
    autocalculate,            !- View Factor to Ground
    autocalculate,            !- Number of Vertices
    20.0239,                  !- Vertex 1 Xcoordinate
    -8.2806,                  !- Vertex 1 Ycoordinate
    21,                       !- Vertex 1 Zcoordinate
    25.9469,                  !- Vertex 2 Xcoordinate
    -3.2066,                  !- Vertex 2 Ycoordinate
    21,                       !- Vertex 2 Zcoordinate
    19.3929,                  !- Vertex 3 Xcoordinate
    4.4904,                   !- Vertex 3 Ycoordinate
    21,                       !- Vertex 3 Zcoordinate
    13.4829,                  !- Vertex 4 Xcoordinate
    -0.5966,                  !- Vertex 4 Ycoordinate
    21,                       !- Vertex 4 Zcoordinate
    9.2149,                   !- Vertex 5 Xcoordinate
    -11.1236,                 !- Vertex 5 Ycoordinate
    21;                       !- Vertex 5 Zcoordinate

FENESTRATIONSURFACE:DETAILED,
    Block Build0_Alt0 Storey 0 Wall 0001 window,    !- Name
    Window,                   !- Surface Type
    Project External Window,    !- Construction Name
    Block Build0_Alt0 Storey 0 Wall 0001,    !- Building Surface Name
    ,                         !- Outside Boundary Condition Object
    autocalculate,            !- View Factor to Ground
    ,                         !- Frame and Divider Name
    1.0,                      !- Multiplier
    autocalculate,            !- Number of Vertices
    1.8340775000000002,       !- Vertex 1 Xcoordinate
    -8.637152,                !- Vertex 1 Ycoordinate
    13.65,                    !- Vertex 1 Zcoordinate
    1.8340775000000002,       !- Vertex 2 Xcoordinate
    -8.637152,                !- Vertex 2 Ycoordinate
    7.35,                     !- Vertex 2 Zcoordinate
    6.1847224999999995,       !- Vertex 3 Xcoordinate
    -13.736048,               !- Vertex 3 Ycoordinate
    7.35,                     !- Vertex 3 Zcoordinate
    6.1847224999999995,       !- Vertex 4 Xcoordinate
    -13.736048,               !- Vertex 4 Ycoordinate
    13.65;                    !- Vertex 4 Zcoordinate

FENESTRATIONSURFACE:DETAILED,
    Block Build0_Alt0 Storey 0 Wall 0002 window,    !- Name
    Window,                   !- Surface Type
    Project External Window,    !- Construction Name
    Block Build0_Alt0 Storey 0 Wall 0002,    !- Building Surface Name
    ,                         !- Outside Boundary Condition Object
    autocalculate,            !- View Factor to Ground
    ,                         !- Frame and Divider Name
    1.0,                      !- Multiplier
    autocalculate,            !- Number of Vertices
    6.188414,                 !- Vertex 1 Xcoordinate
    -13.7372925,              !- Vertex 1 Ycoordinate
    13.65,                    !- Vertex 1 Zcoordinate
    6.188414,                 !- Vertex 2 Xcoordinate
    -13.7372925,              !- Vertex 2 Ycoordinate
    7.35,                     !- Vertex 2 Zcoordinate
    9.213386,                 !- Vertex 3 Xcoordinate
    -1.112491e+01,            !- Vertex 3 Ycoordinate
    7.35,                     !- Vertex 3 Zcoordinate
    9.213386,                 !- Vertex 4 Xcoordinate
    -1.112491e+01,            !- Vertex 4 Ycoordinate
    13.65;                    !- Vertex 4 Zcoordinate

FENESTRATIONSURFACE:DETAILED,
    Block Build0_Alt0 Storey 0 Wall 0003 window,    !- Name
    Window,                   !- Surface Type
    Project External Window,    !- Construction Name
    Block Build0_Alt0 Storey 0 Wall 0003,    !- Building Surface Name
    ,                         !- Outside Boundary Condition Object
    autocalculate,            !- View Factor to Ground
    ,                         !- Frame and Divider Name
    1.0,                      !- Multiplier
    autocalculate,            !- Number of Vertices
    9.2177805,                !- Vertex 1 Xcoordinate
    -11.1269735,              !- Vertex 1 Ycoordinate
    13.65,                    !- Vertex 1 Zcoordinate
    9.2177805,                !- Vertex 2 Xcoordinate
    -11.1269735,              !- Vertex 2 Ycoordinate
    7.35,                     !- Vertex 2 Zcoordinate
    14.9730195,               !- Vertex 3 Xcoordinate
    -17.8672265,              !- Vertex 3 Ycoordinate
    7.35,                     !- Vertex 3 Zcoordinate
    14.9730195,               !- Vertex 4 Xcoordinate
    -17.8672265,              !- Vertex 4 Ycoordinate
    13.65;                    !- Vertex 4 Zcoordinate

FENESTRATIONSURFACE:DETAILED,
    Block Build0_Alt0 Storey 0 Wall 0004 window,    !- Name
    Window,                   !- Surface Type
    Project External Window,    !- Construction Name
    Block Build0_Alt0 Storey 0 Wall 0004,    !- Building Surface Name
    ,                         !- Outside Boundary Condition Object
    autocalculate,            !- View Factor to Ground
    ,                         !- Frame and Divider Name
    1.0,                      !- Multiplier
    autocalculate,            !- Number of Vertices
    14.979728999999999,       !- Vertex 1 Xcoordinate
    -17.867321,               !- Vertex 1 Ycoordinate
    13.65,                    !- Vertex 1 Zcoordinate
    14.979728999999999,       !- Vertex 2 Xcoordinate
    -17.867321,               !- Vertex 2 Ycoordinate
    7.35,                     !- Vertex 2 Zcoordinate
    22.630071,                !- Vertex 3 Xcoordinate
    -1.131588e+01,            !- Vertex 3 Ycoordinate
    7.35,                     !- Vertex 3 Zcoordinate
    22.630071,                !- Vertex 4 Xcoordinate
    -1.131588e+01,            !- Vertex 4 Ycoordinate
    13.65;                    !- Vertex 4 Zcoordinate

FENESTRATIONSURFACE:DETAILED,
    Block Build0_Alt0 Storey 0 Wall 0005 window,    !- Name
    Window,                   !- Surface Type
    Project External Window,    !- Construction Name
    Block Build0_Alt0 Storey 0 Wall 0005,    !- Building Surface Name
    ,                         !- Outside Boundary Condition Object
    autocalculate,            !- View Factor to Ground
    ,                         !- Frame and Divider Name
    1.0,                      !- Multiplier
    autocalculate,            !- Number of Vertices
    22.632595000000002,       !- Vertex 1 Xcoordinate
    -11.311084,               !- Vertex 1 Ycoordinate
    13.65,                    !- Vertex 1 Zcoordinate
    22.632595000000002,       !- Vertex 2 Xcoordinate
    -11.311084,               !- Vertex 2 Ycoordinate
    7.35,                     !- Vertex 2 Zcoordinate
    20.025205,                !- Vertex 3 Xcoordinate
    -8.282116,                !- Vertex 3 Ycoordinate
    7.35,                     !- Vertex 3 Zcoordinate
    20.025205,                !- Vertex 4 Xcoordinate
    -8.282116,                !- Vertex 4 Ycoordinate
    13.65;                    !- Vertex 4 Zcoordinate

FENESTRATIONSURFACE:DETAILED,
    Block Build0_Alt0 Storey 0 Wall 0006 window,    !- Name
    Window,                   !- Surface Type
    Project External Window,    !- Construction Name
    Block Build0_Alt0 Storey 0 Wall 0006,    !- Building Surface Name
    ,                         !- Outside Boundary Condition Object
    autocalculate,            !- View Factor to Ground
    ,                         !- Frame and Divider Name
    1.0,                      !- Multiplier
    autocalculate,            !- Number of Vertices
    20.026861500000003,       !- Vertex 1 Xcoordinate
    -8.278063,                !- Vertex 1 Ycoordinate
    13.65,                    !- Vertex 1 Zcoordinate
    20.026861500000003,       !- Vertex 2 Xcoordinate
    -8.278063,                !- Vertex 2 Ycoordinate
    7.35,                     !- Vertex 2 Zcoordinate
    25.943938499999998,       !- Vertex 3 Xcoordinate
    -3.209137e+00,            !- Vertex 3 Ycoordinate
    7.35,                     !- Vertex 3 Zcoordinate
    25.943938499999998,       !- Vertex 4 Xcoordinate
    -3.209137e+00,            !- Vertex 4 Ycoordinate
    13.65;                    !- Vertex 4 Zcoordinate

FENESTRATIONSURFACE:DETAILED,
    Block Build0_Alt0 Storey 0 Wall 0007 window,    !- Name
    Window,                   !- Surface Type
    Project External Window,    !- Construction Name
    Block Build0_Alt0 Storey 0 Wall 0007,    !- Building Surface Name
    ,                         !- Outside Boundary Condition Object
    autocalculate,            !- View Factor to Ground
    ,                         !- Frame and Divider Name
    1.0,                      !- Multiplier
    autocalculate,            !- Number of Vertices
    25.943623,                !- Vertex 1 Xcoordinate
    -3.202751e+00,            !- Vertex 1 Ycoordinate
    13.65,                    !- Vertex 1 Zcoordinate
    25.943623,                !- Vertex 2 Xcoordinate
    -3.202751e+00,            !- Vertex 2 Ycoordinate
    7.35,                     !- Vertex 2 Zcoordinate
    19.396177,                !- Vertex 3 Xcoordinate
    4.4865515,                !- Vertex 3 Ycoordinate
    7.35,                     !- Vertex 3 Zcoordinate
    19.396177,                !- Vertex 4 Xcoordinate
    4.4865515,                !- Vertex 4 Ycoordinate
    13.65;                    !- Vertex 4 Zcoordinate

FENESTRATIONSURFACE:DETAILED,
    Block Build0_Alt0 Storey 0 Wall 0008 window,    !- Name
    Window,                   !- Surface Type
    Project External Window,    !- Construction Name
    Block Build0_Alt0 Storey 0 Wall 0008,    !- Building Surface Name
    ,                         !- Outside Boundary Condition Object
    autocalculate,            !- View Factor to Ground
    ,                         !- Frame and Divider Name
    1.0,                      !- Multiplier
    autocalculate,            !- Number of Vertices
    19.389945,                !- Vertex 1 Xcoordinate
    4.4878565,                !- Vertex 1 Ycoordinate
    13.65,                    !- Vertex 1 Zcoordinate
    19.389945,                !- Vertex 2 Xcoordinate
    4.4878565,                !- Vertex 2 Ycoordinate
    7.35,                     !- Vertex 2 Zcoordinate
    13.485855,                !- Vertex 3 Xcoordinate
    -5.940565e-01,            !- Vertex 3 Ycoordinate
    7.35,                     !- Vertex 3 Zcoordinate
    13.485855,                !- Vertex 4 Xcoordinate
    -5.940565e-01,            !- Vertex 4 Ycoordinate
    13.65;                    !- Vertex 4 Zcoordinate

FENESTRATIONSURFACE:DETAILED,
    Block Build0_Alt0 Storey 0 Wall 0009 window,    !- Name
    Window,                   !- Surface Type
    Project External Window,    !- Construction Name
    Block Build0_Alt0 Storey 0 Wall 0009,    !- Building Surface Name
    ,                         !- Outside Boundary Condition Object
    autocalculate,            !- View Factor to Ground
    ,                         !- Frame and Divider Name
    1.0,                      !- Multiplier
    autocalculate,            !- Number of Vertices
    13.4756075,               !- Vertex 1 Xcoordinate
    -5.881525e-01,            !- Vertex 1 Ycoordinate
    13.65,                    !- Vertex 1 Zcoordinate
    13.4756075,               !- Vertex 2 Xcoordinate
    -5.881525e-01,            !- Vertex 2 Ycoordinate
    7.35,                     !- Vertex 2 Zcoordinate
    -1.0948075,               !- Vertex 3 Xcoordinate
    16.289952500000002,       !- Vertex 3 Ycoordinate
    7.35,                     !- Vertex 3 Zcoordinate
    -1.0948075,               !- Vertex 4 Xcoordinate
    16.289952500000002,       !- Vertex 4 Ycoordinate
    13.65;                    !- Vertex 4 Zcoordinate

FENESTRATIONSURFACE:DETAILED,
    Block Build0_Alt0 Storey 0 Wall 0010 window,    !- Name
    Window,                   !- Surface Type
    Project External Window,    !- Construction Name
    Block Build0_Alt0 Storey 0 Wall 0010,    !- Building Surface Name
    ,                         !- Outside Boundary Condition Object
    autocalculate,            !- View Factor to Ground
    ,                         !- Frame and Divider Name
    1.0,                      !- Multiplier
    autocalculate,            !- Number of Vertices
    -1.099155,                !- Vertex 1 Xcoordinate
    16.300949000000003,       !- Vertex 1 Ycoordinate
    13.65,                    !- Vertex 1 Zcoordinate
    -1.099155,                !- Vertex 2 Xcoordinate
    16.300949000000003,       !- Vertex 2 Ycoordinate
    7.35,                     !- Vertex 2 Zcoordinate
    4.784955,                 !- Vertex 3 Xcoordinate
    21.393850999999998,       !- Vertex 3 Ycoordinate
    7.35,                     !- Vertex 3 Zcoordinate
    4.784955,                 !- Vertex 4 Xcoordinate
    21.393850999999998,       !- Vertex 4 Ycoordinate
    13.65;                    !- Vertex 4 Zcoordinate

FENESTRATIONSURFACE:DETAILED,
    Block Build0_Alt0 Storey 0 Wall 0011 window,    !- Name
    Window,                   !- Surface Type
    Project External Window,    !- Construction Name
    Block Build0_Alt0 Storey 0 Wall 0011,    !- Building Surface Name
    ,                         !- Outside Boundary Condition Object
    autocalculate,            !- View Factor to Ground
    ,                         !- Frame and Divider Name
    1.0,                      !- Multiplier
    autocalculate,            !- Number of Vertices
    4.7851365,                !- Vertex 1 Xcoordinate
    21.3996375,               !- Vertex 1 Ycoordinate
    13.65,                    !- Vertex 1 Zcoordinate
    4.7851365,                !- Vertex 2 Xcoordinate
    21.3996375,               !- Vertex 2 Ycoordinate
    7.35,                     !- Vertex 2 Zcoordinate
    -7.363365e-01,            !- Vertex 3 Xcoordinate
    27.8681625,               !- Vertex 3 Ycoordinate
    7.35,                     !- Vertex 3 Zcoordinate
    -7.363365e-01,            !- Vertex 4 Xcoordinate
    27.8681625,               !- Vertex 4 Ycoordinate
    13.65;                    !- Vertex 4 Zcoordinate

FENESTRATIONSURFACE:DETAILED,
    Block Build0_Alt0 Storey 0 Wall 0012 window,    !- Name
    Window,                   !- Surface Type
    Project External Window,    !- Construction Name
    Block Build0_Alt0 Storey 0 Wall 0012,    !- Building Surface Name
    ,                         !- Outside Boundary Condition Object
    autocalculate,            !- View Factor to Ground
    ,                         !- Frame and Divider Name
    1.0,                      !- Multiplier
    autocalculate,            !- Number of Vertices
    -7.420745e-01,            !- Vertex 1 Xcoordinate
    27.868876500000002,       !- Vertex 1 Ycoordinate
    13.65,                    !- Vertex 1 Zcoordinate
    -7.420745e-01,            !- Vertex 2 Xcoordinate
    27.868876500000002,       !- Vertex 2 Ycoordinate
    7.35,                     !- Vertex 2 Zcoordinate
    -6.6851255,               !- Vertex 3 Xcoordinate
    22.8269235,               !- Vertex 3 Ycoordinate
    7.35,                     !- Vertex 3 Zcoordinate
    -6.6851255,               !- Vertex 4 Xcoordinate
    22.8269235,               !- Vertex 4 Ycoordinate
    13.65;                    !- Vertex 4 Zcoordinate

FENESTRATIONSURFACE:DETAILED,
    Block Build0_Alt0 Storey 0 Wall 0013 window,    !- Name
    Window,                   !- Surface Type
    Project External Window,    !- Construction Name
    Block Build0_Alt0 Storey 0 Wall 0013,    !- Building Surface Name
    ,                         !- Outside Boundary Condition Object
    autocalculate,            !- View Factor to Ground
    ,                         !- Frame and Divider Name
    1.0,                      !- Multiplier
    autocalculate,            !- Number of Vertices
    -6.689389500000001,       !- Vertex 1 Xcoordinate
    22.825929000000002,       !- Vertex 1 Ycoordinate
    13.65,                    !- Vertex 1 Zcoordinate
    -6.689389500000001,       !- Vertex 2 Xcoordinate
    22.825929000000002,       !- Vertex 2 Ycoordinate
    7.35,                     !- Vertex 2 Zcoordinate
    -9.265810499999999,       !- Vertex 3 Xcoordinate
    25.880871,                !- Vertex 3 Ycoordinate
    7.35,                     !- Vertex 3 Zcoordinate
    -9.265810499999999,       !- Vertex 4 Xcoordinate
    25.880871,                !- Vertex 4 Ycoordinate
    13.65;                    !- Vertex 4 Zcoordinate

FENESTRATIONSURFACE:DETAILED,
    Block Build0_Alt0 Storey 0 Wall 0014 window,    !- Name
    Window,                   !- Surface Type
    Project External Window,    !- Construction Name
    Block Build0_Alt0 Storey 0 Wall 0014,    !- Building Surface Name
    ,                         !- Outside Boundary Condition Object
    autocalculate,            !- View Factor to Ground
    ,                         !- Frame and Divider Name
    1.0,                      !- Multiplier
    autocalculate,            !- Number of Vertices
    -9.2709595,               !- Vertex 1 Xcoordinate
    25.879127,                !- Vertex 1 Ycoordinate
    13.65,                    !- Vertex 1 Zcoordinate
    -9.2709595,               !- Vertex 2 Xcoordinate
    25.879127,                !- Vertex 2 Ycoordinate
    7.35,                     !- Vertex 2 Zcoordinate
    -16.9822405,              !- Vertex 3 Xcoordinate
    19.339673,                !- Vertex 3 Ycoordinate
    7.35,                     !- Vertex 3 Zcoordinate
    -16.9822405,              !- Vertex 4 Xcoordinate
    19.339673,                !- Vertex 4 Ycoordinate
    13.65;                    !- Vertex 4 Zcoordinate

FENESTRATIONSURFACE:DETAILED,
    Block Build0_Alt0 Storey 0 Wall 0015 window,    !- Name
    Window,                   !- Surface Type
    Project External Window,    !- Construction Name
    Block Build0_Alt0 Storey 0 Wall 0015,    !- Building Surface Name
    ,                         !- Outside Boundary Condition Object
    autocalculate,            !- View Factor to Ground
    ,                         !- Frame and Divider Name
    1.0,                      !- Multiplier
    autocalculate,            !- Number of Vertices
    -16.975186,               !- Vertex 1 Xcoordinate
    19.323710000000002,       !- Vertex 1 Ycoordinate
    13.65,                    !- Vertex 1 Zcoordinate
    -16.975186,               !- Vertex 2 Xcoordinate
    19.323710000000002,       !- Vertex 2 Ycoordinate
    7.35,                     !- Vertex 2 Zcoordinate
    4.830986000000001,        !- Vertex 3 Xcoordinate
    -6.03091,                 !- Vertex 3 Ycoordinate
    7.35,                     !- Vertex 3 Zcoordinate
    4.830986000000001,        !- Vertex 4 Xcoordinate
    -6.03091,                 !- Vertex 4 Ycoordinate
    13.65;                    !- Vertex 4 Zcoordinate

FENESTRATIONSURFACE:DETAILED,
    Block Build0_Alt0 Storey 0 Wall 0016 window,    !- Name
    Window,                   !- Surface Type
    Project External Window,    !- Construction Name
    Block Build0_Alt0 Storey 0 Wall 0016,    !- Building Surface Name
    ,                         !- Outside Boundary Condition Object
    autocalculate,            !- View Factor to Ground
    ,                         !- Frame and Divider Name
    1.0,                      !- Multiplier
    autocalculate,            !- Number of Vertices
    4.840395,                 !- Vertex 1 Xcoordinate
    -6.044895499999999,       !- Vertex 1 Ycoordinate
    13.65,                    !- Vertex 1 Zcoordinate
    4.840395,                 !- Vertex 2 Xcoordinate
    -6.044895499999999,       !- Vertex 2 Ycoordinate
    7.35,                     !- Vertex 2 Zcoordinate
    1.8334050000000002,       !- Vertex 3 Xcoordinate
    -8.633304500000001,       !- Vertex 3 Ycoordinate
    7.35,                     !- Vertex 3 Zcoordinate
    1.8334050000000002,       !- Vertex 4 Xcoordinate
    -8.633304500000001,       !- Vertex 4 Ycoordinate
    13.65;                    !- Vertex 4 Zcoordinate

INTERNALMASS,
    Block Build0_Alt0 Storey 0IntMass,    !- Name
    HeatedZoneIntMassObj,     !- Construction Name
    Block Build0_Alt0 Storey 0,    !- Zone or ZoneList Name
    9329;                     !- Surface Area

SHADING:SITE:DETAILED,
    Shading_V77_1,            !- Name
    ,                         !- Transmittance Schedule Name
    autocalculate,            !- Number of Vertices
    -126.8611,                !- Vertex 1 Xcoordinate
    134.3234,                 !- Vertex 1 Ycoordinate
    15,                       !- Vertex 1 Zcoordinate
    -126.8611,                !- Vertex 2 Xcoordinate
    134.3234,                 !- Vertex 2 Ycoordinate
    0,                        !- Vertex 2 Zcoordinate
    -133.4211,                !- Vertex 3 Xcoordinate
    141.9894,                 !- Vertex 3 Ycoordinate
    0,                        !- Vertex 3 Zcoordinate
    -133.4211,                !- Vertex 4 Xcoordinate
    141.9894,                 !- Vertex 4 Ycoordinate
    15;                       !- Vertex 4 Zcoordinate

SHADING:SITE:DETAILED,
    Shading_V94_1,            !- Name
    ,                         !- Transmittance Schedule Name
    autocalculate,            !- Number of Vertices
    -112.7362,                !- Vertex 1 Xcoordinate
    93.6523,                  !- Vertex 1 Ycoordinate
    15.5,                     !- Vertex 1 Zcoordinate
    -112.7362,                !- Vertex 2 Xcoordinate
    93.6523,                  !- Vertex 2 Ycoordinate
    0,                        !- Vertex 2 Zcoordinate
    -100.8251,                !- Vertex 3 Xcoordinate
    103.8984,                 !- Vertex 3 Ycoordinate
    0,                        !- Vertex 3 Zcoordinate
    -100.8251,                !- Vertex 4 Xcoordinate
    103.8984,                 !- Vertex 4 Ycoordinate
    15.5;                     !- Vertex 4 Zcoordinate

SHADING:SITE:DETAILED,
    Shading_V95_1,            !- Name
    ,                         !- Transmittance Schedule Name
    autocalculate,            !- Number of Vertices
    -100.8251,                !- Vertex 1 Xcoordinate
    103.8984,                 !- Vertex 1 Ycoordinate
    15.5,                     !- Vertex 1 Zcoordinate
    -100.8251,                !- Vertex 2 Xcoordinate
    103.8984,                 !- Vertex 2 Ycoordinate
    0,                        !- Vertex 2 Zcoordinate
    -113.7101,                !- Vertex 3 Xcoordinate
    118.9574,                 !- Vertex 3 Ycoordinate
    0,                        !- Vertex 3 Zcoordinate
    -113.7101,                !- Vertex 4 Xcoordinate
    118.9574,                 !- Vertex 4 Ycoordinate
    15.5;                     !- Vertex 4 Zcoordinate

SHADING:SITE:DETAILED,
    Shading_V109_1,           !- Name
    ,                         !- Transmittance Schedule Name
    autocalculate,            !- Number of Vertices
    -6.8411,                  !- Vertex 1 Xcoordinate
    -39.3696,                 !- Vertex 1 Ycoordinate
    15.5,                     !- Vertex 1 Zcoordinate
    -6.8411,                  !- Vertex 2 Xcoordinate
    -39.3696,                 !- Vertex 2 Ycoordinate
    0,                        !- Vertex 2 Zcoordinate
    -11.2851,                 !- Vertex 3 Xcoordinate
    -34.1676,                 !- Vertex 3 Ycoordinate
    0,                        !- Vertex 3 Zcoordinate
    -11.2851,                 !- Vertex 4 Xcoordinate
    -34.1676,                 !- Vertex 4 Ycoordinate
    15.5;                     !- Vertex 4 Zcoordinate

SHADING:SITE:DETAILED,
    Shading_V110_1,           !- Name
    ,                         !- Transmittance Schedule Name
    autocalculate,            !- Number of Vertices
    -11.2851,                 !- Vertex 1 Xcoordinate
    -34.1676,                 !- Vertex 1 Ycoordinate
    15.5,                     !- Vertex 1 Zcoordinate
    -11.2851,                 !- Vertex 2 Xcoordinate
    -34.1676,                 !- Vertex 2 Ycoordinate
    0,                        !- Vertex 2 Zcoordinate
    -14.2671,                 !- Vertex 3 Xcoordinate
    -36.8076,                 !- Vertex 3 Ycoordinate
    0,                        !- Vertex 3 Zcoordinate
    -14.2671,                 !- Vertex 4 Xcoordinate
    -36.8076,                 !- Vertex 4 Ycoordinate
    15.5;                     !- Vertex 4 Zcoordinate

SHADING:SITE:DETAILED,
    Shading_V111_1,           !- Name
    ,                         !- Transmittance Schedule Name
    autocalculate,            !- Number of Vertices
    -14.2671,                 !- Vertex 1 Xcoordinate
    -36.8076,                 !- Vertex 1 Ycoordinate
    15.5,                     !- Vertex 1 Zcoordinate
    -14.2671,                 !- Vertex 2 Xcoordinate
    -36.8076,                 !- Vertex 2 Ycoordinate
    0,                        !- Vertex 2 Zcoordinate
    -19.3441,                 !- Vertex 3 Xcoordinate
    -30.8846,                 !- Vertex 3 Ycoordinate
    0,                        !- Vertex 3 Zcoordinate
    -19.3441,                 !- Vertex 4 Xcoordinate
    -30.8846,                 !- Vertex 4 Ycoordinate
    15.5;                     !- Vertex 4 Zcoordinate

SHADING:SITE:DETAILED,
    Shading_V112_1,           !- Name
    ,                         !- Transmittance Schedule Name
    autocalculate,            !- Number of Vertices
    -19.3441,                 !- Vertex 1 Xcoordinate
    -30.8846,                 !- Vertex 1 Ycoordinate
    15.5,                     !- Vertex 1 Zcoordinate
    -19.3441,                 !- Vertex 2 Xcoordinate
    -30.8846,                 !- Vertex 2 Ycoordinate
    0,                        !- Vertex 2 Zcoordinate
    -19.1711,                 !- Vertex 3 Xcoordinate
    -25.9716,                 !- Vertex 3 Ycoordinate
    0,                        !- Vertex 3 Zcoordinate
    -19.1711,                 !- Vertex 4 Xcoordinate
    -25.9716,                 !- Vertex 4 Ycoordinate
    15.5;                     !- Vertex 4 Zcoordinate

SHADING:SITE:DETAILED,
    Shading_V113_1,           !- Name
    ,                         !- Transmittance Schedule Name
    autocalculate,            !- Number of Vertices
    -19.1711,                 !- Vertex 1 Xcoordinate
    -25.9716,                 !- Vertex 1 Ycoordinate
    15.5,                     !- Vertex 1 Zcoordinate
    -19.1711,                 !- Vertex 2 Xcoordinate
    -25.9716,                 !- Vertex 2 Ycoordinate
    0,                        !- Vertex 2 Zcoordinate
    -25.6381,                 !- Vertex 3 Xcoordinate
    -23.5656,                 !- Vertex 3 Ycoordinate
    0,                        !- Vertex 3 Zcoordinate
    -25.6381,                 !- Vertex 4 Xcoordinate
    -23.5656,                 !- Vertex 4 Ycoordinate
    15.5;                     !- Vertex 4 Zcoordinate

SHADING:SITE:DETAILED,
    Shading_V114_1,           !- Name
    ,                         !- Transmittance Schedule Name
    autocalculate,            !- Number of Vertices
    -25.6381,                 !- Vertex 1 Xcoordinate
    -23.5656,                 !- Vertex 1 Ycoordinate
    15.5,                     !- Vertex 1 Zcoordinate
    -25.6381,                 !- Vertex 2 Xcoordinate
    -23.5656,                 !- Vertex 2 Ycoordinate
    0,                        !- Vertex 2 Zcoordinate
    -31.2101,                 !- Vertex 3 Xcoordinate
    -23.2216,                 !- Vertex 3 Ycoordinate
    0,                        !- Vertex 3 Zcoordinate
    -31.2101,                 !- Vertex 4 Xcoordinate
    -23.2216,                 !- Vertex 4 Ycoordinate
    15.5;                     !- Vertex 4 Zcoordinate

SHADING:SITE:DETAILED,
    Shading_V116_1,           !- Name
    ,                         !- Transmittance Schedule Name
    autocalculate,            !- Number of Vertices
    -35.4011,                 !- Vertex 1 Xcoordinate
    -26.7666,                 !- Vertex 1 Ycoordinate
    15.5,                     !- Vertex 1 Zcoordinate
    -35.4011,                 !- Vertex 2 Xcoordinate
    -26.7666,                 !- Vertex 2 Ycoordinate
    0,                        !- Vertex 2 Zcoordinate
    -41.6421,                 !- Vertex 3 Xcoordinate
    -19.4966,                 !- Vertex 3 Ycoordinate
    0,                        !- Vertex 3 Zcoordinate
    -41.6421,                 !- Vertex 4 Xcoordinate
    -19.4966,                 !- Vertex 4 Ycoordinate
    15.5;                     !- Vertex 4 Zcoordinate

SHADING:SITE:DETAILED,
    Shading_V119_1,           !- Name
    ,                         !- Transmittance Schedule Name
    autocalculate,            !- Number of Vertices
    -18.1951,                 !- Vertex 1 Xcoordinate
    -12.3636,                 !- Vertex 1 Ycoordinate
    15.5,                     !- Vertex 1 Zcoordinate
    -18.1951,                 !- Vertex 2 Xcoordinate
    -12.3636,                 !- Vertex 2 Ycoordinate
    0,                        !- Vertex 2 Zcoordinate
    -11.6921,                 !- Vertex 3 Xcoordinate
    -6.8096,                  !- Vertex 3 Ycoordinate
    0,                        !- Vertex 3 Zcoordinate
    -11.6921,                 !- Vertex 4 Xcoordinate
    -6.8096,                  !- Vertex 4 Ycoordinate
    15.5;                     !- Vertex 4 Zcoordinate

SHADING:SITE:DETAILED,
    Shading_V120_1,           !- Name
    ,                         !- Transmittance Schedule Name
    autocalculate,            !- Number of Vertices
    -11.6921,                 !- Vertex 1 Xcoordinate
    -6.8096,                  !- Vertex 1 Ycoordinate
    15.5,                     !- Vertex 1 Zcoordinate
    -11.6921,                 !- Vertex 2 Xcoordinate
    -6.8096,                  !- Vertex 2 Ycoordinate
    0,                        !- Vertex 2 Zcoordinate
    -18.1511,                 !- Vertex 3 Xcoordinate
    0.8524,                   !- Vertex 3 Ycoordinate
    0,                        !- Vertex 3 Zcoordinate
    -18.1511,                 !- Vertex 4 Xcoordinate
    0.8524,                   !- Vertex 4 Ycoordinate
    15.5;                     !- Vertex 4 Zcoordinate

SHADING:SITE:DETAILED,
    Shading_V121_1,           !- Name
    ,                         !- Transmittance Schedule Name
    autocalculate,            !- Number of Vertices
    -18.1511,                 !- Vertex 1 Xcoordinate
    0.8524,                   !- Vertex 1 Ycoordinate
    15.5,                     !- Vertex 1 Zcoordinate
    -18.1511,                 !- Vertex 2 Xcoordinate
    0.8524,                   !- Vertex 2 Ycoordinate
    0,                        !- Vertex 2 Zcoordinate
    -15.1211,                 !- Vertex 3 Xcoordinate
    3.5444,                   !- Vertex 3 Ycoordinate
    0,                        !- Vertex 3 Zcoordinate
    -15.1211,                 !- Vertex 4 Xcoordinate
    3.5444,                   !- Vertex 4 Ycoordinate
    15.5;                     !- Vertex 4 Zcoordinate

SHADING:SITE:DETAILED,
    Shading_V122_1,           !- Name
    ,                         !- Transmittance Schedule Name
    autocalculate,            !- Number of Vertices
    -15.1211,                 !- Vertex 1 Xcoordinate
    3.5444,                   !- Vertex 1 Ycoordinate
    15.5,                     !- Vertex 1 Zcoordinate
    -15.1211,                 !- Vertex 2 Xcoordinate
    3.5444,                   !- Vertex 2 Ycoordinate
    0,                        !- Vertex 2 Zcoordinate
    -20.9951,                 !- Vertex 3 Xcoordinate
    10.4814,                  !- Vertex 3 Ycoordinate
    0,                        !- Vertex 3 Zcoordinate
    -20.9951,                 !- Vertex 4 Xcoordinate
    10.4814,                  !- Vertex 4 Ycoordinate
    15.5;                     !- Vertex 4 Zcoordinate

SHADING:SITE:DETAILED,
    Shading_V152_1,           !- Name
    ,                         !- Transmittance Schedule Name
    autocalculate,            !- Number of Vertices
    -36.5501,                 !- Vertex 1 Xcoordinate
    25.2134,                  !- Vertex 1 Ycoordinate
    15.5,                     !- Vertex 1 Zcoordinate
    -36.5501,                 !- Vertex 2 Xcoordinate
    25.2134,                  !- Vertex 2 Ycoordinate
    0,                        !- Vertex 2 Zcoordinate
    -49.3131,                 !- Vertex 3 Xcoordinate
    40.1294,                  !- Vertex 3 Ycoordinate
    0,                        !- Vertex 3 Zcoordinate
    -49.3131,                 !- Vertex 4 Xcoordinate
    40.1294,                  !- Vertex 4 Ycoordinate
    15.5;                     !- Vertex 4 Zcoordinate

SHADING:SITE:DETAILED,
    Shading_V391_1,           !- Name
    ,                         !- Transmittance Schedule Name
    autocalculate,            !- Number of Vertices
    17.0239,                  !- Vertex 1 Xcoordinate
    -46.7316,                 !- Vertex 1 Ycoordinate
    4.4,                      !- Vertex 1 Zcoordinate
    17.0239,                  !- Vertex 2 Xcoordinate
    -46.7316,                 !- Vertex 2 Ycoordinate
    0,                        !- Vertex 2 Zcoordinate
    11.7339,                  !- Vertex 3 Xcoordinate
    -40.5676,                 !- Vertex 3 Ycoordinate
    0,                        !- Vertex 3 Zcoordinate
    11.7339,                  !- Vertex 4 Xcoordinate
    -40.5676,                 !- Vertex 4 Ycoordinate
    4.4;                      !- Vertex 4 Zcoordinate

SHADING:SITE:DETAILED,
    Shading_V392_1,           !- Name
    ,                         !- Transmittance Schedule Name
    autocalculate,            !- Number of Vertices
    11.7339,                  !- Vertex 1 Xcoordinate
    -40.5676,                 !- Vertex 1 Ycoordinate
    4.4,                      !- Vertex 1 Zcoordinate
    11.7339,                  !- Vertex 2 Xcoordinate
    -40.5676,                 !- Vertex 2 Ycoordinate
    0,                        !- Vertex 2 Zcoordinate
    8.7519,                   !- Vertex 3 Xcoordinate
    -43.2076,                 !- Vertex 3 Ycoordinate
    0,                        !- Vertex 3 Zcoordinate
    8.7519,                   !- Vertex 4 Xcoordinate
    -43.2076,                 !- Vertex 4 Ycoordinate
    4.4;                      !- Vertex 4 Zcoordinate

SHADING:SITE:DETAILED,
    Shading_V393_1,           !- Name
    ,                         !- Transmittance Schedule Name
    autocalculate,            !- Number of Vertices
    8.7519,                   !- Vertex 1 Xcoordinate
    -43.2076,                 !- Vertex 1 Ycoordinate
    4.4,                      !- Vertex 1 Zcoordinate
    8.7519,                   !- Vertex 2 Xcoordinate
    -43.2076,                 !- Vertex 2 Ycoordinate
    0,                        !- Vertex 2 Zcoordinate
    1.9319,                   !- Vertex 3 Xcoordinate
    -35.3126,                 !- Vertex 3 Ycoordinate
    0,                        !- Vertex 3 Zcoordinate
    1.9319,                   !- Vertex 4 Xcoordinate
    -35.3126,                 !- Vertex 4 Ycoordinate
    4.4;                      !- Vertex 4 Zcoordinate

SHADING:SITE:DETAILED,
    Shading_V394_1,           !- Name
    ,                         !- Transmittance Schedule Name
    autocalculate,            !- Number of Vertices
    1.9319,                   !- Vertex 1 Xcoordinate
    -35.3126,                 !- Vertex 1 Ycoordinate
    4.4,                      !- Vertex 1 Zcoordinate
    1.9319,                   !- Vertex 2 Xcoordinate
    -35.3126,                 !- Vertex 2 Ycoordinate
    0,                        !- Vertex 2 Zcoordinate
    -1.7821,                  !- Vertex 3 Xcoordinate
    -35.0826,                 !- Vertex 3 Ycoordinate
    0,                        !- Vertex 3 Zcoordinate
    -1.7821,                  !- Vertex 4 Xcoordinate
    -35.0826,                 !- Vertex 4 Ycoordinate
    4.4;                      !- Vertex 4 Zcoordinate

SHADING:SITE:DETAILED,
    Shading_V395_1,           !- Name
    ,                         !- Transmittance Schedule Name
    autocalculate,            !- Number of Vertices
    -1.7821,                  !- Vertex 1 Xcoordinate
    -35.0826,                 !- Vertex 1 Ycoordinate
    4.4,                      !- Vertex 1 Zcoordinate
    -1.7821,                  !- Vertex 2 Xcoordinate
    -35.0826,                 !- Vertex 2 Ycoordinate
    0,                        !- Vertex 2 Zcoordinate
    -6.8411,                  !- Vertex 3 Xcoordinate
    -39.3696,                 !- Vertex 3 Ycoordinate
    0,                        !- Vertex 3 Zcoordinate
    -6.8411,                  !- Vertex 4 Xcoordinate
    -39.3696,                 !- Vertex 4 Ycoordinate
    4.4;                      !- Vertex 4 Zcoordinate

SHADING:SITE:DETAILED,
    Shading_V48_1,            !- Name
    ,                         !- Transmittance Schedule Name
    autocalculate,            !- Number of Vertices
    10.0899,                  !- Vertex 1 Xcoordinate
    29.4244,                  !- Vertex 1 Ycoordinate
    23.8,                     !- Vertex 1 Zcoordinate
    10.0899,                  !- Vertex 2 Xcoordinate
    29.4244,                  !- Vertex 2 Ycoordinate
    0,                        !- Vertex 2 Zcoordinate
    15.5409,                  !- Vertex 3 Xcoordinate
    23.0874,                  !- Vertex 3 Ycoordinate
    0,                        !- Vertex 3 Zcoordinate
    15.5409,                  !- Vertex 4 Xcoordinate
    23.0874,                  !- Vertex 4 Ycoordinate
    23.8;                     !- Vertex 4 Zcoordinate

SHADING:SITE:DETAILED,
    Shading_V49_1,            !- Name
    ,                         !- Transmittance Schedule Name
    autocalculate,            !- Number of Vertices
    15.5409,                  !- Vertex 1 Xcoordinate
    23.0874,                  !- Vertex 1 Ycoordinate
    23.8,                     !- Vertex 1 Zcoordinate
    15.5409,                  !- Vertex 2 Xcoordinate
    23.0874,                  !- Vertex 2 Ycoordinate
    0,                        !- Vertex 2 Zcoordinate
    18.5719,                  !- Vertex 3 Xcoordinate
    25.6934,                  !- Vertex 3 Ycoordinate
    0,                        !- Vertex 3 Zcoordinate
    18.5719,                  !- Vertex 4 Xcoordinate
    25.6934,                  !- Vertex 4 Ycoordinate
    23.8;                     !- Vertex 4 Zcoordinate

SHADING:SITE:DETAILED,
    Shading_V50_1,            !- Name
    ,                         !- Transmittance Schedule Name
    autocalculate,            !- Number of Vertices
    18.5719,                  !- Vertex 1 Xcoordinate
    25.6934,                  !- Vertex 1 Ycoordinate
    23.8,                     !- Vertex 1 Zcoordinate
    18.5719,                  !- Vertex 2 Xcoordinate
    25.6934,                  !- Vertex 2 Ycoordinate
    0,                        !- Vertex 2 Zcoordinate
    21.1809,                  !- Vertex 3 Xcoordinate
    22.6604,                  !- Vertex 3 Ycoordinate
    0,                        !- Vertex 3 Zcoordinate
    21.1809,                  !- Vertex 4 Xcoordinate
    22.6604,                  !- Vertex 4 Ycoordinate
    23.8;                     !- Vertex 4 Zcoordinate

SHADING:SITE:DETAILED,
    Shading_V51_1,            !- Name
    ,                         !- Transmittance Schedule Name
    autocalculate,            !- Number of Vertices
    21.1809,                  !- Vertex 1 Xcoordinate
    22.6604,                  !- Vertex 1 Ycoordinate
    23.8,                     !- Vertex 1 Zcoordinate
    21.1809,                  !- Vertex 2 Xcoordinate
    22.6604,                  !- Vertex 2 Ycoordinate
    0,                        !- Vertex 2 Zcoordinate
    25.8059,                  !- Vertex 3 Xcoordinate
    26.6364,                  !- Vertex 3 Ycoordinate
    0,                        !- Vertex 3 Zcoordinate
    25.8059,                  !- Vertex 4 Xcoordinate
    26.6364,                  !- Vertex 4 Ycoordinate
    23.8;                     !- Vertex 4 Zcoordinate

SHADING:SITE:DETAILED,
    Shading_V52_1,            !- Name
    ,                         !- Transmittance Schedule Name
    autocalculate,            !- Number of Vertices
    25.8059,                  !- Vertex 1 Xcoordinate
    26.6364,                  !- Vertex 1 Ycoordinate
    23.8,                     !- Vertex 1 Zcoordinate
    25.8059,                  !- Vertex 2 Xcoordinate
    26.6364,                  !- Vertex 2 Ycoordinate
    0,                        !- Vertex 2 Zcoordinate
    30.415,                   !- Vertex 3 Xcoordinate
    21.2758,                  !- Vertex 3 Ycoordinate
    0,                        !- Vertex 3 Zcoordinate
    30.415,                   !- Vertex 4 Xcoordinate
    21.2758,                  !- Vertex 4 Ycoordinate
    23.8;                     !- Vertex 4 Zcoordinate

SHADING:SITE:DETAILED,
    Shading_V235_1,           !- Name
    ,                         !- Transmittance Schedule Name
    autocalculate,            !- Number of Vertices
    6.9065,                   !- Vertex 1 Xcoordinate
    66.94,                    !- Vertex 1 Ycoordinate
    24.8,                     !- Vertex 1 Zcoordinate
    6.9065,                   !- Vertex 2 Xcoordinate
    66.94,                    !- Vertex 2 Ycoordinate
    0,                        !- Vertex 2 Zcoordinate
    14.3879,                  !- Vertex 3 Xcoordinate
    73.3624,                  !- Vertex 3 Ycoordinate
    0,                        !- Vertex 3 Zcoordinate
    14.3879,                  !- Vertex 4 Xcoordinate
    73.3624,                  !- Vertex 4 Ycoordinate
    24.8;                     !- Vertex 4 Zcoordinate

SHADING:SITE:DETAILED,
    Shading_V293_1,           !- Name
    ,                         !- Transmittance Schedule Name
    autocalculate,            !- Number of Vertices
    30.415,                   !- Vertex 1 Xcoordinate
    21.2758,                  !- Vertex 1 Ycoordinate
    14.8,                     !- Vertex 1 Zcoordinate
    30.415,                   !- Vertex 2 Xcoordinate
    21.2758,                  !- Vertex 2 Ycoordinate
    0,                        !- Vertex 2 Zcoordinate
    35.3179,                  !- Vertex 3 Xcoordinate
    15.5734,                  !- Vertex 3 Ycoordinate
    0,                        !- Vertex 3 Zcoordinate
    35.3179,                  !- Vertex 4 Xcoordinate
    15.5734,                  !- Vertex 4 Ycoordinate
    14.8;                     !- Vertex 4 Zcoordinate

SHADING:SITE:DETAILED,
    Shading_V294_1,           !- Name
    ,                         !- Transmittance Schedule Name
    autocalculate,            !- Number of Vertices
    35.3179,                  !- Vertex 1 Xcoordinate
    15.5734,                  !- Vertex 1 Ycoordinate
    14.8,                     !- Vertex 1 Zcoordinate
    35.3179,                  !- Vertex 2 Xcoordinate
    15.5734,                  !- Vertex 2 Ycoordinate
    0,                        !- Vertex 2 Zcoordinate
    34.4999,                  !- Vertex 3 Xcoordinate
    4.1084,                   !- Vertex 3 Ycoordinate
    0,                        !- Vertex 3 Zcoordinate
    34.4999,                  !- Vertex 4 Xcoordinate
    4.1084,                   !- Vertex 4 Ycoordinate
    14.8;                     !- Vertex 4 Zcoordinate

SHADING:SITE:DETAILED,
    Shading_V479_1,           !- Name
    ,                         !- Transmittance Schedule Name
    autocalculate,            !- Number of Vertices
    -0.5371,                  !- Vertex 1 Xcoordinate
    46.2974,                  !- Vertex 1 Ycoordinate
    12.8,                     !- Vertex 1 Zcoordinate
    -0.5371,                  !- Vertex 2 Xcoordinate
    46.2974,                  !- Vertex 2 Ycoordinate
    0,                        !- Vertex 2 Zcoordinate
    7.1129,                   !- Vertex 3 Xcoordinate
    52.8454,                  !- Vertex 3 Ycoordinate
    0,                        !- Vertex 3 Zcoordinate
    7.1129,                   !- Vertex 4 Xcoordinate
    52.8454,                  !- Vertex 4 Ycoordinate
    12.8;                     !- Vertex 4 Zcoordinate

SHADING:SITE:DETAILED,
    Shading_V44_1,            !- Name
    ,                         !- Transmittance Schedule Name
    autocalculate,            !- Number of Vertices
    11.3279,                  !- Vertex 1 Xcoordinate
    43.4794,                  !- Vertex 1 Ycoordinate
    23.8,                     !- Vertex 1 Zcoordinate
    11.3279,                  !- Vertex 2 Xcoordinate
    43.4794,                  !- Vertex 2 Ycoordinate
    0,                        !- Vertex 2 Zcoordinate
    15.1429,                  !- Vertex 3 Xcoordinate
    39.0424,                  !- Vertex 3 Ycoordinate
    0,                        !- Vertex 3 Zcoordinate
    15.1429,                  !- Vertex 4 Xcoordinate
    39.0424,                  !- Vertex 4 Ycoordinate
    23.8;                     !- Vertex 4 Zcoordinate

SHADING:SITE:DETAILED,
    Shading_V46_1,            !- Name
    ,                         !- Transmittance Schedule Name
    autocalculate,            !- Number of Vertices
    10.5169,                  !- Vertex 1 Xcoordinate
    35.0654,                  !- Vertex 1 Ycoordinate
    23.8,                     !- Vertex 1 Zcoordinate
    10.5169,                  !- Vertex 2 Xcoordinate
    35.0654,                  !- Vertex 2 Ycoordinate
    0,                        !- Vertex 2 Zcoordinate
    13.1239,                  !- Vertex 3 Xcoordinate
    32.0334,                  !- Vertex 3 Ycoordinate
    0,                        !- Vertex 3 Zcoordinate
    13.1239,                  !- Vertex 4 Xcoordinate
    32.0334,                  !- Vertex 4 Ycoordinate
    23.8;                     !- Vertex 4 Zcoordinate

SHADING:SITE:DETAILED,
    Shading_V47_1,            !- Name
    ,                         !- Transmittance Schedule Name
    autocalculate,            !- Number of Vertices
    13.1239,                  !- Vertex 1 Xcoordinate
    32.0334,                  !- Vertex 1 Ycoordinate
    23.8,                     !- Vertex 1 Zcoordinate
    13.1239,                  !- Vertex 2 Xcoordinate
    32.0334,                  !- Vertex 2 Ycoordinate
    0,                        !- Vertex 2 Zcoordinate
    10.0899,                  !- Vertex 3 Xcoordinate
    29.4244,                  !- Vertex 3 Ycoordinate
    0,                        !- Vertex 3 Zcoordinate
    10.0899,                  !- Vertex 4 Xcoordinate
    29.4244,                  !- Vertex 4 Ycoordinate
    23.8;                     !- Vertex 4 Zcoordinate

SHADING:SITE:DETAILED,
    Shading_V236_1,           !- Name
    ,                         !- Transmittance Schedule Name
    autocalculate,            !- Number of Vertices
    14.3879,                  !- Vertex 1 Xcoordinate
    73.3624,                  !- Vertex 1 Ycoordinate
    24.8,                     !- Vertex 1 Zcoordinate
    14.3879,                  !- Vertex 2 Xcoordinate
    73.3624,                  !- Vertex 2 Ycoordinate
    0,                        !- Vertex 2 Zcoordinate
    19.8499,                  !- Vertex 3 Xcoordinate
    67.0194,                  !- Vertex 3 Ycoordinate
    0,                        !- Vertex 3 Zcoordinate
    19.8499,                  !- Vertex 4 Xcoordinate
    67.0194,                  !- Vertex 4 Ycoordinate
    24.8;                     !- Vertex 4 Zcoordinate

SHADING:SITE:DETAILED,
    Shading_V237_1,           !- Name
    ,                         !- Transmittance Schedule Name
    autocalculate,            !- Number of Vertices
    19.8499,                  !- Vertex 1 Xcoordinate
    67.0194,                  !- Vertex 1 Ycoordinate
    24.8,                     !- Vertex 1 Zcoordinate
    19.8499,                  !- Vertex 2 Xcoordinate
    67.0194,                  !- Vertex 2 Ycoordinate
    0,                        !- Vertex 2 Zcoordinate
    27.5189,                  !- Vertex 3 Xcoordinate
    73.6204,                  !- Vertex 3 Ycoordinate
    0,                        !- Vertex 3 Zcoordinate
    27.5189,                  !- Vertex 4 Xcoordinate
    73.6204,                  !- Vertex 4 Ycoordinate
    24.8;                     !- Vertex 4 Zcoordinate

SHADING:SITE:DETAILED,
    Shading_V367_1,           !- Name
    ,                         !- Transmittance Schedule Name
    autocalculate,            !- Number of Vertices
    -38.3661,                 !- Vertex 1 Xcoordinate
    79.2124,                  !- Vertex 1 Ycoordinate
    14.2,                     !- Vertex 1 Zcoordinate
    -38.3661,                 !- Vertex 2 Xcoordinate
    79.2124,                  !- Vertex 2 Ycoordinate
    0,                        !- Vertex 2 Zcoordinate
    -30.5681,                 !- Vertex 3 Xcoordinate
    85.8984,                  !- Vertex 3 Ycoordinate
    0,                        !- Vertex 3 Zcoordinate
    -30.5681,                 !- Vertex 4 Xcoordinate
    85.8984,                  !- Vertex 4 Ycoordinate
    14.2;                     !- Vertex 4 Zcoordinate

SHADING:SITE:DETAILED,
    Shading_V476_1,           !- Name
    ,                         !- Transmittance Schedule Name
    autocalculate,            !- Number of Vertices
    -11.9001,                 !- Vertex 1 Xcoordinate
    53.3924,                  !- Vertex 1 Ycoordinate
    12.8,                     !- Vertex 1 Zcoordinate
    -11.9001,                 !- Vertex 2 Xcoordinate
    53.3924,                  !- Vertex 2 Ycoordinate
    0,                        !- Vertex 2 Zcoordinate
    -7.7451,                  !- Vertex 3 Xcoordinate
    48.5514,                  !- Vertex 3 Ycoordinate
    0,                        !- Vertex 3 Zcoordinate
    -7.7451,                  !- Vertex 4 Xcoordinate
    48.5514,                  !- Vertex 4 Ycoordinate
    12.8;                     !- Vertex 4 Zcoordinate

SHADING:SITE:DETAILED,
    Shading_V477_1,           !- Name
    ,                         !- Transmittance Schedule Name
    autocalculate,            !- Number of Vertices
    -7.7451,                  !- Vertex 1 Xcoordinate
    48.5514,                  !- Vertex 1 Ycoordinate
    12.8,                     !- Vertex 1 Zcoordinate
    -7.7451,                  !- Vertex 2 Xcoordinate
    48.5514,                  !- Vertex 2 Ycoordinate
    0,                        !- Vertex 2 Zcoordinate
    -4.7091,                  !- Vertex 3 Xcoordinate
    51.1574,                  !- Vertex 3 Ycoordinate
    0,                        !- Vertex 3 Zcoordinate
    -4.7091,                  !- Vertex 4 Xcoordinate
    51.1574,                  !- Vertex 4 Ycoordinate
    12.8;                     !- Vertex 4 Zcoordinate

SHADING:SITE:DETAILED,
    Shading_V478_1,           !- Name
    ,                         !- Transmittance Schedule Name
    autocalculate,            !- Number of Vertices
    -4.7091,                  !- Vertex 1 Xcoordinate
    51.1574,                  !- Vertex 1 Ycoordinate
    12.8,                     !- Vertex 1 Zcoordinate
    -4.7091,                  !- Vertex 2 Xcoordinate
    51.1574,                  !- Vertex 2 Ycoordinate
    0,                        !- Vertex 2 Zcoordinate
    -0.5371,                  !- Vertex 3 Xcoordinate
    46.2974,                  !- Vertex 3 Ycoordinate
    0,                        !- Vertex 3 Zcoordinate
    -0.5371,                  !- Vertex 4 Xcoordinate
    46.2974,                  !- Vertex 4 Ycoordinate
    12.8;                     !- Vertex 4 Zcoordinate

SHADING:SITE:DETAILED,
    Shading_V151_1,           !- Name
    ,                         !- Transmittance Schedule Name
    autocalculate,            !- Number of Vertices
    -40.7011,                 !- Vertex 1 Xcoordinate
    21.6604,                  !- Vertex 1 Ycoordinate
    15.5,                     !- Vertex 1 Zcoordinate
    -40.7011,                 !- Vertex 2 Xcoordinate
    21.6604,                  !- Vertex 2 Ycoordinate
    0,                        !- Vertex 2 Zcoordinate
    -36.5501,                 !- Vertex 3 Xcoordinate
    25.2134,                  !- Vertex 3 Ycoordinate
    0,                        !- Vertex 3 Zcoordinate
    -36.5501,                 !- Vertex 4 Xcoordinate
    25.2134,                  !- Vertex 4 Ycoordinate
    15.5;                     !- Vertex 4 Zcoordinate

SHADING:SITE:DETAILED,
    Shading_V376_1,           !- Name
    ,                         !- Transmittance Schedule Name
    autocalculate,            !- Number of Vertices
    -47.9861,                 !- Vertex 1 Xcoordinate
    50.8864,                  !- Vertex 1 Ycoordinate
    14.2,                     !- Vertex 1 Zcoordinate
    -47.9861,                 !- Vertex 2 Xcoordinate
    50.8864,                  !- Vertex 2 Ycoordinate
    0,                        !- Vertex 2 Zcoordinate
    -44.9901,                 !- Vertex 3 Xcoordinate
    53.5394,                  !- Vertex 3 Ycoordinate
    0,                        !- Vertex 3 Zcoordinate
    -44.9901,                 !- Vertex 4 Xcoordinate
    53.5394,                  !- Vertex 4 Ycoordinate
    14.2;                     !- Vertex 4 Zcoordinate

SHADING:SITE:DETAILED,
    Shading_V377_1,           !- Name
    ,                         !- Transmittance Schedule Name
    autocalculate,            !- Number of Vertices
    -44.9901,                 !- Vertex 1 Xcoordinate
    53.5394,                  !- Vertex 1 Ycoordinate
    14.2,                     !- Vertex 1 Zcoordinate
    -44.9901,                 !- Vertex 2 Xcoordinate
    53.5394,                  !- Vertex 2 Ycoordinate
    0,                        !- Vertex 2 Zcoordinate
    -24.8311,                 !- Vertex 3 Xcoordinate
    29.9744,                  !- Vertex 3 Ycoordinate
    0,                        !- Vertex 3 Zcoordinate
    -24.8311,                 !- Vertex 4 Xcoordinate
    29.9744,                  !- Vertex 4 Ycoordinate
    14.2;                     !- Vertex 4 Zcoordinate

SHADING:SITE:DETAILED,
    Shading_V295_1,           !- Name
    ,                         !- Transmittance Schedule Name
    autocalculate,            !- Number of Vertices
    34.4999,                  !- Vertex 1 Xcoordinate
    4.1084,                   !- Vertex 1 Ycoordinate
    14.8,                     !- Vertex 1 Zcoordinate
    34.4999,                  !- Vertex 2 Xcoordinate
    4.1084,                   !- Vertex 2 Ycoordinate
    0,                        !- Vertex 2 Zcoordinate
    44.7639,                  !- Vertex 3 Xcoordinate
    3.3574,                   !- Vertex 3 Ycoordinate
    0,                        !- Vertex 3 Zcoordinate
    44.7639,                  !- Vertex 4 Xcoordinate
    3.3574,                   !- Vertex 4 Ycoordinate
    14.8;                     !- Vertex 4 Zcoordinate

SHADING:SITE:DETAILED,
    Shading_V390_1,           !- Name
    ,                         !- Transmittance Schedule Name
    autocalculate,            !- Number of Vertices
    16.8229,                  !- Vertex 1 Xcoordinate
    -49.9936,                 !- Vertex 1 Ycoordinate
    4.4,                      !- Vertex 1 Zcoordinate
    16.8229,                  !- Vertex 2 Xcoordinate
    -49.9936,                 !- Vertex 2 Ycoordinate
    0,                        !- Vertex 2 Zcoordinate
    17.0239,                  !- Vertex 3 Xcoordinate
    -46.7316,                 !- Vertex 3 Ycoordinate
    0,                        !- Vertex 3 Zcoordinate
    17.0239,                  !- Vertex 4 Xcoordinate
    -46.7316,                 !- Vertex 4 Ycoordinate
    4.4;                      !- Vertex 4 Zcoordinate

SHADING:SITE:DETAILED,
    Shading_V251_1,           !- Name
    ,                         !- Transmittance Schedule Name
    autocalculate,            !- Number of Vertices
    -44.4711,                 !- Vertex 1 Xcoordinate
    109.4914,                 !- Vertex 1 Ycoordinate
    16.1,                     !- Vertex 1 Zcoordinate
    -44.4711,                 !- Vertex 2 Xcoordinate
    109.4914,                 !- Vertex 2 Ycoordinate
    0,                        !- Vertex 2 Zcoordinate
    -36.5601,                 !- Vertex 3 Xcoordinate
    116.2574,                 !- Vertex 3 Ycoordinate
    0,                        !- Vertex 3 Zcoordinate
    -36.5601,                 !- Vertex 4 Xcoordinate
    116.2574,                 !- Vertex 4 Ycoordinate
    16.1;                     !- Vertex 4 Zcoordinate

SHADING:SITE:DETAILED,
    Shading_V361_1,           !- Name
    ,                         !- Transmittance Schedule Name
    autocalculate,            !- Number of Vertices
    -18.1841,                 !- Vertex 1 Xcoordinate
    36.1854,                  !- Vertex 1 Ycoordinate
    14.2,                     !- Vertex 1 Zcoordinate
    -18.1841,                 !- Vertex 2 Xcoordinate
    36.1854,                  !- Vertex 2 Ycoordinate
    0,                        !- Vertex 2 Zcoordinate
    -20.7981,                 !- Vertex 3 Xcoordinate
    39.2204,                  !- Vertex 3 Ycoordinate
    0,                        !- Vertex 3 Zcoordinate
    -20.7981,                 !- Vertex 4 Xcoordinate
    39.2204,                  !- Vertex 4 Ycoordinate
    14.2;                     !- Vertex 4 Zcoordinate

SHADING:SITE:DETAILED,
    Shading_V362_1,           !- Name
    ,                         !- Transmittance Schedule Name
    autocalculate,            !- Number of Vertices
    -20.7981,                 !- Vertex 1 Xcoordinate
    39.2204,                  !- Vertex 1 Ycoordinate
    14.2,                     !- Vertex 1 Zcoordinate
    -20.7981,                 !- Vertex 2 Xcoordinate
    39.2204,                  !- Vertex 2 Ycoordinate
    0,                        !- Vertex 2 Zcoordinate
    -15.8481,                 !- Vertex 3 Xcoordinate
    43.4554,                  !- Vertex 3 Ycoordinate
    0,                        !- Vertex 3 Zcoordinate
    -15.8481,                 !- Vertex 4 Xcoordinate
    43.4554,                  !- Vertex 4 Ycoordinate
    14.2;                     !- Vertex 4 Zcoordinate

SHADING:SITE:DETAILED,
    Shading_V378_1,           !- Name
    ,                         !- Transmittance Schedule Name
    autocalculate,            !- Number of Vertices
    -24.8311,                 !- Vertex 1 Xcoordinate
    29.9744,                  !- Vertex 1 Ycoordinate
    14.2,                     !- Vertex 1 Zcoordinate
    -24.8311,                 !- Vertex 2 Xcoordinate
    29.9744,                  !- Vertex 2 Ycoordinate
    0,                        !- Vertex 2 Zcoordinate
    -18.1841,                 !- Vertex 3 Xcoordinate
    36.1854,                  !- Vertex 3 Ycoordinate
    0,                        !- Vertex 3 Zcoordinate
    -18.1841,                 !- Vertex 4 Xcoordinate
    36.1854,                  !- Vertex 4 Ycoordinate
    14.2;                     !- Vertex 4 Zcoordinate

SHADING:SITE:DETAILED,
    Shading_V494_1,           !- Name
    ,                         !- Transmittance Schedule Name
    autocalculate,            !- Number of Vertices
    -33.4881,                 !- Vertex 1 Xcoordinate
    96.6764,                  !- Vertex 1 Ycoordinate
    16.4,                     !- Vertex 1 Zcoordinate
    -33.4881,                 !- Vertex 2 Xcoordinate
    96.6764,                  !- Vertex 2 Ycoordinate
    0,                        !- Vertex 2 Zcoordinate
    -27.3051,                 !- Vertex 3 Xcoordinate
    89.5274,                  !- Vertex 3 Ycoordinate
    0,                        !- Vertex 3 Zcoordinate
    -27.3051,                 !- Vertex 4 Xcoordinate
    89.5274,                  !- Vertex 4 Ycoordinate
    16.4;                     !- Vertex 4 Zcoordinate

SHADING:SITE:DETAILED,
    Shading_V495_1,           !- Name
    ,                         !- Transmittance Schedule Name
    autocalculate,            !- Number of Vertices
    -27.3051,                 !- Vertex 1 Xcoordinate
    89.5274,                  !- Vertex 1 Ycoordinate
    16.4,                     !- Vertex 1 Zcoordinate
    -27.3051,                 !- Vertex 2 Xcoordinate
    89.5274,                  !- Vertex 2 Ycoordinate
    0,                        !- Vertex 2 Zcoordinate
    -24.3091,                 !- Vertex 3 Xcoordinate
    92.1774,                  !- Vertex 3 Ycoordinate
    0,                        !- Vertex 3 Zcoordinate
    -24.3091,                 !- Vertex 4 Xcoordinate
    92.1774,                  !- Vertex 4 Ycoordinate
    16.4;                     !- Vertex 4 Zcoordinate

SHADING:SITE:DETAILED,
    Shading_V149_1,           !- Name
    ,                         !- Transmittance Schedule Name
    autocalculate,            !- Number of Vertices
    -43.1721,                 !- Vertex 1 Xcoordinate
    14.2814,                  !- Vertex 1 Ycoordinate
    15.5,                     !- Vertex 1 Zcoordinate
    -43.1721,                 !- Vertex 2 Xcoordinate
    14.2814,                  !- Vertex 2 Ycoordinate
    0,                        !- Vertex 2 Zcoordinate
    -38.1011,                 !- Vertex 3 Xcoordinate
    18.6224,                  !- Vertex 3 Ycoordinate
    0,                        !- Vertex 3 Zcoordinate
    -38.1011,                 !- Vertex 4 Xcoordinate
    18.6224,                  !- Vertex 4 Ycoordinate
    15.5;                     !- Vertex 4 Zcoordinate

SHADING:SITE:DETAILED,
    Shading_V150_1,           !- Name
    ,                         !- Transmittance Schedule Name
    autocalculate,            !- Number of Vertices
    -38.1011,                 !- Vertex 1 Xcoordinate
    18.6224,                  !- Vertex 1 Ycoordinate
    15.5,                     !- Vertex 1 Zcoordinate
    -38.1011,                 !- Vertex 2 Xcoordinate
    18.6224,                  !- Vertex 2 Ycoordinate
    0,                        !- Vertex 2 Zcoordinate
    -40.7011,                 !- Vertex 3 Xcoordinate
    21.6604,                  !- Vertex 3 Ycoordinate
    0,                        !- Vertex 3 Zcoordinate
    -40.7011,                 !- Vertex 4 Xcoordinate
    21.6604,                  !- Vertex 4 Ycoordinate
    15.5;                     !- Vertex 4 Zcoordinate

SHADING:SITE:DETAILED,
    Shading_V356_1,           !- Name
    ,                         !- Transmittance Schedule Name
    autocalculate,            !- Number of Vertices
    -113.3191,                !- Vertex 1 Xcoordinate
    85.5244,                  !- Vertex 1 Ycoordinate
    3.7,                      !- Vertex 1 Zcoordinate
    -113.3191,                !- Vertex 2 Xcoordinate
    85.5244,                  !- Vertex 2 Ycoordinate
    0,                        !- Vertex 2 Zcoordinate
    -112.7362,                !- Vertex 3 Xcoordinate
    93.6523,                  !- Vertex 3 Ycoordinate
    0,                        !- Vertex 3 Zcoordinate
    -112.7362,                !- Vertex 4 Xcoordinate
    93.6523,                  !- Vertex 4 Ycoordinate
    3.7;                      !- Vertex 4 Zcoordinate

SHADING:SITE:DETAILED,
    Shading_V43_1,            !- Name
    ,                         !- Transmittance Schedule Name
    autocalculate,            !- Number of Vertices
    18.9859,                  !- Vertex 1 Xcoordinate
    50.0644,                  !- Vertex 1 Ycoordinate
    23.8,                     !- Vertex 1 Zcoordinate
    18.9859,                  !- Vertex 2 Xcoordinate
    50.0644,                  !- Vertex 2 Ycoordinate
    0,                        !- Vertex 2 Zcoordinate
    11.3279,                  !- Vertex 3 Xcoordinate
    43.4794,                  !- Vertex 3 Ycoordinate
    0,                        !- Vertex 3 Zcoordinate
    11.3279,                  !- Vertex 4 Xcoordinate
    43.4794,                  !- Vertex 4 Ycoordinate
    23.8;                     !- Vertex 4 Zcoordinate

SHADING:SITE:DETAILED,
    Shading_V53_1,            !- Name
    ,                         !- Transmittance Schedule Name
    autocalculate,            !- Number of Vertices
    -23.6391,                 !- Vertex 1 Xcoordinate
    91.4029,                  !- Vertex 1 Ycoordinate
    12.5,                     !- Vertex 1 Zcoordinate
    -23.6391,                 !- Vertex 2 Xcoordinate
    91.4029,                  !- Vertex 2 Ycoordinate
    0,                        !- Vertex 2 Zcoordinate
    -17.8331,                 !- Vertex 3 Xcoordinate
    84.6904,                  !- Vertex 3 Ycoordinate
    0,                        !- Vertex 3 Zcoordinate
    -17.8331,                 !- Vertex 4 Xcoordinate
    84.6904,                  !- Vertex 4 Ycoordinate
    12.5;                     !- Vertex 4 Zcoordinate

SHADING:SITE:DETAILED,
    Shading_V145_1,           !- Name
    ,                         !- Transmittance Schedule Name
    autocalculate,            !- Number of Vertices
    -60.7141,                 !- Vertex 1 Xcoordinate
    -0.7306,                  !- Vertex 1 Ycoordinate
    15.5,                     !- Vertex 1 Zcoordinate
    -60.7141,                 !- Vertex 2 Xcoordinate
    -0.7306,                  !- Vertex 2 Ycoordinate
    0,                        !- Vertex 2 Zcoordinate
    -55.6161,                 !- Vertex 3 Xcoordinate
    3.6314,                   !- Vertex 3 Ycoordinate
    0,                        !- Vertex 3 Zcoordinate
    -55.6161,                 !- Vertex 4 Xcoordinate
    3.6314,                   !- Vertex 4 Ycoordinate
    15.5;                     !- Vertex 4 Zcoordinate

SHADING:SITE:DETAILED,
    Shading_V146_1,           !- Name
    ,                         !- Transmittance Schedule Name
    autocalculate,            !- Number of Vertices
    -55.6161,                 !- Vertex 1 Xcoordinate
    3.6314,                   !- Vertex 1 Ycoordinate
    15.5,                     !- Vertex 1 Zcoordinate
    -55.6161,                 !- Vertex 2 Xcoordinate
    3.6314,                   !- Vertex 2 Ycoordinate
    0,                        !- Vertex 2 Zcoordinate
    -58.2181,                 !- Vertex 3 Xcoordinate
    6.6714,                   !- Vertex 3 Ycoordinate
    0,                        !- Vertex 3 Zcoordinate
    -58.2181,                 !- Vertex 4 Xcoordinate
    6.6714,                   !- Vertex 4 Ycoordinate
    15.5;                     !- Vertex 4 Zcoordinate

SHADING:SITE:DETAILED,
    Shading_V177_1,           !- Name
    ,                         !- Transmittance Schedule Name
    autocalculate,            !- Number of Vertices
    -93.6601,                 !- Vertex 1 Xcoordinate
    -30.4926,                 !- Vertex 1 Ycoordinate
    19.2,                     !- Vertex 1 Zcoordinate
    -93.6601,                 !- Vertex 2 Xcoordinate
    -30.4926,                 !- Vertex 2 Ycoordinate
    0,                        !- Vertex 2 Zcoordinate
    -86.0211,                 !- Vertex 3 Xcoordinate
    -23.8996,                 !- Vertex 3 Ycoordinate
    0,                        !- Vertex 3 Zcoordinate
    -86.0211,                 !- Vertex 4 Xcoordinate
    -23.8996,                 !- Vertex 4 Ycoordinate
    19.2;                     !- Vertex 4 Zcoordinate

SHADING:SITE:DETAILED,
    Shading_V178_1,           !- Name
    ,                         !- Transmittance Schedule Name
    autocalculate,            !- Number of Vertices
    -86.0211,                 !- Vertex 1 Xcoordinate
    -23.8996,                 !- Vertex 1 Ycoordinate
    19.2,                     !- Vertex 1 Zcoordinate
    -86.0211,                 !- Vertex 2 Xcoordinate
    -23.8996,                 !- Vertex 2 Ycoordinate
    0,                        !- Vertex 2 Zcoordinate
    -91.2191,                 !- Vertex 3 Xcoordinate
    -17.8766,                 !- Vertex 3 Ycoordinate
    0,                        !- Vertex 3 Zcoordinate
    -91.2191,                 !- Vertex 4 Xcoordinate
    -17.8766,                 !- Vertex 4 Ycoordinate
    19.2;                     !- Vertex 4 Zcoordinate

SHADING:SITE:DETAILED,
    Shading_V179_1,           !- Name
    ,                         !- Transmittance Schedule Name
    autocalculate,            !- Number of Vertices
    -91.2191,                 !- Vertex 1 Xcoordinate
    -17.8766,                 !- Vertex 1 Ycoordinate
    19.2,                     !- Vertex 1 Zcoordinate
    -91.2191,                 !- Vertex 2 Xcoordinate
    -17.8766,                 !- Vertex 2 Ycoordinate
    0,                        !- Vertex 2 Zcoordinate
    -85.1631,                 !- Vertex 3 Xcoordinate
    -12.6776,                 !- Vertex 3 Ycoordinate
    0,                        !- Vertex 3 Zcoordinate
    -85.1631,                 !- Vertex 4 Xcoordinate
    -12.6776,                 !- Vertex 4 Ycoordinate
    19.2;                     !- Vertex 4 Zcoordinate

SHADING:SITE:DETAILED,
    Shading_V354_1,           !- Name
    ,                         !- Transmittance Schedule Name
    autocalculate,            !- Number of Vertices
    -125.7441,                !- Vertex 1 Xcoordinate
    82.3384,                  !- Vertex 1 Ycoordinate
    3.7,                      !- Vertex 1 Zcoordinate
    -125.7441,                !- Vertex 2 Xcoordinate
    82.3384,                  !- Vertex 2 Ycoordinate
    0,                        !- Vertex 2 Zcoordinate
    -117.7291,                !- Vertex 3 Xcoordinate
    81.7504,                  !- Vertex 3 Ycoordinate
    0,                        !- Vertex 3 Zcoordinate
    -117.7291,                !- Vertex 4 Xcoordinate
    81.7504,                  !- Vertex 4 Ycoordinate
    3.7;                      !- Vertex 4 Zcoordinate

SHADING:SITE:DETAILED,
    Shading_V355_1,           !- Name
    ,                         !- Transmittance Schedule Name
    autocalculate,            !- Number of Vertices
    -117.7291,                !- Vertex 1 Xcoordinate
    81.7504,                  !- Vertex 1 Ycoordinate
    3.7,                      !- Vertex 1 Zcoordinate
    -117.7291,                !- Vertex 2 Xcoordinate
    81.7504,                  !- Vertex 2 Ycoordinate
    0,                        !- Vertex 2 Zcoordinate
    -113.3191,                !- Vertex 3 Xcoordinate
    85.5244,                  !- Vertex 3 Ycoordinate
    0,                        !- Vertex 3 Zcoordinate
    -113.3191,                !- Vertex 4 Xcoordinate
    85.5244,                  !- Vertex 4 Ycoordinate
    3.7;                      !- Vertex 4 Zcoordinate

SHADING:SITE:DETAILED,
    Shading_V474_1,           !- Name
    ,                         !- Transmittance Schedule Name
    autocalculate,            !- Number of Vertices
    -15.6071,                 !- Vertex 1 Xcoordinate
    63.8524,                  !- Vertex 1 Ycoordinate
    12.8,                     !- Vertex 1 Zcoordinate
    -15.6071,                 !- Vertex 2 Xcoordinate
    63.8524,                  !- Vertex 2 Ycoordinate
    0,                        !- Vertex 2 Zcoordinate
    -8.8651,                  !- Vertex 3 Xcoordinate
    55.9984,                  !- Vertex 3 Ycoordinate
    0,                        !- Vertex 3 Zcoordinate
    -8.8651,                  !- Vertex 4 Xcoordinate
    55.9984,                  !- Vertex 4 Ycoordinate
    12.8;                     !- Vertex 4 Zcoordinate

SHADING:SITE:DETAILED,
    Shading_V45_1,            !- Name
    ,                         !- Transmittance Schedule Name
    autocalculate,            !- Number of Vertices
    15.1429,                  !- Vertex 1 Xcoordinate
    39.0424,                  !- Vertex 1 Ycoordinate
    23.8,                     !- Vertex 1 Zcoordinate
    15.1429,                  !- Vertex 2 Xcoordinate
    39.0424,                  !- Vertex 2 Ycoordinate
    0,                        !- Vertex 2 Zcoordinate
    10.5169,                  !- Vertex 3 Xcoordinate
    35.0654,                  !- Vertex 3 Ycoordinate
    0,                        !- Vertex 3 Zcoordinate
    10.5169,                  !- Vertex 4 Xcoordinate
    35.0654,                  !- Vertex 4 Ycoordinate
    23.8;                     !- Vertex 4 Zcoordinate

SHADING:SITE:DETAILED,
    Shading_V117_1,           !- Name
    ,                         !- Transmittance Schedule Name
    autocalculate,            !- Number of Vertices
    -41.6421,                 !- Vertex 1 Xcoordinate
    -19.4966,                 !- Vertex 1 Ycoordinate
    15.5,                     !- Vertex 1 Zcoordinate
    -41.6421,                 !- Vertex 2 Xcoordinate
    -19.4966,                 !- Vertex 2 Ycoordinate
    0,                        !- Vertex 2 Zcoordinate
    -24.6941,                 !- Vertex 3 Xcoordinate
    -4.9036,                  !- Vertex 3 Ycoordinate
    0,                        !- Vertex 3 Zcoordinate
    -24.6941,                 !- Vertex 4 Xcoordinate
    -4.9036,                  !- Vertex 4 Ycoordinate
    15.5;                     !- Vertex 4 Zcoordinate

ELECTRICEQUIPMENT,
    Block Build0_Alt0 Storey 0Load,    !- Name
    Block Build0_Alt0 Storey 0,    !- Zone or ZoneList Name
    LoadSchedule,             !- Schedule Name
    Watts/Area,               !- Design Level Calculation Method
    ,                         !- Design Level
    0.07,                     !- Watts per Zone Floor Area
    ,                         !- Watts per Person
    0,                        !- Fraction Latent
    0,                        !- Fraction Radiant
    0,                        !- Fraction Lost
    General;                  !- EndUse Subcategory

ZONEINFILTRATION:FLOWCOEFFICIENT,
    Block Build0_Alt0 Storey 0Leak,    !- Name
    Block Build0_Alt0 Storey 0,    !- Zone Name
    AlwaysON,                 !- Schedule Name
    0.2922062503705627,       !- Flow Coefficient
    0.107,                    !- Stack Coefficient
    0.667,                    !- Pressure Exponent
    0.167,                    !- Wind Coefficient
    0.61;                     !- Shelter Factor

ZONEVENTILATION:DESIGNFLOWRATE,
    Block Build0_Alt0 Storey 0FreeCool,    !- Name
    Block Build0_Alt0 Storey 0,    !- Zone or ZoneList Name
    AlwaysON,                 !- Schedule Name
    AirChanges/Hour,          !- Design Flow Rate Calculation Method
    ,                         !- Design Flow Rate
    ,                         !- Flow Rate per Zone Floor Area
    ,                         !- Flow Rate per Person
    4,                        !- Air Changes per Hour
    Natural,                  !- Ventilation Type
    0,                        !- Fan Pressure Rise
    1,                        !- Fan Total Efficiency
    1,                        !- Constant Term Coefficient
    0,                        !- Temperature Term Coefficient
    0,                        !- Velocity Term Coefficient
    0,                        !- Velocity Squared Term Coefficient
    26,                       !- Minimum Indoor Temperature
    ,                         !- Minimum Indoor Temperature Schedule Name
    100,                      !- Maximum Indoor Temperature
    ,                         !- Maximum Indoor Temperature Schedule Name
    1,                        !- Delta Temperature
    ,                         !- Delta Temperature Schedule Name
    -100,                     !- Minimum Outdoor Temperature
    ,                         !- Minimum Outdoor Temperature Schedule Name
    100,                      !- Maximum Outdoor Temperature
    ,                         !- Maximum Outdoor Temperature Schedule Name
    40;                       !- Maximum Wind Speed

HVACTEMPLATE:THERMOSTAT,
    ResidZone,                !- Name
    ,                         !- Heating Setpoint Schedule Name
    21,                       !- Constant Heating Setpoint
    ,                         !- Cooling Setpoint Schedule Name
    50;                       !- Constant Cooling Setpoint

HVACTEMPLATE:ZONE:IDEALLOADSAIRSYSTEM,
    Block Build0_Alt0 Storey 0,    !- Zone Name
    ResidZone,                !- Template Thermostat Name
    ,                         !- System Availability Schedule Name
    50,                       !- Maximum Heating Supply Air Temperature
    13,                       !- Minimum Cooling Supply Air Temperature
    0.0156,                   !- Maximum Heating Supply Air Humidity Ratio
    0.0077,                   !- Minimum Cooling Supply Air Humidity Ratio
    NoLimit,                  !- Heating Limit
    ,                         !- Maximum Heating Air Flow Rate
    116617.2294,              !- Maximum Sensible Heating Capacity
    NoLimit,                  !- Cooling Limit
    ,                         !- Maximum Cooling Air Flow Rate
    ,                         !- Maximum Total Cooling Capacity
    ,                         !- Heating Availability Schedule Name
    ,                         !- Cooling Availability Schedule Name
    ConstantSensibleHeatRatio,    !- Dehumidification Control Type
    0.7,                      !- Cooling Sensible Heat Ratio
    60,                       !- Dehumidification Setpoint
    None,                     !- Humidification Control Type
    30,                       !- Humidification Setpoint
    Flow/Area,                !- Outdoor Air Method
    0.007,                    !- Outdoor Air Flow Rate per Person
    2.450000e-03,             !- Outdoor Air Flow Rate per Zone Floor Area
    0,                        !- Outdoor Air Flow Rate per Zone
    ,                         !- Design Specification Outdoor Air Object Name
    None,                     !- Demand Controlled Ventilation Type
    NoEconomizer,             !- Outdoor Air Economizer Type
    Sensible,                 !- Heat Recovery Type
    0.65,                     !- Sensible Heat Recovery Effectiveness
    0;                        !- Latent Heat Recovery Effectiveness

OUTDOORAIR:NODE,
    Block Build0_Alt0 Storey 0 IDEAL LOADS OUTDOOR AIR INLET,    !- Name
    -1,                       !- Height Above Ground
    ,                         !- Drybulb Temperature Schedule Name
    ,                         !- Wetbulb Temperature Schedule Name
    ,                         !- Wind Speed Schedule Name
    ,                         !- Wind Direction Schedule Name
    ,                         !- Wind Pressure Coefficient Curve Name
    No,                       !- Symmetric Wind Pressure Coefficient Curve
    Absolute;                 !- Wind Angle Type

ENERGYMANAGEMENTSYSTEM:SENSOR,
    T0,                       !- Name
    Block Build0_Alt0 Storey 0,    !- OutputVariable or OutputMeter Index Key Name
    Zone Mean Air Temperature;    !- OutputVariable or OutputMeter Name

ENERGYMANAGEMENTSYSTEM:SENSOR,
    Pow0,                     !- Name
    Block Build0_Alt0 Storey 0 IDEAL LOADS AIR SYSTEM,    !- OutputVariable or OutputMeter Index Key Name
    Zone Ideal Loads Supply Air Total Heating Rate;    !- OutputVariable or OutputMeter Name

ENERGYMANAGEMENTSYSTEM:SENSOR,
    DHWPow,                   !- Name
    DHW,                      !- OutputVariable or OutputMeter Index Key Name
    Water Use Equipment Heating Rate;    !- OutputVariable or OutputMeter Name

ENERGYMANAGEMENTSYSTEM:PROGRAMCALLINGMANAGER,
    Average Building Temperature,    !- Name
    EndOfZoneTimestepBeforeZoneReporting,    !- EnergyPlus Model Calling Point
    AverageZoneTemps;         !- Program Name 1

ENERGYMANAGEMENTSYSTEM:PROGRAMCALLINGMANAGER,
    Compute Total Building Heat Pow,    !- Name
    EndOfZoneTimestepBeforeZoneReporting,    !- EnergyPlus Model Calling Point
    TotZonePow;               !- Program Name 1

ENERGYMANAGEMENTSYSTEM:PROGRAMCALLINGMANAGER,
    Compute Total DHW Heat Pow,    !- Name
    EndOfZoneTimestepBeforeZoneReporting,    !- EnergyPlus Model Calling Point
    prgmDHWPow;               !- Program Name 1

ENERGYMANAGEMENTSYSTEM:PROGRAM,
    AverageZoneTemps,         !- Name
    SET SumNumerator = T0*Vol0,    !- Program Line 1
    SET SumDenominator  = Vol0,    !- Program Line 2
    SET AverageBuildingTemp  = SumNumerator / SumDenominator;    !- Program Line 3

ENERGYMANAGEMENTSYSTEM:PROGRAM,
    TotZonePow,               !- Name
    SET TotBuildPow = Pow0;    !- Program Line 1

ENERGYMANAGEMENTSYSTEM:PROGRAM,
    prgmDHWPow,               !- Name
    SET TotDHWPow = DHWPow;    !- Program Line 1

ENERGYMANAGEMENTSYSTEM:GLOBALVARIABLE,
    AverageBuildingTemp;      !- Erl Variable 1 Name

ENERGYMANAGEMENTSYSTEM:GLOBALVARIABLE,
    TotBuildPow;              !- Erl Variable 1 Name

ENERGYMANAGEMENTSYSTEM:GLOBALVARIABLE,
    TotDHWPow;                !- Erl Variable 1 Name

ENERGYMANAGEMENTSYSTEM:OUTPUTVARIABLE,
    Mean Heated Zones Air Temperature,    !- Name
    AverageBuildingTemp,      !- EMS Variable Name
    Averaged,                 !- Type of Data in Variable
    ZoneTimeStep;             !- Update Frequency

ENERGYMANAGEMENTSYSTEM:OUTPUTVARIABLE,
    Total Building Heating Power,    !- Name
    TotBuildPow,              !- EMS Variable Name
    Averaged,                 !- Type of Data in Variable
    ZoneTimeStep;             !- Update Frequency

ENERGYMANAGEMENTSYSTEM:OUTPUTVARIABLE,
    Total DHW Heating Power,    !- Name
    TotDHWPow,                !- EMS Variable Name
    Averaged,                 !- Type of Data in Variable
    ZoneTimeStep;             !- Update Frequency

ENERGYMANAGEMENTSYSTEM:INTERNALVARIABLE,
    Vol0,                     !- Name
    Block Build0_Alt0 Storey 0,    !- Internal Data Index Key Name
    Zone Air Volume;          !- Internal Data Type

WATERUSE:EQUIPMENT,
    DHW,                      !- Name
    General,                  !- EndUse Subcategory
    1.084605e-08,             !- Peak Flow Rate
    WaterTaps,                !- Flow Rate Fraction Schedule Name
    TargetWaterTemp,          !- Target Temperature Schedule Name
    HotWaterTemp,             !- Hot Water Supply Temperature Schedule Name
    ColdWaterTemp;            !- Cold Water Supply Temperature Schedule Name

Output:VariableDictionary,
    Regular;                  !- Key Field

OUTPUT:ENERGYMANAGEMENTSYSTEM,
    Verbose,                  !- Actuator Availability Dictionary Reporting
    Verbose,                  !- Internal Variable Availability Dictionary Reporting
    Verbose;                  !- EMS Runtime Language Debug Output Level

Output:Table:SummaryReports,
    AllSummary;               !- Report 1 Name

OutputControl:Table:Style,
    HTML;                     !- Column Separator

OUTPUT:VARIABLE,
    *,                        !- Key Value
    Site Outdoor Air Drybulb Temperature,    !- Variable Name
    Hourly;                   !- Reporting Frequency

OUTPUT:VARIABLE,
    *,                        !- Key Value
    Site Outdoor Air Relative Humidity,    !- Variable Name
    Hourly;                   !- Reporting Frequency

OUTPUT:VARIABLE,
    *,                        !- Key Value
    Site Outdoor Air Barometric Pressure,    !- Variable Name
    Hourly;                   !- Reporting Frequency

OUTPUT:VARIABLE,
    *,                        !- Key Value
    Site Wind Speed,          !- Variable Name
    Hourly;                   !- Reporting Frequency

OUTPUT:VARIABLE,
    *,                        !- Key Value
    Site Diffuse Solar Radiation Rate per Area,    !- Variable Name
    Hourly;                   !- Reporting Frequency

OUTPUT:VARIABLE,
    *,                        !- Key Value
    Site Direct Solar Radiation Rate per Area,    !- Variable Name
    Hourly;                   !- Reporting Frequency

OUTPUT:VARIABLE,
    *,                        !- Key Value
    Zone Electric Equipment Electric Power,    !- Variable Name
    Hourly;                   !- Reporting Frequency

OUTPUT:VARIABLE,
    *,                        !- Key Value
    Zone Electric Equipment Total Heating Rate,    !- Variable Name
    Hourly;                   !- Reporting Frequency

OUTPUT:VARIABLE,
    *,                        !- Key Value
    Surface Outside Face Incident Solar Radiation Rate per Area,    !- Variable Name
    Hourly;                   !- Reporting Frequency

OUTPUT:VARIABLE,
    *,                        !- Key Value
    Surface Outside Face Incident Beam Solar Radiation Rate per Area,    !- Variable Name
    Hourly;                   !- Reporting Frequency

OUTPUT:VARIABLE,
    *,                        !- Key Value
    Zone Ideal Loads Supply Air Total Heating Rate,    !- Variable Name
    Hourly;                   !- Reporting Frequency

OUTPUT:VARIABLE,
    *,                        !- Key Value
    Water Use Equipment Hot Water Mass Flow Rate,    !- Variable Name
    Hourly;                   !- Reporting Frequency

OUTPUT:VARIABLE,
    *,                        !- Key Value
    Water Use Equipment Cold Water Mass Flow Rate,    !- Variable Name
    Hourly;                   !- Reporting Frequency

OUTPUT:VARIABLE,
    *,                        !- Key Value
    Water Use Equipment Hot Water Temperature,    !- Variable Name
    Hourly;                   !- Reporting Frequency

OUTPUT:VARIABLE,
    *,                        !- Key Value
    Water Use Equipment Cold Water Temperature,    !- Variable Name
    Hourly;                   !- Reporting Frequency

OUTPUT:VARIABLE,
    *,                        !- Key Value
    Water Use Equipment Heating Rate,    !- Variable Name
    Hourly;                   !- Reporting Frequency

OUTPUT:VARIABLE,
    *,                        !- Key Value
    Mean Heated Zones Air Temperature,    !- Variable Name
    Hourly;                   !- Reporting Frequency

OUTPUT:VARIABLE,
    *,                        !- Key Value
    Total Building Heating Power,    !- Variable Name
    Hourly;                   !- Reporting Frequency

OUTPUT:VARIABLE,
    *,                        !- Key Value
    Total DHW Heating Power,    !- Variable Name
    Hourly;                   !- Reporting Frequency

OUTPUT:DIAGNOSTICS,
    DISPLAYEXTRAWARNINGS,     !- Key 1
    DisplayAdvancedReportVariables;    !- Key 2