!- Darwin Line endings 

Version,
    9.5;                      !- Version Identifier

SimulationControl,
    No,                       !- Do Zone Sizing Calculation
    No,                       !- Do System Sizing Calculation
    No,                       !- Do Plant Sizing Calculation
    No,                       !- Run Simulation for Sizing Periods
    Yes,                      !- Run Simulation for Weather File Run Periods
    No,                       !- Do HVAC Sizing Simulation for Sizing Periods
    1;                        !- Maximum Number of HVAC Sizing Simulation Passes

Building,
    None,                     !- Name
    0,                        !- North Axis
    Suburbs,                  !- Terrain
    0.04,                     !- Loads Convergence Tolerance Value
    0.4,                      !- Temperature Convergence Tolerance Value
    FullExterior,             !- Solar Distribution
    25,                       !- Maximum Number of Warmup Days
    6;                        !- Minimum Number of Warmup Days

SHADOWCALCULATION,
    PolygonClipping,          !- Shading Calculation Method
    Periodic,                 !- Shading Calculation Update Frequency Method
    20,                       !- Shading Calculation Update Frequency
    25000,                    !- Maximum Figures in Shadow Overlap Calculations
    SutherlandHodgman,        !- Polygon Clipping Algorithm
    512,                      !- Pixel Counting Resolution
    SimpleSkyDiffuseModeling,    !- Sky Diffuse Modeling Algorithm
    No,                       !- Output External Shading Calculation Results
    No,                       !- Disable SelfShading Within Shading Zone Groups
    No;                       !- Disable SelfShading From Shading Zone Groups to Other Zones

Timestep,
    4;                        !- Number of Timesteps per Hour

Site:Location,
    WeatherData/USA_CA_San.Francisco.Intl.AP.724940_TMY3.epw,    !- Name
    37.62,                    !- Latitude
    -122.4,                   !- Longitude
    -8,                       !- Time Zone
    2;                        !- Elevation

SizingPeriod:DesignDay,
    DENVER_STAPLETON Ann Htg 99.6% Condns DB,    !- Name
    12,                       !- Month
    21,                       !- Day of Month
    WinterDesignDay,          !- Day Type
    -20,                      !- Maximum DryBulb Temperature
    0,                        !- Daily DryBulb Temperature Range
    ,                         !- DryBulb Temperature Range Modifier Type
    ,                         !- DryBulb Temperature Range Modifier Day Schedule Name
    Wetbulb,                  !- Humidity Condition Type
    -20,                      !- Wetbulb or DewPoint at Maximum DryBulb
    ,                         !- Humidity Condition Day Schedule Name
    ,                         !- Humidity Ratio at Maximum DryBulb
    ,                         !- Enthalpy at Maximum DryBulb
    ,                         !- Daily WetBulb Temperature Range
    100594,                   !- Barometric Pressure
    2.3,                      !- Wind Speed
    180,                      !- Wind Direction
    No,                       !- Rain Indicator
    No,                       !- Snow Indicator
    No,                       !- Daylight Saving Time Indicator
    ASHRAEClearSky,           !- Solar Model Indicator
    ,                         !- Beam Solar Day Schedule Name
    ,                         !- Diffuse Solar Day Schedule Name
    ,                         !- ASHRAE Clear Sky Optical Depth for Beam Irradiance taub
    ,                         !- ASHRAE Clear Sky Optical Depth for Diffuse Irradiance taud
    0;                        !- Sky Clearness

SizingPeriod:DesignDay,
    DENVER_STAPLETON Ann Clg .4% Condns DB=>MWB,    !- Name
    7,                        !- Month
    21,                       !- Day of Month
    SummerDesignDay,          !- Day Type
    34.1,                     !- Maximum DryBulb Temperature
    15.2,                     !- Daily DryBulb Temperature Range
    ,                         !- DryBulb Temperature Range Modifier Type
    ,                         !- DryBulb Temperature Range Modifier Day Schedule Name
    Wetbulb,                  !- Humidity Condition Type
    15.8,                     !- Wetbulb or DewPoint at Maximum DryBulb
    ,                         !- Humidity Condition Day Schedule Name
    ,                         !- Humidity Ratio at Maximum DryBulb
    ,                         !- Enthalpy at Maximum DryBulb
    ,                         !- Daily WetBulb Temperature Range
    100594,                   !- Barometric Pressure
    4,                        !- Wind Speed
    120,                      !- Wind Direction
    No,                       !- Rain Indicator
    No,                       !- Snow Indicator
    No,                       !- Daylight Saving Time Indicator
    ASHRAEClearSky,           !- Solar Model Indicator
    ,                         !- Beam Solar Day Schedule Name
    ,                         !- Diffuse Solar Day Schedule Name
    ,                         !- ASHRAE Clear Sky Optical Depth for Beam Irradiance taub
    ,                         !- ASHRAE Clear Sky Optical Depth for Diffuse Irradiance taud
    1;                        !- Sky Clearness

RunPeriod,
    Run Period 1,             !- Name
    1,                        !- Begin Month
    1,                        !- Begin Day of Month
    ,                         !- Begin Year
    12,                       !- End Month
    31,                       !- End Day of Month
    ,                         !- End Year
    Tuesday,                  !- Day of Week for Start Day
    Yes,                      !- Use Weather File Holidays and Special Days
    Yes,                      !- Use Weather File Daylight Saving Period
    No,                       !- Apply Weekend Holiday Rule
    Yes,                      !- Use Weather File Rain Indicators
    Yes;                      !- Use Weather File Snow Indicators

SITE:GROUNDTEMPERATURE:BUILDINGSURFACE,
    15,                       !- January Ground Temperature
    15,                       !- February Ground Temperature
    15,                       !- March Ground Temperature
    15,                       !- April Ground Temperature
    15,                       !- May Ground Temperature
    15,                       !- June Ground Temperature
    15,                       !- July Ground Temperature
    15,                       !- August Ground Temperature
    15,                       !- September Ground Temperature
    15,                       !- October Ground Temperature
    15,                       !- November Ground Temperature
    15;                       !- December Ground Temperature

SCHEDULETYPELIMITS,
    Any Number,               !- Name
    ,                         !- Lower Limit Value
    ,                         !- Upper Limit Value
    ,                         !- Numeric Type
    Dimensionless;            !- Unit Type

SCHEDULE:COMPACT,
    AlwaysON,                 !- Name
    Any Number,               !- Schedule Type Limits Name
    Through: 12/31,           !- Field 1
    For: AllDays,             !- Field 2
    Until: 24:00,             !- Field 3
    1;                        !- Field 4

SCHEDULE:COMPACT,
    OccupActivity,            !- Name
    Any Number,               !- Schedule Type Limits Name
    Through: 12/31,           !- Field 1
    For: AllDays,             !- Field 2
    Until: 24:00,             !- Field 3
    70;                       !- Field 4

SCHEDULE:COMPACT,
    HotWaterTemp,             !- Name
    Any Number,               !- Schedule Type Limits Name
    Through: 12/31,           !- Field 1
    For: AllDays,             !- Field 2
    Until: 24:00,             !- Field 3
    55;                       !- Field 4

SCHEDULE:COMPACT,
    TargetWaterTemp,          !- Name
    Any Number,               !- Schedule Type Limits Name
    Through: 12/31,           !- Field 1
    For: AllDays,             !- Field 2
    Until: 24:00,             !- Field 3
    37;                       !- Field 4

SCHEDULE:FILE,
    LoadSchedule,             !- Name
    Any Number,               !- Schedule Type Limits Name
    /Users/alizad/PycharmProjects/mubes-ubem/examples/ForTest/InputFiles/Building14_winter.txt,    !- File Name
    1,                        !- Column Number
    0,                        !- Rows to Skip at Top
    8760,                     !- Number of Hours of Data
    Comma,                    !- Column Separator
    No;                       !- Interpolate to Timestep

SCHEDULE:FILE,
    Watertaps,                !- Name
    Any Number,               !- Schedule Type Limits Name
    /Users/alizad/PycharmProjects/mubes-ubem/examples/ForTest/InputFiles/domestic_hot_water_40_apartments.txt,    !- File Name
    1,                        !- Column Number
    0,                        !- Rows to Skip at Top
    8760,                     !- Number of Hours of Data
    Comma,                    !- Column Separator
    No;                       !- Interpolate to Timestep

SCHEDULE:FILE,
    ColdWaterTemp,            !- Name
    Any Number,               !- Schedule Type Limits Name
    /Users/alizad/PycharmProjects/mubes-ubem/examples/ForTest/InputFiles/cold_water_temperature_stockholm.txt,    !- File Name
    1,                        !- Column Number
    0,                        !- Rows to Skip at Top
    8760,                     !- Number of Hours of Data
    Comma,                    !- Column Separator
    No;                       !- Interpolate to Timestep

MATERIAL,
    DefaultMaterial,          !- Name
    Rough,                    !- Roughness
    0.1,                      !- Thickness
    0.1,                      !- Conductivity
    1000,                     !- Density
    1000,                     !- Specific Heat
    0.9,                      !- Thermal Absorptance
    0.7,                      !- Solar Absorptance
    0.7;                      !- Visible Absorptance

MATERIAL,
    Basement Floor,           !- Name
    Rough,                    !- Roughness
    0.1,                      !- Thickness
    0.9,                      !- Conductivity
    2300,                     !- Density
    1000,                     !- Specific Heat
    0.9,                      !- Thermal Absorptance
    0.7,                      !- Solar Absorptance
    0.7;                      !- Visible Absorptance

MATERIAL,
    Heated1rstFloor Inertia,    !- Name
    Rough,                    !- Roughness
    0.1,                      !- Thickness
    0.9,                      !- Conductivity
    2300,                     !- Density
    1000,                     !- Specific Heat
    0.9,                      !- Thermal Absorptance
    0.7,                      !- Solar Absorptance
    0.7;                      !- Visible Absorptance

MATERIAL,
    Heated1rstFloor Insulation,    !- Name
    Rough,                    !- Roughness
    0.15,                     !- Thickness
    0.035,                    !- Conductivity
    150,                      !- Density
    1000,                     !- Specific Heat
    0.9,                      !- Thermal Absorptance
    0.7,                      !- Solar Absorptance
    0.7;                      !- Visible Absorptance

MATERIAL,
    Roof Insulation,          !- Name
    Rough,                    !- Roughness
    0.3,                      !- Thickness
    0.03,                     !- Conductivity
    150,                      !- Density
    1000,                     !- Specific Heat
    0.9,                      !- Thermal Absorptance
    0.7,                      !- Solar Absorptance
    0.7;                      !- Visible Absorptance

MATERIAL,
    Wall Inertia,             !- Name
    Rough,                    !- Roughness
    0.2,                      !- Thickness
    0.9,                      !- Conductivity
    2300,                     !- Density
    1000,                     !- Specific Heat
    0.9,                      !- Thermal Absorptance
    0.7,                      !- Solar Absorptance
    0.7;                      !- Visible Absorptance

MATERIAL,
    Wall Insulation,          !- Name
    Rough,                    !- Roughness
    0.2,                      !- Thickness
    0.03,                     !- Conductivity
    150,                      !- Density
    1000,                     !- Specific Heat
    0.9,                      !- Thermal Absorptance
    0.7,                      !- Solar Absorptance
    0.7;                      !- Visible Absorptance

MATERIAL,
    HeatedZoneIntMass,        !- Name
    Rough,                    !- Roughness
    0.1,                      !- Thickness
    0.3,                      !- Conductivity
    600,                      !- Density
    1400,                     !- Specific Heat
    0.9,                      !- Thermal Absorptance
    0.7,                      !- Solar Absorptance
    0.7;                      !- Visible Absorptance

MATERIAL,
    NonHeatedZoneIntMass,     !- Name
    Rough,                    !- Roughness
    0.1,                      !- Thickness
    0.3,                      !- Conductivity
    600,                      !- Density
    1400,                     !- Specific Heat
    0.9,                      !- Thermal Absorptance
    0.7,                      !- Solar Absorptance
    0.7;                      !- Visible Absorptance

MATERIAL,
    AirWallMaterial,          !- Name
    MediumSmooth,             !- Roughness
    0.01,                     !- Thickness
    0.6,                      !- Conductivity
    800,                      !- Density
    1000,                     !- Specific Heat
    0.95,                     !- Thermal Absorptance
    0.7,                      !- Solar Absorptance
    0.7;                      !- Visible Absorptance

WINDOWMATERIAL:SIMPLEGLAZINGSYSTEM,
    DefaultGlazing,           !- Name
    2.7,                      !- UFactor
    0.763,                    !- Solar Heat Gain Coefficient
    0.8;                      !- Visible Transmittance

WINDOWMATERIAL:SIMPLEGLAZINGSYSTEM,
    Window,                   !- Name
    1.9,                      !- UFactor
    0.7,                      !- Solar Heat Gain Coefficient
    0.8;                      !- Visible Transmittance

CONSTRUCTION,
    Project Wall,             !- Name
    Wall Inertia,             !- Outside Layer
    Wall Insulation;          !- Layer 2

CONSTRUCTION,
    Project Basement Wall,    !- Name
    Wall Inertia;             !- Outside Layer

CONSTRUCTION,
    Project Basement Floor,    !- Name
    Basement Floor;           !- Outside Layer

CONSTRUCTION,
    Project Flat Roof,        !- Name
    Roof Insulation;          !- Outside Layer

CONSTRUCTION,
    Project External Window,    !- Name
    Window;                   !- Outside Layer

CONSTRUCTION,
    Project Heated1rstFloor,    !- Name
    Heated1rstFloor Inertia,    !- Outside Layer
    Heated1rstFloor Insulation;    !- Layer 2

CONSTRUCTION,
    Project Heated1rstFloor Rev,    !- Name
    Heated1rstFloor Insulation,    !- Outside Layer
    Heated1rstFloor Inertia;    !- Layer 2

CONSTRUCTION,
    HeatedZoneIntMassObj,     !- Name
    HeatedZoneIntMass;        !- Outside Layer

CONSTRUCTION,
    NonHeatedZoneIntMassObj,    !- Name
    NonHeatedZoneIntMass;     !- Outside Layer

GlobalGeometryRules,
    UpperLeftCorner,          !- Starting Vertex Position
    CounterClockWise,         !- Vertex Entry Direction
    World;                    !- Coordinate System

ZONE,
    Block Build0_Alt0 Storey -1,    !- Name
    0,                        !- Direction of Relative North
    0,                        !- X Origin
    0,                        !- Y Origin
    0,                        !- Z Origin
    1,                        !- Type
    1,                        !- Multiplier
    autocalculate,            !- Ceiling Height
    autocalculate,            !- Volume
    autocalculate,            !- Floor Area
    ,                         !- Zone Inside Convection Algorithm
    ,                         !- Zone Outside Convection Algorithm
    Yes;                      !- Part of Total Floor Area

ZONE,
    Block Build0_Alt0 Storey 0,    !- Name
    0,                        !- Direction of Relative North
    0,                        !- X Origin
    0,                        !- Y Origin
    0,                        !- Z Origin
    1,                        !- Type
    1,                        !- Multiplier
    autocalculate,            !- Ceiling Height
    autocalculate,            !- Volume
    autocalculate,            !- Floor Area
    ,                         !- Zone Inside Convection Algorithm
    ,                         !- Zone Outside Convection Algorithm
    Yes;                      !- Part of Total Floor Area

BUILDINGSURFACE:DETAILED,
    Block Build0_Alt0 Storey -1 Wall 0001,    !- Name
    wall,                     !- Surface Type
    Project Basement Wall,    !- Construction Name
    Block Build0_Alt0 Storey -1,    !- Zone Name
    ground,                   !- Outside Boundary Condition
    ,                         !- Outside Boundary Condition Object
    NoSun,                    !- Sun Exposure
    NoWind,                   !- Wind Exposure
    autocalculate,            !- View Factor to Ground
    autocalculate,            !- Number of Vertices
    5.4344,                   !- Vertex 1 Xcoordinate
    -8.8939,                  !- Vertex 1 Ycoordinate
    0,                        !- Vertex 1 Zcoordinate
    5.4344,                   !- Vertex 2 Xcoordinate
    -8.8939,                  !- Vertex 2 Ycoordinate
    -2.5,                     !- Vertex 2 Zcoordinate
    13.8564,                  !- Vertex 3 Xcoordinate
    -1.7049,                  !- Vertex 3 Ycoordinate
    -2.5,                     !- Vertex 3 Zcoordinate
    13.8564,                  !- Vertex 4 Xcoordinate
    -1.7049,                  !- Vertex 4 Ycoordinate
    0;                        !- Vertex 4 Zcoordinate

BUILDINGSURFACE:DETAILED,
    Block Build0_Alt0 Storey -1 Wall 0002,    !- Name
    wall,                     !- Surface Type
    Project Basement Wall,    !- Construction Name
    Block Build0_Alt0 Storey -1,    !- Zone Name
    ground,                   !- Outside Boundary Condition
    ,                         !- Outside Boundary Condition Object
    NoSun,                    !- Sun Exposure
    NoWind,                   !- Wind Exposure
    autocalculate,            !- View Factor to Ground
    autocalculate,            !- Number of Vertices
    13.8564,                  !- Vertex 1 Xcoordinate
    -1.7049,                  !- Vertex 1 Ycoordinate
    0,                        !- Vertex 1 Zcoordinate
    13.8564,                  !- Vertex 2 Xcoordinate
    -1.7049,                  !- Vertex 2 Ycoordinate
    -2.5,                     !- Vertex 2 Zcoordinate
    14.0574,                  !- Vertex 3 Xcoordinate
    1.5571,                   !- Vertex 3 Ycoordinate
    -2.5,                     !- Vertex 3 Zcoordinate
    14.0574,                  !- Vertex 4 Xcoordinate
    1.5571,                   !- Vertex 4 Ycoordinate
    0;                        !- Vertex 4 Zcoordinate

BUILDINGSURFACE:DETAILED,
    Block Build0_Alt0 Storey -1 Wall 0003,    !- Name
    wall,                     !- Surface Type
    Project Basement Wall,    !- Construction Name
    Block Build0_Alt0 Storey -1,    !- Zone Name
    ground,                   !- Outside Boundary Condition
    ,                         !- Outside Boundary Condition Object
    NoSun,                    !- Sun Exposure
    NoWind,                   !- Wind Exposure
    autocalculate,            !- View Factor to Ground
    autocalculate,            !- Number of Vertices
    14.0574,                  !- Vertex 1 Xcoordinate
    1.5571,                   !- Vertex 1 Ycoordinate
    0,                        !- Vertex 1 Zcoordinate
    14.0574,                  !- Vertex 2 Xcoordinate
    1.5571,                   !- Vertex 2 Ycoordinate
    -2.5,                     !- Vertex 2 Zcoordinate
    8.7674,                   !- Vertex 3 Xcoordinate
    7.7211,                   !- Vertex 3 Ycoordinate
    -2.5,                     !- Vertex 3 Zcoordinate
    8.7674,                   !- Vertex 4 Xcoordinate
    7.7211,                   !- Vertex 4 Ycoordinate
    0;                        !- Vertex 4 Zcoordinate

BUILDINGSURFACE:DETAILED,
    Block Build0_Alt0 Storey -1 Wall 0004,    !- Name
    wall,                     !- Surface Type
    Project Basement Wall,    !- Construction Name
    Block Build0_Alt0 Storey -1,    !- Zone Name
    ground,                   !- Outside Boundary Condition
    ,                         !- Outside Boundary Condition Object
    NoSun,                    !- Sun Exposure
    NoWind,                   !- Wind Exposure
    autocalculate,            !- View Factor to Ground
    autocalculate,            !- Number of Vertices
    8.7674,                   !- Vertex 1 Xcoordinate
    7.7211,                   !- Vertex 1 Ycoordinate
    0,                        !- Vertex 1 Zcoordinate
    8.7674,                   !- Vertex 2 Xcoordinate
    7.7211,                   !- Vertex 2 Ycoordinate
    -2.5,                     !- Vertex 2 Zcoordinate
    5.7854,                   !- Vertex 3 Xcoordinate
    5.0811,                   !- Vertex 3 Ycoordinate
    -2.5,                     !- Vertex 3 Zcoordinate
    5.7854,                   !- Vertex 4 Xcoordinate
    5.0811,                   !- Vertex 4 Ycoordinate
    0;                        !- Vertex 4 Zcoordinate

BUILDINGSURFACE:DETAILED,
    Block Build0_Alt0 Storey -1 Wall 0005,    !- Name
    wall,                     !- Surface Type
    Project Basement Wall,    !- Construction Name
    Block Build0_Alt0 Storey -1,    !- Zone Name
    ground,                   !- Outside Boundary Condition
    ,                         !- Outside Boundary Condition Object
    NoSun,                    !- Sun Exposure
    NoWind,                   !- Wind Exposure
    autocalculate,            !- View Factor to Ground
    autocalculate,            !- Number of Vertices
    5.7854,                   !- Vertex 1 Xcoordinate
    5.0811,                   !- Vertex 1 Ycoordinate
    0,                        !- Vertex 1 Zcoordinate
    5.7854,                   !- Vertex 2 Xcoordinate
    5.0811,                   !- Vertex 2 Ycoordinate
    -2.5,                     !- Vertex 2 Zcoordinate
    -1.0346,                  !- Vertex 3 Xcoordinate
    12.9761,                  !- Vertex 3 Ycoordinate
    -2.5,                     !- Vertex 3 Zcoordinate
    -1.0346,                  !- Vertex 4 Xcoordinate
    12.9761,                  !- Vertex 4 Ycoordinate
    0;                        !- Vertex 4 Zcoordinate

BUILDINGSURFACE:DETAILED,
    Block Build0_Alt0 Storey -1 Wall 0006,    !- Name
    wall,                     !- Surface Type
    Project Basement Wall,    !- Construction Name
    Block Build0_Alt0 Storey -1,    !- Zone Name
    ground,                   !- Outside Boundary Condition
    ,                         !- Outside Boundary Condition Object
    NoSun,                    !- Sun Exposure
    NoWind,                   !- Wind Exposure
    autocalculate,            !- View Factor to Ground
    autocalculate,            !- Number of Vertices
    -1.0346,                  !- Vertex 1 Xcoordinate
    12.9761,                  !- Vertex 1 Ycoordinate
    0,                        !- Vertex 1 Zcoordinate
    -1.0346,                  !- Vertex 2 Xcoordinate
    12.9761,                  !- Vertex 2 Ycoordinate
    -2.5,                     !- Vertex 2 Zcoordinate
    -4.7486,                  !- Vertex 3 Xcoordinate
    13.2061,                  !- Vertex 3 Ycoordinate
    -2.5,                     !- Vertex 3 Zcoordinate
    -4.7486,                  !- Vertex 4 Xcoordinate
    13.2061,                  !- Vertex 4 Ycoordinate
    0;                        !- Vertex 4 Zcoordinate

BUILDINGSURFACE:DETAILED,
    Block Build0_Alt0 Storey -1 Wall 0007,    !- Name
    wall,                     !- Surface Type
    Project Basement Wall,    !- Construction Name
    Block Build0_Alt0 Storey -1,    !- Zone Name
    ground,                   !- Outside Boundary Condition
    ,                         !- Outside Boundary Condition Object
    NoSun,                    !- Sun Exposure
    NoWind,                   !- Wind Exposure
    autocalculate,            !- View Factor to Ground
    autocalculate,            !- Number of Vertices
    -4.7486,                  !- Vertex 1 Xcoordinate
    13.2061,                  !- Vertex 1 Ycoordinate
    0,                        !- Vertex 1 Zcoordinate
    -4.7486,                  !- Vertex 2 Xcoordinate
    13.2061,                  !- Vertex 2 Ycoordinate
    -2.5,                     !- Vertex 2 Zcoordinate
    -9.8076,                  !- Vertex 3 Xcoordinate
    8.9191,                   !- Vertex 3 Ycoordinate
    -2.5,                     !- Vertex 3 Zcoordinate
    -9.8076,                  !- Vertex 4 Xcoordinate
    8.9191,                   !- Vertex 4 Ycoordinate
    0;                        !- Vertex 4 Zcoordinate

BUILDINGSURFACE:DETAILED,
    Block Build0_Alt0 Storey -1 Wall 0008,    !- Name
    wall,                     !- Surface Type
    Project Basement Wall,    !- Construction Name
    Block Build0_Alt0 Storey -1,    !- Zone Name
    ground,                   !- Outside Boundary Condition
    ,                         !- Outside Boundary Condition Object
    NoSun,                    !- Sun Exposure
    NoWind,                   !- Wind Exposure
    autocalculate,            !- View Factor to Ground
    autocalculate,            !- Number of Vertices
    -9.8076,                  !- Vertex 1 Xcoordinate
    8.9191,                   !- Vertex 1 Ycoordinate
    0,                        !- Vertex 1 Zcoordinate
    -9.8076,                  !- Vertex 2 Xcoordinate
    8.9191,                   !- Vertex 2 Ycoordinate
    -2.5,                     !- Vertex 2 Zcoordinate
    5.4344,                   !- Vertex 3 Xcoordinate
    -8.8939,                  !- Vertex 3 Ycoordinate
    -2.5,                     !- Vertex 3 Zcoordinate
    5.4344,                   !- Vertex 4 Xcoordinate
    -8.8939,                  !- Vertex 4 Ycoordinate
    0;                        !- Vertex 4 Zcoordinate

BUILDINGSURFACE:DETAILED,
    Block Build0_Alt0 Storey -1 Floor 0001,    !- Name
    floor,                    !- Surface Type
    Project Basement Floor,    !- Construction Name
    Block Build0_Alt0 Storey -1,    !- Zone Name
    ground,                   !- Outside Boundary Condition
    ,                         !- Outside Boundary Condition Object
    NoSun,                    !- Sun Exposure
    NoWind,                   !- Wind Exposure
    autocalculate,            !- View Factor to Ground
    autocalculate,            !- Number of Vertices
    8.7674,                   !- Vertex 1 Xcoordinate
    7.7211,                   !- Vertex 1 Ycoordinate
    -2.5,                     !- Vertex 1 Zcoordinate
    14.0574,                  !- Vertex 2 Xcoordinate
    1.5571,                   !- Vertex 2 Ycoordinate
    -2.5,                     !- Vertex 2 Zcoordinate
    13.8564,                  !- Vertex 3 Xcoordinate
    -1.7049,                  !- Vertex 3 Ycoordinate
    -2.5,                     !- Vertex 3 Zcoordinate
    5.4344,                   !- Vertex 4 Xcoordinate
    -8.8939,                  !- Vertex 4 Ycoordinate
    -2.5,                     !- Vertex 4 Zcoordinate
    -9.8076,                  !- Vertex 5 Xcoordinate
    8.9191,                   !- Vertex 5 Ycoordinate
    -2.5,                     !- Vertex 5 Zcoordinate
    -4.7486,                  !- Vertex 6 Xcoordinate
    13.2061,                  !- Vertex 6 Ycoordinate
    -2.5,                     !- Vertex 6 Zcoordinate
    -1.0346,                  !- Vertex 7 Xcoordinate
    12.9761,                  !- Vertex 7 Ycoordinate
    -2.5,                     !- Vertex 7 Zcoordinate
    5.7854,                   !- Vertex 8 Xcoordinate
    5.0811,                   !- Vertex 8 Ycoordinate
    -2.5;                     !- Vertex 8 Zcoordinate

BUILDINGSURFACE:DETAILED,
    Block Build0_Alt0 Storey 0 Wall 0001,    !- Name
    wall,                     !- Surface Type
    Project Wall,             !- Construction Name
    Block Build0_Alt0 Storey 0,    !- Zone Name
    outdoors,                 !- Outside Boundary Condition
    ,                         !- Outside Boundary Condition Object
    SunExposed,               !- Sun Exposure
    WindExposed,              !- Wind Exposure
    autocalculate,            !- View Factor to Ground
    autocalculate,            !- Number of Vertices
    5.4344,                   !- Vertex 1 Xcoordinate
    -8.8939,                  !- Vertex 1 Ycoordinate
    3,                        !- Vertex 1 Zcoordinate
    5.4344,                   !- Vertex 2 Xcoordinate
    -8.8939,                  !- Vertex 2 Ycoordinate
    0,                        !- Vertex 2 Zcoordinate
    13.8564,                  !- Vertex 3 Xcoordinate
    -1.7049,                  !- Vertex 3 Ycoordinate
    0,                        !- Vertex 3 Zcoordinate
    13.8564,                  !- Vertex 4 Xcoordinate
    -1.7049,                  !- Vertex 4 Ycoordinate
    3;                        !- Vertex 4 Zcoordinate

BUILDINGSURFACE:DETAILED,
    Block Build0_Alt0 Storey 0 Wall 0002,    !- Name
    wall,                     !- Surface Type
    Project Wall,             !- Construction Name
    Block Build0_Alt0 Storey 0,    !- Zone Name
    outdoors,                 !- Outside Boundary Condition
    ,                         !- Outside Boundary Condition Object
    SunExposed,               !- Sun Exposure
    WindExposed,              !- Wind Exposure
    autocalculate,            !- View Factor to Ground
    autocalculate,            !- Number of Vertices
    13.8564,                  !- Vertex 1 Xcoordinate
    -1.7049,                  !- Vertex 1 Ycoordinate
    3,                        !- Vertex 1 Zcoordinate
    13.8564,                  !- Vertex 2 Xcoordinate
    -1.7049,                  !- Vertex 2 Ycoordinate
    0,                        !- Vertex 2 Zcoordinate
    14.0574,                  !- Vertex 3 Xcoordinate
    1.5571,                   !- Vertex 3 Ycoordinate
    0,                        !- Vertex 3 Zcoordinate
    14.0574,                  !- Vertex 4 Xcoordinate
    1.5571,                   !- Vertex 4 Ycoordinate
    3;                        !- Vertex 4 Zcoordinate

BUILDINGSURFACE:DETAILED,
    Block Build0_Alt0 Storey 0 Wall 0003,    !- Name
    wall,                     !- Surface Type
    Project Wall,             !- Construction Name
    Block Build0_Alt0 Storey 0,    !- Zone Name
    outdoors,                 !- Outside Boundary Condition
    ,                         !- Outside Boundary Condition Object
    SunExposed,               !- Sun Exposure
    WindExposed,              !- Wind Exposure
    autocalculate,            !- View Factor to Ground
    autocalculate,            !- Number of Vertices
    14.0574,                  !- Vertex 1 Xcoordinate
    1.5571,                   !- Vertex 1 Ycoordinate
    3,                        !- Vertex 1 Zcoordinate
    14.0574,                  !- Vertex 2 Xcoordinate
    1.5571,                   !- Vertex 2 Ycoordinate
    0,                        !- Vertex 2 Zcoordinate
    8.7674,                   !- Vertex 3 Xcoordinate
    7.7211,                   !- Vertex 3 Ycoordinate
    0,                        !- Vertex 3 Zcoordinate
    8.7674,                   !- Vertex 4 Xcoordinate
    7.7211,                   !- Vertex 4 Ycoordinate
    3;                        !- Vertex 4 Zcoordinate

BUILDINGSURFACE:DETAILED,
    Block Build0_Alt0 Storey 0 Wall 0004,    !- Name
    wall,                     !- Surface Type
    Project Wall,             !- Construction Name
    Block Build0_Alt0 Storey 0,    !- Zone Name
    outdoors,                 !- Outside Boundary Condition
    ,                         !- Outside Boundary Condition Object
    SunExposed,               !- Sun Exposure
    WindExposed,              !- Wind Exposure
    autocalculate,            !- View Factor to Ground
    autocalculate,            !- Number of Vertices
    8.7674,                   !- Vertex 1 Xcoordinate
    7.7211,                   !- Vertex 1 Ycoordinate
    3,                        !- Vertex 1 Zcoordinate
    8.7674,                   !- Vertex 2 Xcoordinate
    7.7211,                   !- Vertex 2 Ycoordinate
    0,                        !- Vertex 2 Zcoordinate
    5.7854,                   !- Vertex 3 Xcoordinate
    5.0811,                   !- Vertex 3 Ycoordinate
    0,                        !- Vertex 3 Zcoordinate
    5.7854,                   !- Vertex 4 Xcoordinate
    5.0811,                   !- Vertex 4 Ycoordinate
    3;                        !- Vertex 4 Zcoordinate

BUILDINGSURFACE:DETAILED,
    Block Build0_Alt0 Storey 0 Wall 0005,    !- Name
    wall,                     !- Surface Type
    Project Wall,             !- Construction Name
    Block Build0_Alt0 Storey 0,    !- Zone Name
    outdoors,                 !- Outside Boundary Condition
    ,                         !- Outside Boundary Condition Object
    SunExposed,               !- Sun Exposure
    WindExposed,              !- Wind Exposure
    autocalculate,            !- View Factor to Ground
    autocalculate,            !- Number of Vertices
    5.7854,                   !- Vertex 1 Xcoordinate
    5.0811,                   !- Vertex 1 Ycoordinate
    3,                        !- Vertex 1 Zcoordinate
    5.7854,                   !- Vertex 2 Xcoordinate
    5.0811,                   !- Vertex 2 Ycoordinate
    0,                        !- Vertex 2 Zcoordinate
    -1.0346,                  !- Vertex 3 Xcoordinate
    12.9761,                  !- Vertex 3 Ycoordinate
    0,                        !- Vertex 3 Zcoordinate
    -1.0346,                  !- Vertex 4 Xcoordinate
    12.9761,                  !- Vertex 4 Ycoordinate
    3;                        !- Vertex 4 Zcoordinate

BUILDINGSURFACE:DETAILED,
    Block Build0_Alt0 Storey 0 Wall 0006,    !- Name
    wall,                     !- Surface Type
    Project Wall,             !- Construction Name
    Block Build0_Alt0 Storey 0,    !- Zone Name
    outdoors,                 !- Outside Boundary Condition
    ,                         !- Outside Boundary Condition Object
    SunExposed,               !- Sun Exposure
    WindExposed,              !- Wind Exposure
    autocalculate,            !- View Factor to Ground
    autocalculate,            !- Number of Vertices
    -1.0346,                  !- Vertex 1 Xcoordinate
    12.9761,                  !- Vertex 1 Ycoordinate
    3,                        !- Vertex 1 Zcoordinate
    -1.0346,                  !- Vertex 2 Xcoordinate
    12.9761,                  !- Vertex 2 Ycoordinate
    0,                        !- Vertex 2 Zcoordinate
    -4.7486,                  !- Vertex 3 Xcoordinate
    13.2061,                  !- Vertex 3 Ycoordinate
    0,                        !- Vertex 3 Zcoordinate
    -4.7486,                  !- Vertex 4 Xcoordinate
    13.2061,                  !- Vertex 4 Ycoordinate
    3;                        !- Vertex 4 Zcoordinate

BUILDINGSURFACE:DETAILED,
    Block Build0_Alt0 Storey 0 Wall 0007,    !- Name
    wall,                     !- Surface Type
    Project Wall,             !- Construction Name
    Block Build0_Alt0 Storey 0,    !- Zone Name
    outdoors,                 !- Outside Boundary Condition
    ,                         !- Outside Boundary Condition Object
    SunExposed,               !- Sun Exposure
    WindExposed,              !- Wind Exposure
    autocalculate,            !- View Factor to Ground
    autocalculate,            !- Number of Vertices
    -4.7486,                  !- Vertex 1 Xcoordinate
    13.2061,                  !- Vertex 1 Ycoordinate
    3,                        !- Vertex 1 Zcoordinate
    -4.7486,                  !- Vertex 2 Xcoordinate
    13.2061,                  !- Vertex 2 Ycoordinate
    0,                        !- Vertex 2 Zcoordinate
    -9.8076,                  !- Vertex 3 Xcoordinate
    8.9191,                   !- Vertex 3 Ycoordinate
    0,                        !- Vertex 3 Zcoordinate
    -9.8076,                  !- Vertex 4 Xcoordinate
    8.9191,                   !- Vertex 4 Ycoordinate
    3;                        !- Vertex 4 Zcoordinate

BUILDINGSURFACE:DETAILED,
    Block Build0_Alt0 Storey 0 Wall 0008,    !- Name
    wall,                     !- Surface Type
    Project Wall,             !- Construction Name
    Block Build0_Alt0 Storey 0,    !- Zone Name
    outdoors,                 !- Outside Boundary Condition
    ,                         !- Outside Boundary Condition Object
    SunExposed,               !- Sun Exposure
    WindExposed,              !- Wind Exposure
    autocalculate,            !- View Factor to Ground
    autocalculate,            !- Number of Vertices
    -9.8076,                  !- Vertex 1 Xcoordinate
    8.9191,                   !- Vertex 1 Ycoordinate
    3,                        !- Vertex 1 Zcoordinate
    -9.8076,                  !- Vertex 2 Xcoordinate
    8.9191,                   !- Vertex 2 Ycoordinate
    0,                        !- Vertex 2 Zcoordinate
    5.4344,                   !- Vertex 3 Xcoordinate
    -8.8939,                  !- Vertex 3 Ycoordinate
    0,                        !- Vertex 3 Zcoordinate
    5.4344,                   !- Vertex 4 Xcoordinate
    -8.8939,                  !- Vertex 4 Ycoordinate
    3;                        !- Vertex 4 Zcoordinate

BUILDINGSURFACE:DETAILED,
    Block Build0_Alt0 Storey -1 Ceiling 0001_1,    !- Name
    ceiling,                  !- Surface Type
    Project Heated1rstFloor Rev,    !- Construction Name
    Block Build0_Alt0 Storey -1,    !- Zone Name
    surface,                  !- Outside Boundary Condition
    Block Build0_Alt0 Storey 0 Floor 0001_1,    !- Outside Boundary Condition Object
    NoSun,                    !- Sun Exposure
    NoWind,                   !- Wind Exposure
    autocalculate,            !- View Factor to Ground
    autocalculate,            !- Number of Vertices
    13.856399999931455,       !- Vertex 1 Xcoordinate
    -1.704900e+00,            !- Vertex 1 Ycoordinate
    0,                        !- Vertex 1 Zcoordinate
    14.05739999981597,        !- Vertex 2 Xcoordinate
    1.557099999859929,        !- Vertex 2 Ycoordinate
    0,                        !- Vertex 2 Zcoordinate
    8.767399999778718,        !- Vertex 3 Xcoordinate
    7.721099999733269,        !- Vertex 3 Ycoordinate
    0,                        !- Vertex 3 Zcoordinate
    5.78539999993518,         !- Vertex 4 Xcoordinate
    5.081099999602884,        !- Vertex 4 Ycoordinate
    0,                        !- Vertex 4 Zcoordinate
    -1.034599999897182,       !- Vertex 5 Xcoordinate
    12.97609999962151,        !- Vertex 5 Ycoordinate
    0,                        !- Vertex 5 Zcoordinate
    -4.748599999584258,       !- Vertex 6 Xcoordinate
    13.206099999602884,       !- Vertex 6 Ycoordinate
    0,                        !- Vertex 6 Zcoordinate
    -9.807599999941885,       !- Vertex 7 Xcoordinate
    8.919099999591708,        !- Vertex 7 Ycoordinate
    0,                        !- Vertex 7 Zcoordinate
    5.434399999678135,        !- Vertex 8 Xcoordinate
    -8.893899999558926,       !- Vertex 8 Ycoordinate
    0;                        !- Vertex 8 Zcoordinate

BUILDINGSURFACE:DETAILED,
    Block Build0_Alt0 Storey 0 Floor 0001_1,    !- Name
    floor,                    !- Surface Type
    Project Heated1rstFloor,    !- Construction Name
    Block Build0_Alt0 Storey 0,    !- Zone Name
    surface,                  !- Outside Boundary Condition
    Block Build0_Alt0 Storey -1 Ceiling 0001_1,    !- Outside Boundary Condition Object
    NoSun,                    !- Sun Exposure
    NoWind,                   !- Wind Exposure
    autocalculate,            !- View Factor to Ground
    autocalculate,            !- Number of Vertices
    8.767399999778718,        !- Vertex 1 Xcoordinate
    7.721099999733269,        !- Vertex 1 Ycoordinate
    0,                        !- Vertex 1 Zcoordinate
    14.05739999981597,        !- Vertex 2 Xcoordinate
    1.557099999859929,        !- Vertex 2 Ycoordinate
    0,                        !- Vertex 2 Zcoordinate
    13.856399999931455,       !- Vertex 3 Xcoordinate
    -1.704900e+00,            !- Vertex 3 Ycoordinate
    0,                        !- Vertex 3 Zcoordinate
    5.434399999678135,        !- Vertex 4 Xcoordinate
    -8.893899999558926,       !- Vertex 4 Ycoordinate
    0,                        !- Vertex 4 Zcoordinate
    -9.807599999941885,       !- Vertex 5 Xcoordinate
    8.919099999591708,        !- Vertex 5 Ycoordinate
    0,                        !- Vertex 5 Zcoordinate
    -4.748599999584258,       !- Vertex 6 Xcoordinate
    13.206099999602884,       !- Vertex 6 Ycoordinate
    0,                        !- Vertex 6 Zcoordinate
    -1.034599999897182,       !- Vertex 7 Xcoordinate
    12.97609999962151,        !- Vertex 7 Ycoordinate
    0,                        !- Vertex 7 Zcoordinate
    5.78539999993518,         !- Vertex 8 Xcoordinate
    5.081099999602884,        !- Vertex 8 Ycoordinate
    0;                        !- Vertex 8 Zcoordinate

BUILDINGSURFACE:DETAILED,
    Block Build0_Alt0 Storey 0 Roof 0001_0,    !- Name
    roof,                     !- Surface Type
    Project Flat Roof,        !- Construction Name
    Block Build0_Alt0 Storey 0,    !- Zone Name
    outdoors,                 !- Outside Boundary Condition
    ,                         !- Outside Boundary Condition Object
    SunExposed,               !- Sun Exposure
    WindExposed,              !- Wind Exposure
    autocalculate,            !- View Factor to Ground
    autocalculate,            !- Number of Vertices
    13.8564,                  !- Vertex 1 Xcoordinate
    -1.7049,                  !- Vertex 1 Ycoordinate
    3,                        !- Vertex 1 Zcoordinate
    14.0574,                  !- Vertex 2 Xcoordinate
    1.5571,                   !- Vertex 2 Ycoordinate
    3,                        !- Vertex 2 Zcoordinate
    8.7674,                   !- Vertex 3 Xcoordinate
    7.7211,                   !- Vertex 3 Ycoordinate
    3,                        !- Vertex 3 Zcoordinate
    5.7854,                   !- Vertex 4 Xcoordinate
    5.0811,                   !- Vertex 4 Ycoordinate
    3,                        !- Vertex 4 Zcoordinate
    5.4344,                   !- Vertex 5 Xcoordinate
    -8.8939,                  !- Vertex 5 Ycoordinate
    3;                        !- Vertex 5 Zcoordinate

BUILDINGSURFACE:DETAILED,
    Block Build0_Alt0 Storey 0 Roof 0001_1,    !- Name
    roof,                     !- Surface Type
    Project Flat Roof,        !- Construction Name
    Block Build0_Alt0 Storey 0,    !- Zone Name
    outdoors,                 !- Outside Boundary Condition
    ,                         !- Outside Boundary Condition Object
    SunExposed,               !- Sun Exposure
    WindExposed,              !- Wind Exposure
    autocalculate,            !- View Factor to Ground
    autocalculate,            !- Number of Vertices
    5.4344,                   !- Vertex 1 Xcoordinate
    -8.8939,                  !- Vertex 1 Ycoordinate
    3,                        !- Vertex 1 Zcoordinate
    5.7854,                   !- Vertex 2 Xcoordinate
    5.0811,                   !- Vertex 2 Ycoordinate
    3,                        !- Vertex 2 Zcoordinate
    -1.0346,                  !- Vertex 3 Xcoordinate
    12.9761,                  !- Vertex 3 Ycoordinate
    3,                        !- Vertex 3 Zcoordinate
    -4.7486,                  !- Vertex 4 Xcoordinate
    13.2061,                  !- Vertex 4 Ycoordinate
    3,                        !- Vertex 4 Zcoordinate
    -9.8076,                  !- Vertex 5 Xcoordinate
    8.9191,                   !- Vertex 5 Ycoordinate
    3;                        !- Vertex 5 Zcoordinate

FENESTRATIONSURFACE:DETAILED,
    Block Build0_Alt0 Storey 0 Wall 0001 window,    !- Name
    Window,                   !- Surface Type
    Project External Window,    !- Construction Name
    Block Build0_Alt0 Storey 0 Wall 0001,    !- Building Surface Name
    ,                         !- Outside Boundary Condition Object
    autocalculate,            !- View Factor to Ground
    ,                         !- Frame and Divider Name
    1.0,                      !- Multiplier
    autocalculate,            !- Number of Vertices
    5.438611,                 !- Vertex 1 Xcoordinate
    -8.8903055,               !- Vertex 1 Ycoordinate
    1.95,                     !- Vertex 1 Zcoordinate
    5.438611,                 !- Vertex 2 Xcoordinate
    -8.8903055,               !- Vertex 2 Ycoordinate
    1.05,                     !- Vertex 2 Zcoordinate
    13.852189000000001,       !- Vertex 3 Xcoordinate
    -1.708495e+00,            !- Vertex 3 Ycoordinate
    1.05,                     !- Vertex 3 Zcoordinate
    13.852189000000001,       !- Vertex 4 Xcoordinate
    -1.708495e+00,            !- Vertex 4 Ycoordinate
    1.95;                     !- Vertex 4 Zcoordinate

FENESTRATIONSURFACE:DETAILED,
    Block Build0_Alt0 Storey 0 Wall 0002 window,    !- Name
    Window,                   !- Surface Type
    Project External Window,    !- Construction Name
    Block Build0_Alt0 Storey 0 Wall 0002,    !- Building Surface Name
    ,                         !- Outside Boundary Condition Object
    autocalculate,            !- View Factor to Ground
    ,                         !- Frame and Divider Name
    1.0,                      !- Multiplier
    autocalculate,            !- Number of Vertices
    13.856500500000001,       !- Vertex 1 Xcoordinate
    -1.703269e+00,            !- Vertex 1 Ycoordinate
    1.95,                     !- Vertex 1 Zcoordinate
    13.856500500000001,       !- Vertex 2 Xcoordinate
    -1.703269e+00,            !- Vertex 2 Ycoordinate
    1.05,                     !- Vertex 2 Zcoordinate
    14.0572995,               !- Vertex 3 Xcoordinate
    1.555469,                 !- Vertex 3 Ycoordinate
    1.05,                     !- Vertex 3 Zcoordinate
    14.0572995,               !- Vertex 4 Xcoordinate
    1.555469,                 !- Vertex 4 Ycoordinate
    1.95;                     !- Vertex 4 Zcoordinate

FENESTRATIONSURFACE:DETAILED,
    Block Build0_Alt0 Storey 0 Wall 0003 window,    !- Name
    Window,                   !- Surface Type
    Project External Window,    !- Construction Name
    Block Build0_Alt0 Storey 0 Wall 0003,    !- Building Surface Name
    ,                         !- Outside Boundary Condition Object
    autocalculate,            !- View Factor to Ground
    ,                         !- Frame and Divider Name
    1.0,                      !- Multiplier
    autocalculate,            !- Number of Vertices
    14.054755,                !- Vertex 1 Xcoordinate
    1.5601820000000002,       !- Vertex 1 Ycoordinate
    1.95,                     !- Vertex 1 Zcoordinate
    14.054755,                !- Vertex 2 Xcoordinate
    1.5601820000000002,       !- Vertex 2 Ycoordinate
    1.05,                     !- Vertex 2 Zcoordinate
    8.770045,                 !- Vertex 3 Xcoordinate
    7.718018,                 !- Vertex 3 Ycoordinate
    1.05,                     !- Vertex 3 Zcoordinate
    8.770045,                 !- Vertex 4 Xcoordinate
    7.718018,                 !- Vertex 4 Ycoordinate
    1.95;                     !- Vertex 4 Zcoordinate

FENESTRATIONSURFACE:DETAILED,
    Block Build0_Alt0 Storey 0 Wall 0004 window,    !- Name
    Window,                   !- Surface Type
    Project External Window,    !- Construction Name
    Block Build0_Alt0 Storey 0 Wall 0004,    !- Building Surface Name
    ,                         !- Outside Boundary Condition Object
    autocalculate,            !- View Factor to Ground
    ,                         !- Frame and Divider Name
    1.0,                      !- Multiplier
    autocalculate,            !- Number of Vertices
    8.765909,                 !- Vertex 1 Xcoordinate
    7.71978,                  !- Vertex 1 Ycoordinate
    1.95,                     !- Vertex 1 Zcoordinate
    8.765909,                 !- Vertex 2 Xcoordinate
    7.71978,                  !- Vertex 2 Ycoordinate
    1.05,                     !- Vertex 2 Zcoordinate
    5.786891,                 !- Vertex 3 Xcoordinate
    5.08242,                  !- Vertex 3 Ycoordinate
    1.05,                     !- Vertex 3 Zcoordinate
    5.786891,                 !- Vertex 4 Xcoordinate
    5.08242,                  !- Vertex 4 Ycoordinate
    1.95;                     !- Vertex 4 Zcoordinate

FENESTRATIONSURFACE:DETAILED,
    Block Build0_Alt0 Storey 0 Wall 0005 window,    !- Name
    Window,                   !- Surface Type
    Project External Window,    !- Construction Name
    Block Build0_Alt0 Storey 0 Wall 0005,    !- Building Surface Name
    ,                         !- Outside Boundary Condition Object
    autocalculate,            !- View Factor to Ground
    ,                         !- Frame and Divider Name
    1.0,                      !- Multiplier
    autocalculate,            !- Number of Vertices
    5.78199,                  !- Vertex 1 Xcoordinate
    5.0850475,                !- Vertex 1 Ycoordinate
    1.95,                     !- Vertex 1 Zcoordinate
    5.78199,                  !- Vertex 2 Xcoordinate
    5.0850475,                !- Vertex 2 Ycoordinate
    1.05,                     !- Vertex 2 Zcoordinate
    -1.031190e+00,            !- Vertex 3 Xcoordinate
    12.9721525,               !- Vertex 3 Ycoordinate
    1.05,                     !- Vertex 3 Zcoordinate
    -1.031190e+00,            !- Vertex 4 Xcoordinate
    12.9721525,               !- Vertex 4 Ycoordinate
    1.95;                     !- Vertex 4 Zcoordinate

FENESTRATIONSURFACE:DETAILED,
    Block Build0_Alt0 Storey 0 Wall 0006 window,    !- Name
    Window,                   !- Surface Type
    Project External Window,    !- Construction Name
    Block Build0_Alt0 Storey 0 Wall 0006,    !- Building Surface Name
    ,                         !- Outside Boundary Condition Object
    autocalculate,            !- View Factor to Ground
    ,                         !- Frame and Divider Name
    1.0,                      !- Multiplier
    autocalculate,            !- Number of Vertices
    -1.036457,                !- Vertex 1 Xcoordinate
    12.976215,                !- Vertex 1 Ycoordinate
    1.95,                     !- Vertex 1 Zcoordinate
    -1.036457,                !- Vertex 2 Xcoordinate
    12.976215,                !- Vertex 2 Ycoordinate
    1.05,                     !- Vertex 2 Zcoordinate
    -4.746743e+00,            !- Vertex 3 Xcoordinate
    13.205985,                !- Vertex 3 Ycoordinate
    1.05,                     !- Vertex 3 Zcoordinate
    -4.746743e+00,            !- Vertex 4 Xcoordinate
    13.205985,                !- Vertex 4 Ycoordinate
    1.95;                     !- Vertex 4 Zcoordinate

FENESTRATIONSURFACE:DETAILED,
    Block Build0_Alt0 Storey 0 Wall 0007 window,    !- Name
    Window,                   !- Surface Type
    Project External Window,    !- Construction Name
    Block Build0_Alt0 Storey 0 Wall 0007,    !- Building Surface Name
    ,                         !- Outside Boundary Condition Object
    autocalculate,            !- View Factor to Ground
    ,                         !- Frame and Divider Name
    1.0,                      !- Multiplier
    autocalculate,            !- Number of Vertices
    -4.751129499999999,       !- Vertex 1 Xcoordinate
    13.2039565,               !- Vertex 1 Ycoordinate
    1.95,                     !- Vertex 1 Zcoordinate
    -4.751129499999999,       !- Vertex 2 Xcoordinate
    13.2039565,               !- Vertex 2 Ycoordinate
    1.05,                     !- Vertex 2 Zcoordinate
    -9.805070500000001,       !- Vertex 3 Xcoordinate
    8.9212435,                !- Vertex 3 Ycoordinate
    1.05,                     !- Vertex 3 Zcoordinate
    -9.805070500000001,       !- Vertex 4 Xcoordinate
    8.9212435,                !- Vertex 4 Ycoordinate
    1.95;                     !- Vertex 4 Zcoordinate

FENESTRATIONSURFACE:DETAILED,
    Block Build0_Alt0 Storey 0 Wall 0008 window,    !- Name
    Window,                   !- Surface Type
    Project External Window,    !- Construction Name
    Block Build0_Alt0 Storey 0 Wall 0008,    !- Building Surface Name
    ,                         !- Outside Boundary Condition Object
    autocalculate,            !- View Factor to Ground
    ,                         !- Frame and Divider Name
    1.0,                      !- Multiplier
    autocalculate,            !- Number of Vertices
    -9.799979,                !- Vertex 1 Xcoordinate
    8.910193500000002,        !- Vertex 1 Ycoordinate
    1.95,                     !- Vertex 1 Zcoordinate
    -9.799979,                !- Vertex 2 Xcoordinate
    8.910193500000002,        !- Vertex 2 Ycoordinate
    1.05,                     !- Vertex 2 Zcoordinate
    5.426779,                 !- Vertex 3 Xcoordinate
    -8.8849935,               !- Vertex 3 Ycoordinate
    1.05,                     !- Vertex 3 Zcoordinate
    5.426779,                 !- Vertex 4 Xcoordinate
    -8.8849935,               !- Vertex 4 Ycoordinate
    1.95;                     !- Vertex 4 Zcoordinate

INTERNALMASS,
    Block Build0_Alt0 Storey -1IntMass,    !- Name
    NonHeatedZoneIntMassObj,    !- Construction Name
    Block Build0_Alt0 Storey -1,    !- Zone or ZoneList Name
    508;                      !- Surface Area

INTERNALMASS,
    Block Build0_Alt0 Storey 0IntMass,    !- Name
    HeatedZoneIntMassObj,     !- Construction Name
    Block Build0_Alt0 Storey 0,    !- Zone or ZoneList Name
    508;                      !- Surface Area

SHADING:SITE:DETAILED,
    Shading_V448_1,           !- Name
    ,                         !- Transmittance Schedule Name
    autocalculate,            !- Number of Vertices
    5.6254,                   !- Vertex 1 Xcoordinate
    -13.1939,                 !- Vertex 1 Ycoordinate
    6.7,                      !- Vertex 1 Zcoordinate
    5.6254,                   !- Vertex 2 Xcoordinate
    -13.1939,                 !- Vertex 2 Ycoordinate
    0,                        !- Vertex 2 Zcoordinate
    5.4344,                   !- Vertex 3 Xcoordinate
    -8.8939,                  !- Vertex 3 Ycoordinate
    0,                        !- Vertex 3 Zcoordinate
    5.4344,                   !- Vertex 4 Xcoordinate
    -8.8939,                  !- Vertex 4 Ycoordinate
    6.7;                      !- Vertex 4 Zcoordinate

SHADING:SITE:DETAILED,
    Shading_V112_1,           !- Name
    ,                         !- Transmittance Schedule Name
    autocalculate,            !- Number of Vertices
    -22.3106,                 !- Vertex 1 Xcoordinate
    17.4041,                  !- Vertex 1 Ycoordinate
    15.5,                     !- Vertex 1 Zcoordinate
    -22.3106,                 !- Vertex 2 Xcoordinate
    17.4041,                  !- Vertex 2 Ycoordinate
    0,                        !- Vertex 2 Zcoordinate
    -22.1376,                 !- Vertex 3 Xcoordinate
    22.3171,                  !- Vertex 3 Ycoordinate
    0,                        !- Vertex 3 Zcoordinate
    -22.1376,                 !- Vertex 4 Xcoordinate
    22.3171,                  !- Vertex 4 Ycoordinate
    15.5;                     !- Vertex 4 Zcoordinate

SHADING:SITE:DETAILED,
    Shading_V117_1,           !- Name
    ,                         !- Transmittance Schedule Name
    autocalculate,            !- Number of Vertices
    -44.6086,                 !- Vertex 1 Xcoordinate
    28.7921,                  !- Vertex 1 Ycoordinate
    15.5,                     !- Vertex 1 Zcoordinate
    -44.6086,                 !- Vertex 2 Xcoordinate
    28.7921,                  !- Vertex 2 Ycoordinate
    0,                        !- Vertex 2 Zcoordinate
    -27.6606,                 !- Vertex 3 Xcoordinate
    43.3851,                  !- Vertex 3 Ycoordinate
    0,                        !- Vertex 3 Zcoordinate
    -27.6606,                 !- Vertex 4 Xcoordinate
    43.3851,                  !- Vertex 4 Ycoordinate
    15.5;                     !- Vertex 4 Zcoordinate

SHADING:SITE:DETAILED,
    Shading_V118_1,           !- Name
    ,                         !- Transmittance Schedule Name
    autocalculate,            !- Number of Vertices
    -27.6606,                 !- Vertex 1 Xcoordinate
    43.3851,                  !- Vertex 1 Ycoordinate
    15.5,                     !- Vertex 1 Zcoordinate
    -27.6606,                 !- Vertex 2 Xcoordinate
    43.3851,                  !- Vertex 2 Ycoordinate
    0,                        !- Vertex 2 Zcoordinate
    -21.1616,                 !- Vertex 3 Xcoordinate
    35.9251,                  !- Vertex 3 Ycoordinate
    0,                        !- Vertex 3 Zcoordinate
    -21.1616,                 !- Vertex 4 Xcoordinate
    35.9251,                  !- Vertex 4 Ycoordinate
    15.5;                     !- Vertex 4 Zcoordinate

SHADING:SITE:DETAILED,
    Shading_V119_1,           !- Name
    ,                         !- Transmittance Schedule Name
    autocalculate,            !- Number of Vertices
    -21.1616,                 !- Vertex 1 Xcoordinate
    35.9251,                  !- Vertex 1 Ycoordinate
    15.5,                     !- Vertex 1 Zcoordinate
    -21.1616,                 !- Vertex 2 Xcoordinate
    35.9251,                  !- Vertex 2 Ycoordinate
    0,                        !- Vertex 2 Zcoordinate
    -14.6586,                 !- Vertex 3 Xcoordinate
    41.4791,                  !- Vertex 3 Ycoordinate
    0,                        !- Vertex 3 Zcoordinate
    -14.6586,                 !- Vertex 4 Xcoordinate
    41.4791,                  !- Vertex 4 Ycoordinate
    15.5;                     !- Vertex 4 Zcoordinate

SHADING:SITE:DETAILED,
    Shading_V295_1,           !- Name
    ,                         !- Transmittance Schedule Name
    autocalculate,            !- Number of Vertices
    31.5334,                  !- Vertex 1 Xcoordinate
    52.3971,                  !- Vertex 1 Ycoordinate
    14.8,                     !- Vertex 1 Zcoordinate
    31.5334,                  !- Vertex 2 Xcoordinate
    52.3971,                  !- Vertex 2 Ycoordinate
    0,                        !- Vertex 2 Zcoordinate
    41.7974,                  !- Vertex 3 Xcoordinate
    51.6461,                  !- Vertex 3 Ycoordinate
    0,                        !- Vertex 3 Zcoordinate
    41.7974,                  !- Vertex 4 Xcoordinate
    51.6461,                  !- Vertex 4 Ycoordinate
    14.8;                     !- Vertex 4 Zcoordinate

SHADING:SITE:DETAILED,
    Shading_V313_1,           !- Name
    ,                         !- Transmittance Schedule Name
    autocalculate,            !- Number of Vertices
    3.2204,                   !- Vertex 1 Xcoordinate
    34.5501,                  !- Vertex 1 Ycoordinate
    15.8,                     !- Vertex 1 Zcoordinate
    3.2204,                   !- Vertex 2 Xcoordinate
    34.5501,                  !- Vertex 2 Ycoordinate
    0,                        !- Vertex 2 Zcoordinate
    6.2484,                   !- Vertex 3 Xcoordinate
    37.1651,                  !- Vertex 3 Ycoordinate
    0,                        !- Vertex 3 Zcoordinate
    6.2484,                   !- Vertex 4 Xcoordinate
    37.1651,                  !- Vertex 4 Ycoordinate
    15.8;                     !- Vertex 4 Zcoordinate

SHADING:SITE:DETAILED,
    Shading_V314_1,           !- Name
    ,                         !- Transmittance Schedule Name
    autocalculate,            !- Number of Vertices
    6.2484,                   !- Vertex 1 Xcoordinate
    37.1651,                  !- Vertex 1 Ycoordinate
    15.8,                     !- Vertex 1 Zcoordinate
    6.2484,                   !- Vertex 2 Xcoordinate
    37.1651,                  !- Vertex 2 Ycoordinate
    0,                        !- Vertex 2 Zcoordinate
    12.0094,                  !- Vertex 3 Xcoordinate
    30.4181,                  !- Vertex 3 Ycoordinate
    0,                        !- Vertex 3 Zcoordinate
    12.0094,                  !- Vertex 4 Xcoordinate
    30.4181,                  !- Vertex 4 Ycoordinate
    15.8;                     !- Vertex 4 Zcoordinate

SHADING:SITE:DETAILED,
    Shading_V315_1,           !- Name
    ,                         !- Transmittance Schedule Name
    autocalculate,            !- Number of Vertices
    12.0094,                  !- Vertex 1 Xcoordinate
    30.4181,                  !- Vertex 1 Ycoordinate
    15.8,                     !- Vertex 1 Zcoordinate
    12.0094,                  !- Vertex 2 Xcoordinate
    30.4181,                  !- Vertex 2 Ycoordinate
    0,                        !- Vertex 2 Zcoordinate
    19.6674,                  !- Vertex 3 Xcoordinate
    36.9761,                  !- Vertex 3 Ycoordinate
    0,                        !- Vertex 3 Zcoordinate
    19.6674,                  !- Vertex 4 Xcoordinate
    36.9761,                  !- Vertex 4 Ycoordinate
    15.8;                     !- Vertex 4 Zcoordinate

SHADING:SITE:DETAILED,
    Shading_V326_1,           !- Name
    ,                         !- Transmittance Schedule Name
    autocalculate,            !- Number of Vertices
    -19.9526,                 !- Vertex 1 Xcoordinate
    67.6251,                  !- Vertex 1 Ycoordinate
    15.8,                     !- Vertex 1 Zcoordinate
    -19.9526,                 !- Vertex 2 Xcoordinate
    67.6251,                  !- Vertex 2 Ycoordinate
    0,                        !- Vertex 2 Zcoordinate
    1.8754,                   !- Vertex 3 Xcoordinate
    42.2451,                  !- Vertex 3 Ycoordinate
    0,                        !- Vertex 3 Zcoordinate
    1.8754,                   !- Vertex 4 Xcoordinate
    42.2451,                  !- Vertex 4 Ycoordinate
    15.8;                     !- Vertex 4 Zcoordinate

SHADING:SITE:DETAILED,
    Shading_V328_1,           !- Name
    ,                         !- Transmittance Schedule Name
    autocalculate,            !- Number of Vertices
    -1.1346,                  !- Vertex 1 Xcoordinate
    39.6541,                  !- Vertex 1 Ycoordinate
    15.8,                     !- Vertex 1 Zcoordinate
    -1.1346,                  !- Vertex 2 Xcoordinate
    39.6541,                  !- Vertex 2 Ycoordinate
    0,                        !- Vertex 2 Zcoordinate
    3.2204,                   !- Vertex 3 Xcoordinate
    34.5501,                  !- Vertex 3 Ycoordinate
    0,                        !- Vertex 3 Zcoordinate
    3.2204,                   !- Vertex 4 Xcoordinate
    34.5501,                  !- Vertex 4 Ycoordinate
    15.8;                     !- Vertex 4 Zcoordinate

SHADING:SITE:DETAILED,
    Shading_V378_1,           !- Name
    ,                         !- Transmittance Schedule Name
    autocalculate,            !- Number of Vertices
    -27.7976,                 !- Vertex 1 Xcoordinate
    78.2631,                  !- Vertex 1 Ycoordinate
    14.2,                     !- Vertex 1 Zcoordinate
    -27.7976,                 !- Vertex 2 Xcoordinate
    78.2631,                  !- Vertex 2 Ycoordinate
    0,                        !- Vertex 2 Zcoordinate
    -21.1506,                 !- Vertex 3 Xcoordinate
    84.4741,                  !- Vertex 3 Ycoordinate
    0,                        !- Vertex 3 Zcoordinate
    -21.1506,                 !- Vertex 4 Xcoordinate
    84.4741,                  !- Vertex 4 Ycoordinate
    14.2;                     !- Vertex 4 Zcoordinate

SHADING:SITE:DETAILED,
    Shading_V293_1,           !- Name
    ,                         !- Transmittance Schedule Name
    autocalculate,            !- Number of Vertices
    27.4485,                  !- Vertex 1 Xcoordinate
    69.5645,                  !- Vertex 1 Ycoordinate
    14.8,                     !- Vertex 1 Zcoordinate
    27.4485,                  !- Vertex 2 Xcoordinate
    69.5645,                  !- Vertex 2 Ycoordinate
    0,                        !- Vertex 2 Zcoordinate
    32.3514,                  !- Vertex 3 Xcoordinate
    63.8621,                  !- Vertex 3 Ycoordinate
    0,                        !- Vertex 3 Zcoordinate
    32.3514,                  !- Vertex 4 Xcoordinate
    63.8621,                  !- Vertex 4 Ycoordinate
    14.8;                     !- Vertex 4 Zcoordinate

SHADING:SITE:DETAILED,
    Shading_V294_1,           !- Name
    ,                         !- Transmittance Schedule Name
    autocalculate,            !- Number of Vertices
    32.3514,                  !- Vertex 1 Xcoordinate
    63.8621,                  !- Vertex 1 Ycoordinate
    14.8,                     !- Vertex 1 Zcoordinate
    32.3514,                  !- Vertex 2 Xcoordinate
    63.8621,                  !- Vertex 2 Ycoordinate
    0,                        !- Vertex 2 Zcoordinate
    31.5334,                  !- Vertex 3 Xcoordinate
    52.3971,                  !- Vertex 3 Ycoordinate
    0,                        !- Vertex 3 Zcoordinate
    31.5334,                  !- Vertex 4 Xcoordinate
    52.3971,                  !- Vertex 4 Ycoordinate
    14.8;                     !- Vertex 4 Zcoordinate

SHADING:SITE:DETAILED,
    Shading_V121_1,           !- Name
    ,                         !- Transmittance Schedule Name
    autocalculate,            !- Number of Vertices
    -21.1176,                 !- Vertex 1 Xcoordinate
    49.1411,                  !- Vertex 1 Ycoordinate
    15.5,                     !- Vertex 1 Zcoordinate
    -21.1176,                 !- Vertex 2 Xcoordinate
    49.1411,                  !- Vertex 2 Ycoordinate
    0,                        !- Vertex 2 Zcoordinate
    -18.0876,                 !- Vertex 3 Xcoordinate
    51.8331,                  !- Vertex 3 Ycoordinate
    0,                        !- Vertex 3 Zcoordinate
    -18.0876,                 !- Vertex 4 Xcoordinate
    51.8331,                  !- Vertex 4 Ycoordinate
    15.5;                     !- Vertex 4 Zcoordinate

SHADING:SITE:DETAILED,
    Shading_V377_1,           !- Name
    ,                         !- Transmittance Schedule Name
    autocalculate,            !- Number of Vertices
    -47.9566,                 !- Vertex 1 Xcoordinate
    101.8281,                 !- Vertex 1 Ycoordinate
    14.2,                     !- Vertex 1 Zcoordinate
    -47.9566,                 !- Vertex 2 Xcoordinate
    101.8281,                 !- Vertex 2 Ycoordinate
    0,                        !- Vertex 2 Zcoordinate
    -27.7976,                 !- Vertex 3 Xcoordinate
    78.2631,                  !- Vertex 3 Ycoordinate
    0,                        !- Vertex 3 Zcoordinate
    -27.7976,                 !- Vertex 4 Xcoordinate
    78.2631,                  !- Vertex 4 Ycoordinate
    14.2;                     !- Vertex 4 Zcoordinate

SHADING:SITE:DETAILED,
    Shading_V109_1,           !- Name
    ,                         !- Transmittance Schedule Name
    autocalculate,            !- Number of Vertices
    -9.8076,                  !- Vertex 1 Xcoordinate
    8.9191,                   !- Vertex 1 Ycoordinate
    15.5,                     !- Vertex 1 Zcoordinate
    -9.8076,                  !- Vertex 2 Xcoordinate
    8.9191,                   !- Vertex 2 Ycoordinate
    0,                        !- Vertex 2 Zcoordinate
    -14.2516,                 !- Vertex 3 Xcoordinate
    14.1211,                  !- Vertex 3 Ycoordinate
    0,                        !- Vertex 3 Zcoordinate
    -14.2516,                 !- Vertex 4 Xcoordinate
    14.1211,                  !- Vertex 4 Ycoordinate
    15.5;                     !- Vertex 4 Zcoordinate

ELECTRICEQUIPMENT,
    Block Build0_Alt0 Storey 0Load,    !- Name
    Block Build0_Alt0 Storey 0,    !- Zone or ZoneList Name
    LoadSchedule,             !- Schedule Name
    Watts/Area,               !- Design Level Calculation Method
    ,                         !- Design Level
    0.01,                     !- Watts per Zone Floor Area
    ,                         !- Watts per Person
    0,                        !- Fraction Latent
    0,                        !- Fraction Radiant
    0,                        !- Fraction Lost
    General;                  !- EndUse Subcategory

ZONEINFILTRATION:DESIGNFLOWRATE,
    Block Build0_Alt0 Storey -1Leak,    !- Name
    Block Build0_Alt0 Storey -1,    !- Zone or ZoneList Name
    AlwaysON,                 !- Schedule Name
    AirChanges/Hour,          !- Design Flow Rate Calculation Method
    ,                         !- Design Flow Rate
    ,                         !- Flow per Zone Floor Area
    ,                         !- Flow per Exterior Surface Area
    1,                        !- Air Changes per Hour
    1,                        !- Constant Term Coefficient
    0,                        !- Temperature Term Coefficient
    0,                        !- Velocity Term Coefficient
    0;                        !- Velocity Squared Term Coefficient

ZONEINFILTRATION:FLOWCOEFFICIENT,
    Block Build0_Alt0 Storey 0Leak,    !- Name
    Block Build0_Alt0 Storey 0,    !- Zone Name
    AlwaysON,                 !- Schedule Name
    3.431041e-02,             !- Flow Coefficient
    0.054,                    !- Stack Coefficient
    0.667,                    !- Pressure Exponent
    0.156,                    !- Wind Coefficient
    0.5;                      !- Shelter Factor

ZONEVENTILATION:DESIGNFLOWRATE,
    Block Build0_Alt0 Storey 0FreeCool,    !- Name
    Block Build0_Alt0 Storey 0,    !- Zone or ZoneList Name
    AlwaysON,                 !- Schedule Name
    AirChanges/Hour,          !- Design Flow Rate Calculation Method
    ,                         !- Design Flow Rate
    ,                         !- Flow Rate per Zone Floor Area
    ,                         !- Flow Rate per Person
    4,                        !- Air Changes per Hour
    Natural,                  !- Ventilation Type
    0,                        !- Fan Pressure Rise
    1,                        !- Fan Total Efficiency
    1,                        !- Constant Term Coefficient
    0,                        !- Temperature Term Coefficient
    0,                        !- Velocity Term Coefficient
    0,                        !- Velocity Squared Term Coefficient
    26,                       !- Minimum Indoor Temperature
    ,                         !- Minimum Indoor Temperature Schedule Name
    100,                      !- Maximum Indoor Temperature
    ,                         !- Maximum Indoor Temperature Schedule Name
    1,                        !- Delta Temperature
    ,                         !- Delta Temperature Schedule Name
    -100,                     !- Minimum Outdoor Temperature
    ,                         !- Minimum Outdoor Temperature Schedule Name
    100,                      !- Maximum Outdoor Temperature
    ,                         !- Maximum Outdoor Temperature Schedule Name
    40;                       !- Maximum Wind Speed

HVACTEMPLATE:THERMOSTAT,
    ResidZone,                !- Name
    ,                         !- Heating Setpoint Schedule Name
    21,                       !- Constant Heating Setpoint
    ,                         !- Cooling Setpoint Schedule Name
    50;                       !- Constant Cooling Setpoint

HVACTEMPLATE:ZONE:IDEALLOADSAIRSYSTEM,
    Block Build0_Alt0 Storey 0,    !- Zone Name
    ResidZone,                !- Template Thermostat Name
    ,                         !- System Availability Schedule Name
    50,                       !- Maximum Heating Supply Air Temperature
    13,                       !- Minimum Cooling Supply Air Temperature
    0.0156,                   !- Maximum Heating Supply Air Humidity Ratio
    0.0077,                   !- Minimum Cooling Supply Air Humidity Ratio
    NoLimit,                  !- Heating Limit
    ,                         !- Maximum Heating Air Flow Rate
    6356.109037190522,        !- Maximum Sensible Heating Capacity
    NoLimit,                  !- Cooling Limit
    ,                         !- Maximum Cooling Air Flow Rate
    ,                         !- Maximum Total Cooling Capacity
    ,                         !- Heating Availability Schedule Name
    ,                         !- Cooling Availability Schedule Name
    ConstantSensibleHeatRatio,    !- Dehumidification Control Type
    0.7,                      !- Cooling Sensible Heat Ratio
    60,                       !- Dehumidification Setpoint
    None,                     !- Humidification Control Type
    30,                       !- Humidification Setpoint
    Flow/Area,                !- Outdoor Air Method
    0.007,                    !- Outdoor Air Flow Rate per Person
    0.00035,                  !- Outdoor Air Flow Rate per Zone Floor Area
    0,                        !- Outdoor Air Flow Rate per Zone
    ,                         !- Design Specification Outdoor Air Object Name
    None,                     !- Demand Controlled Ventilation Type
    NoEconomizer,             !- Outdoor Air Economizer Type
    None,                     !- Heat Recovery Type
    0,                        !- Sensible Heat Recovery Effectiveness
    0;                        !- Latent Heat Recovery Effectiveness

OUTDOORAIR:NODE,
    Block Build0_Alt0 Storey 0 IDEAL LOADS OUTDOOR AIR INLET,    !- Name
    -1,                       !- Height Above Ground
    ,                         !- Drybulb Temperature Schedule Name
    ,                         !- Wetbulb Temperature Schedule Name
    ,                         !- Wind Speed Schedule Name
    ,                         !- Wind Direction Schedule Name
    ,                         !- Wind Pressure Coefficient Curve Name
    No,                       !- Symmetric Wind Pressure Coefficient Curve
    Absolute;                 !- Wind Angle Type

ENERGYMANAGEMENTSYSTEM:SENSOR,
    T0,                       !- Name
    Block Build0_Alt0 Storey 0,    !- OutputVariable or OutputMeter Index Key Name
    Zone Mean Air Temperature;    !- OutputVariable or OutputMeter Name

ENERGYMANAGEMENTSYSTEM:SENSOR,
    Pow0,                     !- Name
    Block Build0_Alt0 Storey 0 IDEAL LOADS AIR SYSTEM,    !- OutputVariable or OutputMeter Index Key Name
    Zone Ideal Loads Supply Air Total Heating Rate;    !- OutputVariable or OutputMeter Name

ENERGYMANAGEMENTSYSTEM:SENSOR,
    DHWPow,                   !- Name
    DHW,                      !- OutputVariable or OutputMeter Index Key Name
    Water Use Equipment Heating Rate;    !- OutputVariable or OutputMeter Name

ENERGYMANAGEMENTSYSTEM:PROGRAMCALLINGMANAGER,
    Average Building Temperature,    !- Name
    EndOfZoneTimestepBeforeZoneReporting,    !- EnergyPlus Model Calling Point
    AverageZoneTemps;         !- Program Name 1

ENERGYMANAGEMENTSYSTEM:PROGRAMCALLINGMANAGER,
    Compute Total Building Heat Pow,    !- Name
    EndOfZoneTimestepBeforeZoneReporting,    !- EnergyPlus Model Calling Point
    TotZonePow;               !- Program Name 1

ENERGYMANAGEMENTSYSTEM:PROGRAMCALLINGMANAGER,
    Compute Total DHW Heat Pow,    !- Name
    EndOfZoneTimestepBeforeZoneReporting,    !- EnergyPlus Model Calling Point
    prgmDHWPow;               !- Program Name 1

ENERGYMANAGEMENTSYSTEM:PROGRAM,
    AverageZoneTemps,         !- Name
    SET SumNumerator = T0*Vol0,    !- Program Line 1
    SET SumDenominator  = Vol0,    !- Program Line 2
    SET AverageBuildingTemp  = SumNumerator / SumDenominator;    !- Program Line 3

ENERGYMANAGEMENTSYSTEM:PROGRAM,
    TotZonePow,               !- Name
    SET TotBuildPow = Pow0;    !- Program Line 1

ENERGYMANAGEMENTSYSTEM:PROGRAM,
    prgmDHWPow,               !- Name
    SET TotDHWPow = DHWPow;    !- Program Line 1

ENERGYMANAGEMENTSYSTEM:GLOBALVARIABLE,
    AverageBuildingTemp;      !- Erl Variable 1 Name

ENERGYMANAGEMENTSYSTEM:GLOBALVARIABLE,
    TotBuildPow;              !- Erl Variable 1 Name

ENERGYMANAGEMENTSYSTEM:GLOBALVARIABLE,
    TotDHWPow;                !- Erl Variable 1 Name

ENERGYMANAGEMENTSYSTEM:OUTPUTVARIABLE,
    Mean Heated Zones Air Temperature,    !- Name
    AverageBuildingTemp,      !- EMS Variable Name
    Averaged,                 !- Type of Data in Variable
    ZoneTimeStep;             !- Update Frequency

ENERGYMANAGEMENTSYSTEM:OUTPUTVARIABLE,
    Total Building Heating Power,    !- Name
    TotBuildPow,              !- EMS Variable Name
    Averaged,                 !- Type of Data in Variable
    ZoneTimeStep;             !- Update Frequency

ENERGYMANAGEMENTSYSTEM:OUTPUTVARIABLE,
    Total DHW Heating Power,    !- Name
    TotDHWPow,                !- EMS Variable Name
    Averaged,                 !- Type of Data in Variable
    ZoneTimeStep;             !- Update Frequency

ENERGYMANAGEMENTSYSTEM:INTERNALVARIABLE,
    Vol0,                     !- Name
    Block Build0_Alt0 Storey 0,    !- Internal Data Index Key Name
    Zone Air Volume;          !- Internal Data Type

WATERUSE:EQUIPMENT,
    DHW,                      !- Name
    General,                  !- EndUse Subcategory
    0,                        !- Peak Flow Rate
    WaterTaps,                !- Flow Rate Fraction Schedule Name
    TargetWaterTemp,          !- Target Temperature Schedule Name
    HotWaterTemp,             !- Hot Water Supply Temperature Schedule Name
    ColdWaterTemp;            !- Cold Water Supply Temperature Schedule Name

Output:VariableDictionary,
    Regular;                  !- Key Field

OUTPUT:ENERGYMANAGEMENTSYSTEM,
    Verbose,                  !- Actuator Availability Dictionary Reporting
    Verbose,                  !- Internal Variable Availability Dictionary Reporting
    Verbose;                  !- EMS Runtime Language Debug Output Level

Output:Table:SummaryReports,
    AllSummary;               !- Report 1 Name

OutputControl:Table:Style,
    HTML;                     !- Column Separator

OUTPUT:VARIABLE,
    *,                        !- Key Value
    Site Outdoor Air Drybulb Temperature,    !- Variable Name
    Hourly;                   !- Reporting Frequency

OUTPUT:VARIABLE,
    *,                        !- Key Value
    Site Outdoor Air Relative Humidity,    !- Variable Name
    Hourly;                   !- Reporting Frequency

OUTPUT:VARIABLE,
    *,                        !- Key Value
    Site Outdoor Air Barometric Pressure,    !- Variable Name
    Hourly;                   !- Reporting Frequency

OUTPUT:VARIABLE,
    *,                        !- Key Value
    Site Wind Speed,          !- Variable Name
    Hourly;                   !- Reporting Frequency

OUTPUT:VARIABLE,
    *,                        !- Key Value
    Site Diffuse Solar Radiation Rate per Area,    !- Variable Name
    Hourly;                   !- Reporting Frequency

OUTPUT:VARIABLE,
    *,                        !- Key Value
    Site Direct Solar Radiation Rate per Area,    !- Variable Name
    Hourly;                   !- Reporting Frequency

OUTPUT:VARIABLE,
    *,                        !- Key Value
    Zone Electric Equipment Electric Power,    !- Variable Name
    Hourly;                   !- Reporting Frequency

OUTPUT:VARIABLE,
    *,                        !- Key Value
    Zone Electric Equipment Total Heating Rate,    !- Variable Name
    Hourly;                   !- Reporting Frequency

OUTPUT:VARIABLE,
    *,                        !- Key Value
    Surface Outside Face Incident Solar Radiation Rate per Area,    !- Variable Name
    Hourly;                   !- Reporting Frequency

OUTPUT:VARIABLE,
    *,                        !- Key Value
    Surface Outside Face Incident Beam Solar Radiation Rate per Area,    !- Variable Name
    Hourly;                   !- Reporting Frequency

OUTPUT:VARIABLE,
    *,                        !- Key Value
    Zone Ideal Loads Supply Air Total Heating Rate,    !- Variable Name
    Hourly;                   !- Reporting Frequency

OUTPUT:VARIABLE,
    *,                        !- Key Value
    Water Use Equipment Hot Water Mass Flow Rate,    !- Variable Name
    Hourly;                   !- Reporting Frequency

OUTPUT:VARIABLE,
    *,                        !- Key Value
    Water Use Equipment Cold Water Mass Flow Rate,    !- Variable Name
    Hourly;                   !- Reporting Frequency

OUTPUT:VARIABLE,
    *,                        !- Key Value
    Water Use Equipment Hot Water Temperature,    !- Variable Name
    Hourly;                   !- Reporting Frequency

OUTPUT:VARIABLE,
    *,                        !- Key Value
    Water Use Equipment Cold Water Temperature,    !- Variable Name
    Hourly;                   !- Reporting Frequency

OUTPUT:VARIABLE,
    *,                        !- Key Value
    Water Use Equipment Heating Rate,    !- Variable Name
    Hourly;                   !- Reporting Frequency

OUTPUT:VARIABLE,
    *,                        !- Key Value
    Mean Heated Zones Air Temperature,    !- Variable Name
    Hourly;                   !- Reporting Frequency

OUTPUT:VARIABLE,
    *,                        !- Key Value
    Total Building Heating Power,    !- Variable Name
    Hourly;                   !- Reporting Frequency

OUTPUT:VARIABLE,
    *,                        !- Key Value
    Total DHW Heating Power,    !- Variable Name
    Hourly;                   !- Reporting Frequency

OUTPUT:DIAGNOSTICS,
    DISPLAYEXTRAWARNINGS,     !- Key 1
    DisplayAdvancedReportVariables;    !- Key 2