!- Darwin Line endings 

Version,
    9.5;                      !- Version Identifier

SimulationControl,
    No,                       !- Do Zone Sizing Calculation
    No,                       !- Do System Sizing Calculation
    No,                       !- Do Plant Sizing Calculation
    No,                       !- Run Simulation for Sizing Periods
    Yes,                      !- Run Simulation for Weather File Run Periods
    No,                       !- Do HVAC Sizing Simulation for Sizing Periods
    1;                        !- Maximum Number of HVAC Sizing Simulation Passes

Building,
    None,                     !- Name
    0,                        !- North Axis
    Suburbs,                  !- Terrain
    0.04,                     !- Loads Convergence Tolerance Value
    0.4,                      !- Temperature Convergence Tolerance Value
    FullExterior,             !- Solar Distribution
    25,                       !- Maximum Number of Warmup Days
    6;                        !- Minimum Number of Warmup Days

SHADOWCALCULATION,
    PolygonClipping,          !- Shading Calculation Method
    Periodic,                 !- Shading Calculation Update Frequency Method
    20,                       !- Shading Calculation Update Frequency
    25000,                    !- Maximum Figures in Shadow Overlap Calculations
    SutherlandHodgman,        !- Polygon Clipping Algorithm
    512,                      !- Pixel Counting Resolution
    SimpleSkyDiffuseModeling,    !- Sky Diffuse Modeling Algorithm
    No,                       !- Output External Shading Calculation Results
    No,                       !- Disable SelfShading Within Shading Zone Groups
    No;                       !- Disable SelfShading From Shading Zone Groups to Other Zones

Timestep,
    4;                        !- Number of Timesteps per Hour

Site:Location,
    WeatherData/USA_CA_San.Francisco.Intl.AP.724940_TMY3.epw,    !- Name
    37.62,                    !- Latitude
    -122.4,                   !- Longitude
    -8,                       !- Time Zone
    2;                        !- Elevation

SizingPeriod:DesignDay,
    DENVER_STAPLETON Ann Htg 99.6% Condns DB,    !- Name
    12,                       !- Month
    21,                       !- Day of Month
    WinterDesignDay,          !- Day Type
    -20,                      !- Maximum DryBulb Temperature
    0,                        !- Daily DryBulb Temperature Range
    ,                         !- DryBulb Temperature Range Modifier Type
    ,                         !- DryBulb Temperature Range Modifier Day Schedule Name
    Wetbulb,                  !- Humidity Condition Type
    -20,                      !- Wetbulb or DewPoint at Maximum DryBulb
    ,                         !- Humidity Condition Day Schedule Name
    ,                         !- Humidity Ratio at Maximum DryBulb
    ,                         !- Enthalpy at Maximum DryBulb
    ,                         !- Daily WetBulb Temperature Range
    100594,                   !- Barometric Pressure
    2.3,                      !- Wind Speed
    180,                      !- Wind Direction
    No,                       !- Rain Indicator
    No,                       !- Snow Indicator
    No,                       !- Daylight Saving Time Indicator
    ASHRAEClearSky,           !- Solar Model Indicator
    ,                         !- Beam Solar Day Schedule Name
    ,                         !- Diffuse Solar Day Schedule Name
    ,                         !- ASHRAE Clear Sky Optical Depth for Beam Irradiance taub
    ,                         !- ASHRAE Clear Sky Optical Depth for Diffuse Irradiance taud
    0;                        !- Sky Clearness

SizingPeriod:DesignDay,
    DENVER_STAPLETON Ann Clg .4% Condns DB=>MWB,    !- Name
    7,                        !- Month
    21,                       !- Day of Month
    SummerDesignDay,          !- Day Type
    34.1,                     !- Maximum DryBulb Temperature
    15.2,                     !- Daily DryBulb Temperature Range
    ,                         !- DryBulb Temperature Range Modifier Type
    ,                         !- DryBulb Temperature Range Modifier Day Schedule Name
    Wetbulb,                  !- Humidity Condition Type
    15.8,                     !- Wetbulb or DewPoint at Maximum DryBulb
    ,                         !- Humidity Condition Day Schedule Name
    ,                         !- Humidity Ratio at Maximum DryBulb
    ,                         !- Enthalpy at Maximum DryBulb
    ,                         !- Daily WetBulb Temperature Range
    100594,                   !- Barometric Pressure
    4,                        !- Wind Speed
    120,                      !- Wind Direction
    No,                       !- Rain Indicator
    No,                       !- Snow Indicator
    No,                       !- Daylight Saving Time Indicator
    ASHRAEClearSky,           !- Solar Model Indicator
    ,                         !- Beam Solar Day Schedule Name
    ,                         !- Diffuse Solar Day Schedule Name
    ,                         !- ASHRAE Clear Sky Optical Depth for Beam Irradiance taub
    ,                         !- ASHRAE Clear Sky Optical Depth for Diffuse Irradiance taud
    1;                        !- Sky Clearness

RunPeriod,
    Run Period 1,             !- Name
    1,                        !- Begin Month
    1,                        !- Begin Day of Month
    ,                         !- Begin Year
    12,                       !- End Month
    31,                       !- End Day of Month
    ,                         !- End Year
    Tuesday,                  !- Day of Week for Start Day
    Yes,                      !- Use Weather File Holidays and Special Days
    Yes,                      !- Use Weather File Daylight Saving Period
    No,                       !- Apply Weekend Holiday Rule
    Yes,                      !- Use Weather File Rain Indicators
    Yes;                      !- Use Weather File Snow Indicators

SITE:GROUNDTEMPERATURE:BUILDINGSURFACE,
    15,                       !- January Ground Temperature
    15,                       !- February Ground Temperature
    15,                       !- March Ground Temperature
    15,                       !- April Ground Temperature
    15,                       !- May Ground Temperature
    15,                       !- June Ground Temperature
    15,                       !- July Ground Temperature
    15,                       !- August Ground Temperature
    15,                       !- September Ground Temperature
    15,                       !- October Ground Temperature
    15,                       !- November Ground Temperature
    15;                       !- December Ground Temperature

SCHEDULETYPELIMITS,
    Any Number,               !- Name
    ,                         !- Lower Limit Value
    ,                         !- Upper Limit Value
    ,                         !- Numeric Type
    Dimensionless;            !- Unit Type

SCHEDULE:COMPACT,
    AlwaysON,                 !- Name
    Any Number,               !- Schedule Type Limits Name
    Through: 12/31,           !- Field 1
    For: AllDays,             !- Field 2
    Until: 24:00,             !- Field 3
    1;                        !- Field 4

SCHEDULE:COMPACT,
    OccupActivity,            !- Name
    Any Number,               !- Schedule Type Limits Name
    Through: 12/31,           !- Field 1
    For: AllDays,             !- Field 2
    Until: 24:00,             !- Field 3
    70;                       !- Field 4

SCHEDULE:COMPACT,
    HotWaterTemp,             !- Name
    Any Number,               !- Schedule Type Limits Name
    Through: 12/31,           !- Field 1
    For: AllDays,             !- Field 2
    Until: 24:00,             !- Field 3
    55;                       !- Field 4

SCHEDULE:COMPACT,
    TargetWaterTemp,          !- Name
    Any Number,               !- Schedule Type Limits Name
    Through: 12/31,           !- Field 1
    For: AllDays,             !- Field 2
    Until: 24:00,             !- Field 3
    37;                       !- Field 4

SCHEDULE:FILE,
    LoadSchedule,             !- Name
    Any Number,               !- Schedule Type Limits Name
    /Users/alizad/PycharmProjects/mubes-ubem/examples/ForTest/InputFiles/Building3_winter.txt,    !- File Name
    1,                        !- Column Number
    0,                        !- Rows to Skip at Top
    8760,                     !- Number of Hours of Data
    Comma,                    !- Column Separator
    No;                       !- Interpolate to Timestep

SCHEDULE:FILE,
    Watertaps,                !- Name
    Any Number,               !- Schedule Type Limits Name
    /Users/alizad/PycharmProjects/mubes-ubem/examples/ForTest/InputFiles/domestic_hot_water_40_apartments.txt,    !- File Name
    1,                        !- Column Number
    0,                        !- Rows to Skip at Top
    8760,                     !- Number of Hours of Data
    Comma,                    !- Column Separator
    No;                       !- Interpolate to Timestep

SCHEDULE:FILE,
    ColdWaterTemp,            !- Name
    Any Number,               !- Schedule Type Limits Name
    /Users/alizad/PycharmProjects/mubes-ubem/examples/ForTest/InputFiles/cold_water_temperature_stockholm.txt,    !- File Name
    1,                        !- Column Number
    0,                        !- Rows to Skip at Top
    8760,                     !- Number of Hours of Data
    Comma,                    !- Column Separator
    No;                       !- Interpolate to Timestep

MATERIAL,
    DefaultMaterial,          !- Name
    Rough,                    !- Roughness
    0.1,                      !- Thickness
    0.1,                      !- Conductivity
    1000,                     !- Density
    1000,                     !- Specific Heat
    0.9,                      !- Thermal Absorptance
    0.7,                      !- Solar Absorptance
    0.7;                      !- Visible Absorptance

MATERIAL,
    Basement Floor,           !- Name
    Rough,                    !- Roughness
    0.1,                      !- Thickness
    0.9,                      !- Conductivity
    2300,                     !- Density
    1000,                     !- Specific Heat
    0.9,                      !- Thermal Absorptance
    0.7,                      !- Solar Absorptance
    0.7;                      !- Visible Absorptance

MATERIAL,
    Heated1rstFloor Inertia,    !- Name
    Rough,                    !- Roughness
    0.1,                      !- Thickness
    0.9,                      !- Conductivity
    2300,                     !- Density
    1000,                     !- Specific Heat
    0.9,                      !- Thermal Absorptance
    0.7,                      !- Solar Absorptance
    0.7;                      !- Visible Absorptance

MATERIAL,
    Heated1rstFloor Insulation,    !- Name
    Rough,                    !- Roughness
    0.15,                     !- Thickness
    0.035,                    !- Conductivity
    150,                      !- Density
    1000,                     !- Specific Heat
    0.9,                      !- Thermal Absorptance
    0.7,                      !- Solar Absorptance
    0.7;                      !- Visible Absorptance

MATERIAL,
    Roof Insulation,          !- Name
    Rough,                    !- Roughness
    0.3,                      !- Thickness
    0.03,                     !- Conductivity
    150,                      !- Density
    1000,                     !- Specific Heat
    0.9,                      !- Thermal Absorptance
    0.7,                      !- Solar Absorptance
    0.7;                      !- Visible Absorptance

MATERIAL,
    Wall Inertia,             !- Name
    Rough,                    !- Roughness
    0.2,                      !- Thickness
    0.9,                      !- Conductivity
    2300,                     !- Density
    1000,                     !- Specific Heat
    0.9,                      !- Thermal Absorptance
    0.7,                      !- Solar Absorptance
    0.7;                      !- Visible Absorptance

MATERIAL,
    Wall Insulation,          !- Name
    Rough,                    !- Roughness
    0.2,                      !- Thickness
    0.03,                     !- Conductivity
    150,                      !- Density
    1000,                     !- Specific Heat
    0.9,                      !- Thermal Absorptance
    0.7,                      !- Solar Absorptance
    0.7;                      !- Visible Absorptance

MATERIAL,
    HeatedZoneIntMass,        !- Name
    Rough,                    !- Roughness
    0.1,                      !- Thickness
    0.3,                      !- Conductivity
    600,                      !- Density
    1400,                     !- Specific Heat
    0.9,                      !- Thermal Absorptance
    0.7,                      !- Solar Absorptance
    0.7;                      !- Visible Absorptance

MATERIAL,
    NonHeatedZoneIntMass,     !- Name
    Rough,                    !- Roughness
    0.1,                      !- Thickness
    0.3,                      !- Conductivity
    600,                      !- Density
    1400,                     !- Specific Heat
    0.9,                      !- Thermal Absorptance
    0.7,                      !- Solar Absorptance
    0.7;                      !- Visible Absorptance

MATERIAL,
    AirWallMaterial,          !- Name
    MediumSmooth,             !- Roughness
    0.01,                     !- Thickness
    0.6,                      !- Conductivity
    800,                      !- Density
    1000,                     !- Specific Heat
    0.95,                     !- Thermal Absorptance
    0.7,                      !- Solar Absorptance
    0.7;                      !- Visible Absorptance

WINDOWMATERIAL:SIMPLEGLAZINGSYSTEM,
    DefaultGlazing,           !- Name
    2.7,                      !- UFactor
    0.763,                    !- Solar Heat Gain Coefficient
    0.8;                      !- Visible Transmittance

WINDOWMATERIAL:SIMPLEGLAZINGSYSTEM,
    Window,                   !- Name
    1.9,                      !- UFactor
    0.7,                      !- Solar Heat Gain Coefficient
    0.8;                      !- Visible Transmittance

CONSTRUCTION,
    Project Wall,             !- Name
    Wall Inertia,             !- Outside Layer
    Wall Insulation;          !- Layer 2

CONSTRUCTION,
    Project Basement Wall,    !- Name
    Wall Inertia;             !- Outside Layer

CONSTRUCTION,
    Project Basement Floor,    !- Name
    Basement Floor;           !- Outside Layer

CONSTRUCTION,
    Project Flat Roof,        !- Name
    Roof Insulation;          !- Outside Layer

CONSTRUCTION,
    Project External Window,    !- Name
    Window;                   !- Outside Layer

CONSTRUCTION,
    Project Heated1rstFloor,    !- Name
    Heated1rstFloor Inertia,    !- Outside Layer
    Heated1rstFloor Insulation;    !- Layer 2

CONSTRUCTION,
    Project Heated1rstFloor Rev,    !- Name
    Heated1rstFloor Insulation,    !- Outside Layer
    Heated1rstFloor Inertia;    !- Layer 2

CONSTRUCTION,
    HeatedZoneIntMassObj,     !- Name
    HeatedZoneIntMass;        !- Outside Layer

CONSTRUCTION,
    NonHeatedZoneIntMassObj,    !- Name
    NonHeatedZoneIntMass;     !- Outside Layer

GlobalGeometryRules,
    UpperLeftCorner,          !- Starting Vertex Position
    CounterClockWise,         !- Vertex Entry Direction
    World;                    !- Coordinate System

ZONE,
    Block Build0_Alt0 Storey -1,    !- Name
    0,                        !- Direction of Relative North
    0,                        !- X Origin
    0,                        !- Y Origin
    0,                        !- Z Origin
    1,                        !- Type
    1,                        !- Multiplier
    autocalculate,            !- Ceiling Height
    autocalculate,            !- Volume
    autocalculate,            !- Floor Area
    ,                         !- Zone Inside Convection Algorithm
    ,                         !- Zone Outside Convection Algorithm
    Yes;                      !- Part of Total Floor Area

ZONE,
    Block Build0_Alt0 Storey 0,    !- Name
    0,                        !- Direction of Relative North
    0,                        !- X Origin
    0,                        !- Y Origin
    0,                        !- Z Origin
    1,                        !- Type
    1,                        !- Multiplier
    autocalculate,            !- Ceiling Height
    autocalculate,            !- Volume
    autocalculate,            !- Floor Area
    ,                         !- Zone Inside Convection Algorithm
    ,                         !- Zone Outside Convection Algorithm
    Yes;                      !- Part of Total Floor Area

BUILDINGSURFACE:DETAILED,
    Block Build0_Alt0 Storey -1 Wall 0001,    !- Name
    wall,                     !- Surface Type
    Project Basement Wall,    !- Construction Name
    Block Build0_Alt0 Storey -1,    !- Zone Name
    ground,                   !- Outside Boundary Condition
    ,                         !- Outside Boundary Condition Object
    NoSun,                    !- Sun Exposure
    NoWind,                   !- Wind Exposure
    autocalculate,            !- View Factor to Ground
    autocalculate,            !- Number of Vertices
    29.9089,                  !- Vertex 1 Xcoordinate
    -10.5852,                 !- Vertex 1 Ycoordinate
    0,                        !- Vertex 1 Zcoordinate
    29.9089,                  !- Vertex 2 Xcoordinate
    -10.5852,                 !- Vertex 2 Ycoordinate
    -2.5,                     !- Vertex 2 Zcoordinate
    25.4649,                  !- Vertex 3 Xcoordinate
    -5.3832,                  !- Vertex 3 Ycoordinate
    -2.5,                     !- Vertex 3 Zcoordinate
    25.4649,                  !- Vertex 4 Xcoordinate
    -5.3832,                  !- Vertex 4 Ycoordinate
    0;                        !- Vertex 4 Zcoordinate

BUILDINGSURFACE:DETAILED,
    Block Build0_Alt0 Storey -1 Wall 0002,    !- Name
    wall,                     !- Surface Type
    Project Basement Wall,    !- Construction Name
    Block Build0_Alt0 Storey -1,    !- Zone Name
    ground,                   !- Outside Boundary Condition
    ,                         !- Outside Boundary Condition Object
    NoSun,                    !- Sun Exposure
    NoWind,                   !- Wind Exposure
    autocalculate,            !- View Factor to Ground
    autocalculate,            !- Number of Vertices
    25.4649,                  !- Vertex 1 Xcoordinate
    -5.3832,                  !- Vertex 1 Ycoordinate
    0,                        !- Vertex 1 Zcoordinate
    25.4649,                  !- Vertex 2 Xcoordinate
    -5.3832,                  !- Vertex 2 Ycoordinate
    -2.5,                     !- Vertex 2 Zcoordinate
    22.4829,                  !- Vertex 3 Xcoordinate
    -8.0232,                  !- Vertex 3 Ycoordinate
    -2.5,                     !- Vertex 3 Zcoordinate
    22.4829,                  !- Vertex 4 Xcoordinate
    -8.0232,                  !- Vertex 4 Ycoordinate
    0;                        !- Vertex 4 Zcoordinate

BUILDINGSURFACE:DETAILED,
    Block Build0_Alt0 Storey -1 Wall 0003,    !- Name
    wall,                     !- Surface Type
    Project Basement Wall,    !- Construction Name
    Block Build0_Alt0 Storey -1,    !- Zone Name
    ground,                   !- Outside Boundary Condition
    ,                         !- Outside Boundary Condition Object
    NoSun,                    !- Sun Exposure
    NoWind,                   !- Wind Exposure
    autocalculate,            !- View Factor to Ground
    autocalculate,            !- Number of Vertices
    22.4829,                  !- Vertex 1 Xcoordinate
    -8.0232,                  !- Vertex 1 Ycoordinate
    0,                        !- Vertex 1 Zcoordinate
    22.4829,                  !- Vertex 2 Xcoordinate
    -8.0232,                  !- Vertex 2 Ycoordinate
    -2.5,                     !- Vertex 2 Zcoordinate
    17.4059,                  !- Vertex 3 Xcoordinate
    -2.1002,                  !- Vertex 3 Ycoordinate
    -2.5,                     !- Vertex 3 Zcoordinate
    17.4059,                  !- Vertex 4 Xcoordinate
    -2.1002,                  !- Vertex 4 Ycoordinate
    0;                        !- Vertex 4 Zcoordinate

BUILDINGSURFACE:DETAILED,
    Block Build0_Alt0 Storey -1 Wall 0004,    !- Name
    wall,                     !- Surface Type
    Project Basement Wall,    !- Construction Name
    Block Build0_Alt0 Storey -1,    !- Zone Name
    ground,                   !- Outside Boundary Condition
    ,                         !- Outside Boundary Condition Object
    NoSun,                    !- Sun Exposure
    NoWind,                   !- Wind Exposure
    autocalculate,            !- View Factor to Ground
    autocalculate,            !- Number of Vertices
    17.4059,                  !- Vertex 1 Xcoordinate
    -2.1002,                  !- Vertex 1 Ycoordinate
    0,                        !- Vertex 1 Zcoordinate
    17.4059,                  !- Vertex 2 Xcoordinate
    -2.1002,                  !- Vertex 2 Ycoordinate
    -2.5,                     !- Vertex 2 Zcoordinate
    17.5789,                  !- Vertex 3 Xcoordinate
    2.8128,                   !- Vertex 3 Ycoordinate
    -2.5,                     !- Vertex 3 Zcoordinate
    17.5789,                  !- Vertex 4 Xcoordinate
    2.8128,                   !- Vertex 4 Ycoordinate
    0;                        !- Vertex 4 Zcoordinate

BUILDINGSURFACE:DETAILED,
    Block Build0_Alt0 Storey -1 Wall 0005,    !- Name
    wall,                     !- Surface Type
    Project Basement Wall,    !- Construction Name
    Block Build0_Alt0 Storey -1,    !- Zone Name
    ground,                   !- Outside Boundary Condition
    ,                         !- Outside Boundary Condition Object
    NoSun,                    !- Sun Exposure
    NoWind,                   !- Wind Exposure
    autocalculate,            !- View Factor to Ground
    autocalculate,            !- Number of Vertices
    17.5789,                  !- Vertex 1 Xcoordinate
    2.8128,                   !- Vertex 1 Ycoordinate
    0,                        !- Vertex 1 Zcoordinate
    17.5789,                  !- Vertex 2 Xcoordinate
    2.8128,                   !- Vertex 2 Ycoordinate
    -2.5,                     !- Vertex 2 Zcoordinate
    11.1119,                  !- Vertex 3 Xcoordinate
    5.2188,                   !- Vertex 3 Ycoordinate
    -2.5,                     !- Vertex 3 Zcoordinate
    11.1119,                  !- Vertex 4 Xcoordinate
    5.2188,                   !- Vertex 4 Ycoordinate
    0;                        !- Vertex 4 Zcoordinate

BUILDINGSURFACE:DETAILED,
    Block Build0_Alt0 Storey -1 Wall 0006,    !- Name
    wall,                     !- Surface Type
    Project Basement Wall,    !- Construction Name
    Block Build0_Alt0 Storey -1,    !- Zone Name
    ground,                   !- Outside Boundary Condition
    ,                         !- Outside Boundary Condition Object
    NoSun,                    !- Sun Exposure
    NoWind,                   !- Wind Exposure
    autocalculate,            !- View Factor to Ground
    autocalculate,            !- Number of Vertices
    11.1119,                  !- Vertex 1 Xcoordinate
    5.2188,                   !- Vertex 1 Ycoordinate
    0,                        !- Vertex 1 Zcoordinate
    11.1119,                  !- Vertex 2 Xcoordinate
    5.2188,                   !- Vertex 2 Ycoordinate
    -2.5,                     !- Vertex 2 Zcoordinate
    5.5399,                   !- Vertex 3 Xcoordinate
    5.5628,                   !- Vertex 3 Ycoordinate
    -2.5,                     !- Vertex 3 Zcoordinate
    5.5399,                   !- Vertex 4 Xcoordinate
    5.5628,                   !- Vertex 4 Ycoordinate
    0;                        !- Vertex 4 Zcoordinate

BUILDINGSURFACE:DETAILED,
    Block Build0_Alt0 Storey -1 Wall 0007,    !- Name
    wall,                     !- Surface Type
    Project Basement Wall,    !- Construction Name
    Block Build0_Alt0 Storey -1,    !- Zone Name
    ground,                   !- Outside Boundary Condition
    ,                         !- Outside Boundary Condition Object
    NoSun,                    !- Sun Exposure
    NoWind,                   !- Wind Exposure
    autocalculate,            !- View Factor to Ground
    autocalculate,            !- Number of Vertices
    5.5399,                   !- Vertex 1 Xcoordinate
    5.5628,                   !- Vertex 1 Ycoordinate
    0,                        !- Vertex 1 Zcoordinate
    5.5399,                   !- Vertex 2 Xcoordinate
    5.5628,                   !- Vertex 2 Ycoordinate
    -2.5,                     !- Vertex 2 Zcoordinate
    1.3489,                   !- Vertex 3 Xcoordinate
    2.0178,                   !- Vertex 3 Ycoordinate
    -2.5,                     !- Vertex 3 Zcoordinate
    1.3489,                   !- Vertex 4 Xcoordinate
    2.0178,                   !- Vertex 4 Ycoordinate
    0;                        !- Vertex 4 Zcoordinate

BUILDINGSURFACE:DETAILED,
    Block Build0_Alt0 Storey -1 Wall 0008,    !- Name
    wall,                     !- Surface Type
    Project Basement Wall,    !- Construction Name
    Block Build0_Alt0 Storey -1,    !- Zone Name
    ground,                   !- Outside Boundary Condition
    ,                         !- Outside Boundary Condition Object
    NoSun,                    !- Sun Exposure
    NoWind,                   !- Wind Exposure
    autocalculate,            !- View Factor to Ground
    autocalculate,            !- Number of Vertices
    1.3489,                   !- Vertex 1 Xcoordinate
    2.0178,                   !- Vertex 1 Ycoordinate
    0,                        !- Vertex 1 Zcoordinate
    1.3489,                   !- Vertex 2 Xcoordinate
    2.0178,                   !- Vertex 2 Ycoordinate
    -2.5,                     !- Vertex 2 Zcoordinate
    -4.8921,                  !- Vertex 3 Xcoordinate
    9.2878,                   !- Vertex 3 Ycoordinate
    -2.5,                     !- Vertex 3 Zcoordinate
    -4.8921,                  !- Vertex 4 Xcoordinate
    9.2878,                   !- Vertex 4 Ycoordinate
    0;                        !- Vertex 4 Zcoordinate

BUILDINGSURFACE:DETAILED,
    Block Build0_Alt0 Storey -1 Wall 0009,    !- Name
    wall,                     !- Surface Type
    Project Basement Wall,    !- Construction Name
    Block Build0_Alt0 Storey -1,    !- Zone Name
    ground,                   !- Outside Boundary Condition
    ,                         !- Outside Boundary Condition Object
    NoSun,                    !- Sun Exposure
    NoWind,                   !- Wind Exposure
    autocalculate,            !- View Factor to Ground
    autocalculate,            !- Number of Vertices
    -4.8921,                  !- Vertex 1 Xcoordinate
    9.2878,                   !- Vertex 1 Ycoordinate
    0,                        !- Vertex 1 Zcoordinate
    -4.8921,                  !- Vertex 2 Xcoordinate
    9.2878,                   !- Vertex 2 Ycoordinate
    -2.5,                     !- Vertex 2 Zcoordinate
    12.0559,                  !- Vertex 3 Xcoordinate
    23.8808,                  !- Vertex 3 Ycoordinate
    -2.5,                     !- Vertex 3 Zcoordinate
    12.0559,                  !- Vertex 4 Xcoordinate
    23.8808,                  !- Vertex 4 Ycoordinate
    0;                        !- Vertex 4 Zcoordinate

BUILDINGSURFACE:DETAILED,
    Block Build0_Alt0 Storey -1 Wall 0010,    !- Name
    wall,                     !- Surface Type
    Project Basement Wall,    !- Construction Name
    Block Build0_Alt0 Storey -1,    !- Zone Name
    ground,                   !- Outside Boundary Condition
    ,                         !- Outside Boundary Condition Object
    NoSun,                    !- Sun Exposure
    NoWind,                   !- Wind Exposure
    autocalculate,            !- View Factor to Ground
    autocalculate,            !- Number of Vertices
    12.0559,                  !- Vertex 1 Xcoordinate
    23.8808,                  !- Vertex 1 Ycoordinate
    0,                        !- Vertex 1 Zcoordinate
    12.0559,                  !- Vertex 2 Xcoordinate
    23.8808,                  !- Vertex 2 Ycoordinate
    -2.5,                     !- Vertex 2 Zcoordinate
    18.5549,                  !- Vertex 3 Xcoordinate
    16.4208,                  !- Vertex 3 Ycoordinate
    -2.5,                     !- Vertex 3 Zcoordinate
    18.5549,                  !- Vertex 4 Xcoordinate
    16.4208,                  !- Vertex 4 Ycoordinate
    0;                        !- Vertex 4 Zcoordinate

BUILDINGSURFACE:DETAILED,
    Block Build0_Alt0 Storey -1 Wall 0011,    !- Name
    wall,                     !- Surface Type
    Project Basement Wall,    !- Construction Name
    Block Build0_Alt0 Storey -1,    !- Zone Name
    ground,                   !- Outside Boundary Condition
    ,                         !- Outside Boundary Condition Object
    NoSun,                    !- Sun Exposure
    NoWind,                   !- Wind Exposure
    autocalculate,            !- View Factor to Ground
    autocalculate,            !- Number of Vertices
    18.5549,                  !- Vertex 1 Xcoordinate
    16.4208,                  !- Vertex 1 Ycoordinate
    0,                        !- Vertex 1 Zcoordinate
    18.5549,                  !- Vertex 2 Xcoordinate
    16.4208,                  !- Vertex 2 Ycoordinate
    -2.5,                     !- Vertex 2 Zcoordinate
    25.0579,                  !- Vertex 3 Xcoordinate
    21.9748,                  !- Vertex 3 Ycoordinate
    -2.5,                     !- Vertex 3 Zcoordinate
    25.0579,                  !- Vertex 4 Xcoordinate
    21.9748,                  !- Vertex 4 Ycoordinate
    0;                        !- Vertex 4 Zcoordinate

BUILDINGSURFACE:DETAILED,
    Block Build0_Alt0 Storey -1 Wall 0012,    !- Name
    wall,                     !- Surface Type
    Project Basement Wall,    !- Construction Name
    Block Build0_Alt0 Storey -1,    !- Zone Name
    ground,                   !- Outside Boundary Condition
    ,                         !- Outside Boundary Condition Object
    NoSun,                    !- Sun Exposure
    NoWind,                   !- Wind Exposure
    autocalculate,            !- View Factor to Ground
    autocalculate,            !- Number of Vertices
    25.0579,                  !- Vertex 1 Xcoordinate
    21.9748,                  !- Vertex 1 Ycoordinate
    0,                        !- Vertex 1 Zcoordinate
    25.0579,                  !- Vertex 2 Xcoordinate
    21.9748,                  !- Vertex 2 Ycoordinate
    -2.5,                     !- Vertex 2 Zcoordinate
    18.5989,                  !- Vertex 3 Xcoordinate
    29.6368,                  !- Vertex 3 Ycoordinate
    -2.5,                     !- Vertex 3 Zcoordinate
    18.5989,                  !- Vertex 4 Xcoordinate
    29.6368,                  !- Vertex 4 Ycoordinate
    0;                        !- Vertex 4 Zcoordinate

BUILDINGSURFACE:DETAILED,
    Block Build0_Alt0 Storey -1 Wall 0013,    !- Name
    wall,                     !- Surface Type
    Project Basement Wall,    !- Construction Name
    Block Build0_Alt0 Storey -1,    !- Zone Name
    ground,                   !- Outside Boundary Condition
    ,                         !- Outside Boundary Condition Object
    NoSun,                    !- Sun Exposure
    NoWind,                   !- Wind Exposure
    autocalculate,            !- View Factor to Ground
    autocalculate,            !- Number of Vertices
    18.5989,                  !- Vertex 1 Xcoordinate
    29.6368,                  !- Vertex 1 Ycoordinate
    0,                        !- Vertex 1 Zcoordinate
    18.5989,                  !- Vertex 2 Xcoordinate
    29.6368,                  !- Vertex 2 Ycoordinate
    -2.5,                     !- Vertex 2 Zcoordinate
    21.6289,                  !- Vertex 3 Xcoordinate
    32.3288,                  !- Vertex 3 Ycoordinate
    -2.5,                     !- Vertex 3 Zcoordinate
    21.6289,                  !- Vertex 4 Xcoordinate
    32.3288,                  !- Vertex 4 Ycoordinate
    0;                        !- Vertex 4 Zcoordinate

BUILDINGSURFACE:DETAILED,
    Block Build0_Alt0 Storey -1 Wall 0014,    !- Name
    wall,                     !- Surface Type
    Project Basement Wall,    !- Construction Name
    Block Build0_Alt0 Storey -1,    !- Zone Name
    ground,                   !- Outside Boundary Condition
    ,                         !- Outside Boundary Condition Object
    NoSun,                    !- Sun Exposure
    NoWind,                   !- Wind Exposure
    autocalculate,            !- View Factor to Ground
    autocalculate,            !- Number of Vertices
    21.6289,                  !- Vertex 1 Xcoordinate
    32.3288,                  !- Vertex 1 Ycoordinate
    0,                        !- Vertex 1 Zcoordinate
    21.6289,                  !- Vertex 2 Xcoordinate
    32.3288,                  !- Vertex 2 Ycoordinate
    -2.5,                     !- Vertex 2 Zcoordinate
    15.7549,                  !- Vertex 3 Xcoordinate
    39.2658,                  !- Vertex 3 Ycoordinate
    -2.5,                     !- Vertex 3 Zcoordinate
    15.7549,                  !- Vertex 4 Xcoordinate
    39.2658,                  !- Vertex 4 Ycoordinate
    0;                        !- Vertex 4 Zcoordinate

BUILDINGSURFACE:DETAILED,
    Block Build0_Alt0 Storey -1 Wall 0015,    !- Name
    wall,                     !- Surface Type
    Project Basement Wall,    !- Construction Name
    Block Build0_Alt0 Storey -1,    !- Zone Name
    ground,                   !- Outside Boundary Condition
    ,                         !- Outside Boundary Condition Object
    NoSun,                    !- Sun Exposure
    NoWind,                   !- Wind Exposure
    autocalculate,            !- View Factor to Ground
    autocalculate,            !- Number of Vertices
    15.7549,                  !- Vertex 1 Xcoordinate
    39.2658,                  !- Vertex 1 Ycoordinate
    0,                        !- Vertex 1 Zcoordinate
    15.7549,                  !- Vertex 2 Xcoordinate
    39.2658,                  !- Vertex 2 Ycoordinate
    -2.5,                     !- Vertex 2 Zcoordinate
    10.0239,                  !- Vertex 3 Xcoordinate
    34.3478,                  !- Vertex 3 Ycoordinate
    -2.5,                     !- Vertex 3 Zcoordinate
    10.0239,                  !- Vertex 4 Xcoordinate
    34.3478,                  !- Vertex 4 Ycoordinate
    0;                        !- Vertex 4 Zcoordinate

BUILDINGSURFACE:DETAILED,
    Block Build0_Alt0 Storey -1 Wall 0016,    !- Name
    wall,                     !- Surface Type
    Project Basement Wall,    !- Construction Name
    Block Build0_Alt0 Storey -1,    !- Zone Name
    ground,                   !- Outside Boundary Condition
    ,                         !- Outside Boundary Condition Object
    NoSun,                    !- Sun Exposure
    NoWind,                   !- Wind Exposure
    autocalculate,            !- View Factor to Ground
    autocalculate,            !- Number of Vertices
    10.0239,                  !- Vertex 1 Xcoordinate
    34.3478,                  !- Vertex 1 Ycoordinate
    0,                        !- Vertex 1 Zcoordinate
    10.0239,                  !- Vertex 2 Xcoordinate
    34.3478,                  !- Vertex 2 Ycoordinate
    -2.5,                     !- Vertex 2 Zcoordinate
    7.3319,                   !- Vertex 3 Xcoordinate
    37.3778,                  !- Vertex 3 Ycoordinate
    -2.5,                     !- Vertex 3 Zcoordinate
    7.3319,                   !- Vertex 4 Xcoordinate
    37.3778,                  !- Vertex 4 Ycoordinate
    0;                        !- Vertex 4 Zcoordinate

BUILDINGSURFACE:DETAILED,
    Block Build0_Alt0 Storey -1 Wall 0017,    !- Name
    wall,                     !- Surface Type
    Project Basement Wall,    !- Construction Name
    Block Build0_Alt0 Storey -1,    !- Zone Name
    ground,                   !- Outside Boundary Condition
    ,                         !- Outside Boundary Condition Object
    NoSun,                    !- Sun Exposure
    NoWind,                   !- Wind Exposure
    autocalculate,            !- View Factor to Ground
    autocalculate,            !- Number of Vertices
    7.3319,                   !- Vertex 1 Xcoordinate
    37.3778,                  !- Vertex 1 Ycoordinate
    0,                        !- Vertex 1 Zcoordinate
    7.3319,                   !- Vertex 2 Xcoordinate
    37.3778,                  !- Vertex 2 Ycoordinate
    -2.5,                     !- Vertex 2 Zcoordinate
    2.1779,                   !- Vertex 3 Xcoordinate
    32.9878,                  !- Vertex 3 Ycoordinate
    -2.5,                     !- Vertex 3 Zcoordinate
    2.1779,                   !- Vertex 4 Xcoordinate
    32.9878,                  !- Vertex 4 Ycoordinate
    0;                        !- Vertex 4 Zcoordinate

BUILDINGSURFACE:DETAILED,
    Block Build0_Alt0 Storey -1 Wall 0018,    !- Name
    wall,                     !- Surface Type
    Project Basement Wall,    !- Construction Name
    Block Build0_Alt0 Storey -1,    !- Zone Name
    ground,                   !- Outside Boundary Condition
    ,                         !- Outside Boundary Condition Object
    NoSun,                    !- Sun Exposure
    NoWind,                   !- Wind Exposure
    autocalculate,            !- View Factor to Ground
    autocalculate,            !- Number of Vertices
    2.1779,                   !- Vertex 1 Xcoordinate
    32.9878,                  !- Vertex 1 Ycoordinate
    0,                        !- Vertex 1 Zcoordinate
    2.1779,                   !- Vertex 2 Xcoordinate
    32.9878,                  !- Vertex 2 Ycoordinate
    -2.5,                     !- Vertex 2 Zcoordinate
    4.8169,                   !- Vertex 3 Xcoordinate
    30.0058,                  !- Vertex 3 Ycoordinate
    -2.5,                     !- Vertex 3 Zcoordinate
    4.8169,                   !- Vertex 4 Xcoordinate
    30.0058,                  !- Vertex 4 Ycoordinate
    0;                        !- Vertex 4 Zcoordinate

BUILDINGSURFACE:DETAILED,
    Block Build0_Alt0 Storey -1 Wall 0019,    !- Name
    wall,                     !- Surface Type
    Project Basement Wall,    !- Construction Name
    Block Build0_Alt0 Storey -1,    !- Zone Name
    ground,                   !- Outside Boundary Condition
    ,                         !- Outside Boundary Condition Object
    NoSun,                    !- Sun Exposure
    NoWind,                   !- Wind Exposure
    autocalculate,            !- View Factor to Ground
    autocalculate,            !- Number of Vertices
    4.8169,                   !- Vertex 1 Xcoordinate
    30.0058,                  !- Vertex 1 Ycoordinate
    0,                        !- Vertex 1 Zcoordinate
    4.8169,                   !- Vertex 2 Xcoordinate
    30.0058,                  !- Vertex 2 Ycoordinate
    -2.5,                     !- Vertex 2 Zcoordinate
    -7.6011,                  !- Vertex 3 Xcoordinate
    19.2238,                  !- Vertex 3 Ycoordinate
    -2.5,                     !- Vertex 3 Zcoordinate
    -7.6011,                  !- Vertex 4 Xcoordinate
    19.2238,                  !- Vertex 4 Ycoordinate
    0;                        !- Vertex 4 Zcoordinate

BUILDINGSURFACE:DETAILED,
    Block Build0_Alt0 Storey -1 Wall 0020,    !- Name
    wall,                     !- Surface Type
    Project Basement Wall,    !- Construction Name
    Block Build0_Alt0 Storey -1,    !- Zone Name
    ground,                   !- Outside Boundary Condition
    ,                         !- Outside Boundary Condition Object
    NoSun,                    !- Sun Exposure
    NoWind,                   !- Wind Exposure
    autocalculate,            !- View Factor to Ground
    autocalculate,            !- Number of Vertices
    -7.6011,                  !- Vertex 1 Xcoordinate
    19.2238,                  !- Vertex 1 Ycoordinate
    0,                        !- Vertex 1 Zcoordinate
    -7.6011,                  !- Vertex 2 Xcoordinate
    19.2238,                  !- Vertex 2 Ycoordinate
    -2.5,                     !- Vertex 2 Zcoordinate
    -10.1981,                 !- Vertex 3 Xcoordinate
    22.3588,                  !- Vertex 3 Ycoordinate
    -2.5,                     !- Vertex 3 Zcoordinate
    -10.1981,                 !- Vertex 4 Xcoordinate
    22.3588,                  !- Vertex 4 Ycoordinate
    0;                        !- Vertex 4 Zcoordinate

BUILDINGSURFACE:DETAILED,
    Block Build0_Alt0 Storey -1 Wall 0021,    !- Name
    wall,                     !- Surface Type
    Project Basement Wall,    !- Construction Name
    Block Build0_Alt0 Storey -1,    !- Zone Name
    ground,                   !- Outside Boundary Condition
    ,                         !- Outside Boundary Condition Object
    NoSun,                    !- Sun Exposure
    NoWind,                   !- Wind Exposure
    autocalculate,            !- View Factor to Ground
    autocalculate,            !- Number of Vertices
    -10.1981,                 !- Vertex 1 Xcoordinate
    22.3588,                  !- Vertex 1 Ycoordinate
    0,                        !- Vertex 1 Zcoordinate
    -10.1981,                 !- Vertex 2 Xcoordinate
    22.3588,                  !- Vertex 2 Ycoordinate
    -2.5,                     !- Vertex 2 Zcoordinate
    -15.3001,                 !- Vertex 3 Xcoordinate
    17.9198,                  !- Vertex 3 Ycoordinate
    -2.5,                     !- Vertex 3 Zcoordinate
    -15.3001,                 !- Vertex 4 Xcoordinate
    17.9198,                  !- Vertex 4 Ycoordinate
    0;                        !- Vertex 4 Zcoordinate

BUILDINGSURFACE:DETAILED,
    Block Build0_Alt0 Storey -1 Wall 0022,    !- Name
    wall,                     !- Surface Type
    Project Basement Wall,    !- Construction Name
    Block Build0_Alt0 Storey -1,    !- Zone Name
    ground,                   !- Outside Boundary Condition
    ,                         !- Outside Boundary Condition Object
    NoSun,                    !- Sun Exposure
    NoWind,                   !- Wind Exposure
    autocalculate,            !- View Factor to Ground
    autocalculate,            !- Number of Vertices
    -15.3001,                 !- Vertex 1 Xcoordinate
    17.9198,                  !- Vertex 1 Ycoordinate
    0,                        !- Vertex 1 Zcoordinate
    -15.3001,                 !- Vertex 2 Xcoordinate
    17.9198,                  !- Vertex 2 Ycoordinate
    -2.5,                     !- Vertex 2 Zcoordinate
    -12.7601,                 !- Vertex 3 Xcoordinate
    14.9328,                  !- Vertex 3 Ycoordinate
    -2.5,                     !- Vertex 3 Zcoordinate
    -12.7601,                 !- Vertex 4 Xcoordinate
    14.9328,                  !- Vertex 4 Ycoordinate
    0;                        !- Vertex 4 Zcoordinate

BUILDINGSURFACE:DETAILED,
    Block Build0_Alt0 Storey -1 Wall 0023,    !- Name
    wall,                     !- Surface Type
    Project Basement Wall,    !- Construction Name
    Block Build0_Alt0 Storey -1,    !- Zone Name
    ground,                   !- Outside Boundary Condition
    ,                         !- Outside Boundary Condition Object
    NoSun,                    !- Sun Exposure
    NoWind,                   !- Wind Exposure
    autocalculate,            !- View Factor to Ground
    autocalculate,            !- Number of Vertices
    -12.7601,                 !- Vertex 1 Xcoordinate
    14.9328,                  !- Vertex 1 Ycoordinate
    0,                        !- Vertex 1 Zcoordinate
    -12.7601,                 !- Vertex 2 Xcoordinate
    14.9328,                  !- Vertex 2 Ycoordinate
    -2.5,                     !- Vertex 2 Zcoordinate
    -20.5081,                 !- Vertex 3 Xcoordinate
    8.1708,                   !- Vertex 3 Ycoordinate
    -2.5,                     !- Vertex 3 Zcoordinate
    -20.5081,                 !- Vertex 4 Xcoordinate
    8.1708,                   !- Vertex 4 Ycoordinate
    0;                        !- Vertex 4 Zcoordinate

BUILDINGSURFACE:DETAILED,
    Block Build0_Alt0 Storey -1 Wall 0024,    !- Name
    wall,                     !- Surface Type
    Project Basement Wall,    !- Construction Name
    Block Build0_Alt0 Storey -1,    !- Zone Name
    ground,                   !- Outside Boundary Condition
    ,                         !- Outside Boundary Condition Object
    NoSun,                    !- Sun Exposure
    NoWind,                   !- Wind Exposure
    autocalculate,            !- View Factor to Ground
    autocalculate,            !- Number of Vertices
    -20.5081,                 !- Vertex 1 Xcoordinate
    8.1708,                   !- Vertex 1 Ycoordinate
    0,                        !- Vertex 1 Zcoordinate
    -20.5081,                 !- Vertex 2 Xcoordinate
    8.1708,                   !- Vertex 2 Ycoordinate
    -2.5,                     !- Vertex 2 Zcoordinate
    -14.4261,                 !- Vertex 3 Xcoordinate
    1.0928,                   !- Vertex 3 Ycoordinate
    -2.5,                     !- Vertex 3 Zcoordinate
    -14.4261,                 !- Vertex 4 Xcoordinate
    1.0928,                   !- Vertex 4 Ycoordinate
    0;                        !- Vertex 4 Zcoordinate

BUILDINGSURFACE:DETAILED,
    Block Build0_Alt0 Storey -1 Wall 0025,    !- Name
    wall,                     !- Surface Type
    Project Basement Wall,    !- Construction Name
    Block Build0_Alt0 Storey -1,    !- Zone Name
    ground,                   !- Outside Boundary Condition
    ,                         !- Outside Boundary Condition Object
    NoSun,                    !- Sun Exposure
    NoWind,                   !- Wind Exposure
    autocalculate,            !- View Factor to Ground
    autocalculate,            !- Number of Vertices
    -14.4261,                 !- Vertex 1 Xcoordinate
    1.0928,                   !- Vertex 1 Ycoordinate
    0,                        !- Vertex 1 Zcoordinate
    -14.4261,                 !- Vertex 2 Xcoordinate
    1.0928,                   !- Vertex 2 Ycoordinate
    -2.5,                     !- Vertex 2 Zcoordinate
    -11.3421,                 !- Vertex 3 Xcoordinate
    3.6868,                   !- Vertex 3 Ycoordinate
    -2.5,                     !- Vertex 3 Zcoordinate
    -11.3421,                 !- Vertex 4 Xcoordinate
    3.6868,                   !- Vertex 4 Ycoordinate
    0;                        !- Vertex 4 Zcoordinate

BUILDINGSURFACE:DETAILED,
    Block Build0_Alt0 Storey -1 Wall 0026,    !- Name
    wall,                     !- Surface Type
    Project Basement Wall,    !- Construction Name
    Block Build0_Alt0 Storey -1,    !- Zone Name
    ground,                   !- Outside Boundary Condition
    ,                         !- Outside Boundary Condition Object
    NoSun,                    !- Sun Exposure
    NoWind,                   !- Wind Exposure
    autocalculate,            !- View Factor to Ground
    autocalculate,            !- Number of Vertices
    -11.3421,                 !- Vertex 1 Xcoordinate
    3.6868,                   !- Vertex 1 Ycoordinate
    0,                        !- Vertex 1 Zcoordinate
    -11.3421,                 !- Vertex 2 Xcoordinate
    3.6868,                   !- Vertex 2 Ycoordinate
    -2.5,                     !- Vertex 2 Zcoordinate
    -0.7071,                  !- Vertex 3 Xcoordinate
    -8.7872,                  !- Vertex 3 Ycoordinate
    -2.5,                     !- Vertex 3 Zcoordinate
    -0.7071,                  !- Vertex 4 Xcoordinate
    -8.7872,                  !- Vertex 4 Ycoordinate
    0;                        !- Vertex 4 Zcoordinate

BUILDINGSURFACE:DETAILED,
    Block Build0_Alt0 Storey -1 Wall 0027,    !- Name
    wall,                     !- Surface Type
    Project Basement Wall,    !- Construction Name
    Block Build0_Alt0 Storey -1,    !- Zone Name
    ground,                   !- Outside Boundary Condition
    ,                         !- Outside Boundary Condition Object
    NoSun,                    !- Sun Exposure
    NoWind,                   !- Wind Exposure
    autocalculate,            !- View Factor to Ground
    autocalculate,            !- Number of Vertices
    -0.7071,                  !- Vertex 1 Xcoordinate
    -8.7872,                  !- Vertex 1 Ycoordinate
    0,                        !- Vertex 1 Zcoordinate
    -0.7071,                  !- Vertex 2 Xcoordinate
    -8.7872,                  !- Vertex 2 Ycoordinate
    -2.5,                     !- Vertex 2 Zcoordinate
    -3.7911,                  !- Vertex 3 Xcoordinate
    -11.3812,                 !- Vertex 3 Ycoordinate
    -2.5,                     !- Vertex 3 Zcoordinate
    -3.7911,                  !- Vertex 4 Xcoordinate
    -11.3812,                 !- Vertex 4 Ycoordinate
    0;                        !- Vertex 4 Zcoordinate

BUILDINGSURFACE:DETAILED,
    Block Build0_Alt0 Storey -1 Wall 0028,    !- Name
    wall,                     !- Surface Type
    Project Basement Wall,    !- Construction Name
    Block Build0_Alt0 Storey -1,    !- Zone Name
    ground,                   !- Outside Boundary Condition
    ,                         !- Outside Boundary Condition Object
    NoSun,                    !- Sun Exposure
    NoWind,                   !- Wind Exposure
    autocalculate,            !- View Factor to Ground
    autocalculate,            !- Number of Vertices
    -3.7911,                  !- Vertex 1 Xcoordinate
    -11.3812,                 !- Vertex 1 Ycoordinate
    0,                        !- Vertex 1 Zcoordinate
    -3.7911,                  !- Vertex 2 Xcoordinate
    -11.3812,                 !- Vertex 2 Ycoordinate
    -2.5,                     !- Vertex 2 Zcoordinate
    0.6479,                   !- Vertex 3 Xcoordinate
    -16.4822,                 !- Vertex 3 Ycoordinate
    -2.5,                     !- Vertex 3 Zcoordinate
    0.6479,                   !- Vertex 4 Xcoordinate
    -16.4822,                 !- Vertex 4 Ycoordinate
    0;                        !- Vertex 4 Zcoordinate

BUILDINGSURFACE:DETAILED,
    Block Build0_Alt0 Storey -1 Wall 0029,    !- Name
    wall,                     !- Surface Type
    Project Basement Wall,    !- Construction Name
    Block Build0_Alt0 Storey -1,    !- Zone Name
    ground,                   !- Outside Boundary Condition
    ,                         !- Outside Boundary Condition Object
    NoSun,                    !- Sun Exposure
    NoWind,                   !- Wind Exposure
    autocalculate,            !- View Factor to Ground
    autocalculate,            !- Number of Vertices
    0.6479,                   !- Vertex 1 Xcoordinate
    -16.4822,                 !- Vertex 1 Ycoordinate
    0,                        !- Vertex 1 Zcoordinate
    0.6479,                   !- Vertex 2 Xcoordinate
    -16.4822,                 !- Vertex 2 Ycoordinate
    -2.5,                     !- Vertex 2 Zcoordinate
    3.6819,                   !- Vertex 3 Xcoordinate
    -13.8912,                 !- Vertex 3 Ycoordinate
    -2.5,                     !- Vertex 3 Zcoordinate
    3.6819,                   !- Vertex 4 Xcoordinate
    -13.8912,                 !- Vertex 4 Ycoordinate
    0;                        !- Vertex 4 Zcoordinate

BUILDINGSURFACE:DETAILED,
    Block Build0_Alt0 Storey -1 Wall 0030,    !- Name
    wall,                     !- Surface Type
    Project Basement Wall,    !- Construction Name
    Block Build0_Alt0 Storey -1,    !- Zone Name
    ground,                   !- Outside Boundary Condition
    ,                         !- Outside Boundary Condition Object
    NoSun,                    !- Sun Exposure
    NoWind,                   !- Wind Exposure
    autocalculate,            !- View Factor to Ground
    autocalculate,            !- Number of Vertices
    3.6819,                   !- Vertex 1 Xcoordinate
    -13.8912,                 !- Vertex 1 Ycoordinate
    0,                        !- Vertex 1 Zcoordinate
    3.6819,                   !- Vertex 2 Xcoordinate
    -13.8912,                 !- Vertex 2 Ycoordinate
    -2.5,                     !- Vertex 2 Zcoordinate
    13.0009,                  !- Vertex 3 Xcoordinate
    -24.9742,                 !- Vertex 3 Ycoordinate
    -2.5,                     !- Vertex 3 Zcoordinate
    13.0009,                  !- Vertex 4 Xcoordinate
    -24.9742,                 !- Vertex 4 Ycoordinate
    0;                        !- Vertex 4 Zcoordinate

BUILDINGSURFACE:DETAILED,
    Block Build0_Alt0 Storey -1 Wall 0031,    !- Name
    wall,                     !- Surface Type
    Project Basement Wall,    !- Construction Name
    Block Build0_Alt0 Storey -1,    !- Zone Name
    ground,                   !- Outside Boundary Condition
    ,                         !- Outside Boundary Condition Object
    NoSun,                    !- Sun Exposure
    NoWind,                   !- Wind Exposure
    autocalculate,            !- View Factor to Ground
    autocalculate,            !- Number of Vertices
    13.0009,                  !- Vertex 1 Xcoordinate
    -24.9742,                 !- Vertex 1 Ycoordinate
    0,                        !- Vertex 1 Zcoordinate
    13.0009,                  !- Vertex 2 Xcoordinate
    -24.9742,                 !- Vertex 2 Ycoordinate
    -2.5,                     !- Vertex 2 Zcoordinate
    29.9089,                  !- Vertex 3 Xcoordinate
    -10.5852,                 !- Vertex 3 Ycoordinate
    -2.5,                     !- Vertex 3 Zcoordinate
    29.9089,                  !- Vertex 4 Xcoordinate
    -10.5852,                 !- Vertex 4 Ycoordinate
    0;                        !- Vertex 4 Zcoordinate

BUILDINGSURFACE:DETAILED,
    Block Build0_Alt0 Storey -1 Floor 0001,    !- Name
    floor,                    !- Surface Type
    Project Basement Floor,    !- Construction Name
    Block Build0_Alt0 Storey -1,    !- Zone Name
    ground,                   !- Outside Boundary Condition
    ,                         !- Outside Boundary Condition Object
    NoSun,                    !- Sun Exposure
    NoWind,                   !- Wind Exposure
    autocalculate,            !- View Factor to Ground
    autocalculate,            !- Number of Vertices
    21.6289,                  !- Vertex 1 Xcoordinate
    32.3288,                  !- Vertex 1 Ycoordinate
    -2.5,                     !- Vertex 1 Zcoordinate
    18.5989,                  !- Vertex 2 Xcoordinate
    29.6368,                  !- Vertex 2 Ycoordinate
    -2.5,                     !- Vertex 2 Zcoordinate
    25.0579,                  !- Vertex 3 Xcoordinate
    21.9748,                  !- Vertex 3 Ycoordinate
    -2.5,                     !- Vertex 3 Zcoordinate
    18.5549,                  !- Vertex 4 Xcoordinate
    16.4208,                  !- Vertex 4 Ycoordinate
    -2.5,                     !- Vertex 4 Zcoordinate
    12.0559,                  !- Vertex 5 Xcoordinate
    23.8808,                  !- Vertex 5 Ycoordinate
    -2.5,                     !- Vertex 5 Zcoordinate
    -4.8921,                  !- Vertex 6 Xcoordinate
    9.2878,                   !- Vertex 6 Ycoordinate
    -2.5,                     !- Vertex 6 Zcoordinate
    1.3489,                   !- Vertex 7 Xcoordinate
    2.0178,                   !- Vertex 7 Ycoordinate
    -2.5,                     !- Vertex 7 Zcoordinate
    5.5399,                   !- Vertex 8 Xcoordinate
    5.5628,                   !- Vertex 8 Ycoordinate
    -2.5,                     !- Vertex 8 Zcoordinate
    11.1119,                  !- Vertex 9 Xcoordinate
    5.2188,                   !- Vertex 9 Ycoordinate
    -2.5,                     !- Vertex 9 Zcoordinate
    17.5789,                  !- Vertex 10 Xcoordinate
    2.8128,                   !- Vertex 10 Ycoordinate
    -2.5,                     !- Vertex 10 Zcoordinate
    17.4059,                  !- Vertex 11 Xcoordinate
    -2.1002,                  !- Vertex 11 Ycoordinate
    -2.5,                     !- Vertex 11 Zcoordinate
    22.4829,                  !- Vertex 12 Xcoordinate
    -8.0232,                  !- Vertex 12 Ycoordinate
    -2.5,                     !- Vertex 12 Zcoordinate
    25.4649,                  !- Vertex 13 Xcoordinate
    -5.3832,                  !- Vertex 13 Ycoordinate
    -2.5,                     !- Vertex 13 Zcoordinate
    29.9089,                  !- Vertex 14 Xcoordinate
    -10.5852,                 !- Vertex 14 Ycoordinate
    -2.5,                     !- Vertex 14 Zcoordinate
    13.0009,                  !- Vertex 15 Xcoordinate
    -24.9742,                 !- Vertex 15 Ycoordinate
    -2.5,                     !- Vertex 15 Zcoordinate
    3.6819,                   !- Vertex 16 Xcoordinate
    -13.8912,                 !- Vertex 16 Ycoordinate
    -2.5,                     !- Vertex 16 Zcoordinate
    0.6479,                   !- Vertex 17 Xcoordinate
    -16.4822,                 !- Vertex 17 Ycoordinate
    -2.5,                     !- Vertex 17 Zcoordinate
    -3.7911,                  !- Vertex 18 Xcoordinate
    -11.3812,                 !- Vertex 18 Ycoordinate
    -2.5,                     !- Vertex 18 Zcoordinate
    -0.7071,                  !- Vertex 19 Xcoordinate
    -8.7872,                  !- Vertex 19 Ycoordinate
    -2.5,                     !- Vertex 19 Zcoordinate
    -11.3421,                 !- Vertex 20 Xcoordinate
    3.6868,                   !- Vertex 20 Ycoordinate
    -2.5,                     !- Vertex 20 Zcoordinate
    -14.4261,                 !- Vertex 21 Xcoordinate
    1.0928,                   !- Vertex 21 Ycoordinate
    -2.5,                     !- Vertex 21 Zcoordinate
    -20.5081,                 !- Vertex 22 Xcoordinate
    8.1708,                   !- Vertex 22 Ycoordinate
    -2.5,                     !- Vertex 22 Zcoordinate
    -12.7601,                 !- Vertex 23 Xcoordinate
    14.9328,                  !- Vertex 23 Ycoordinate
    -2.5,                     !- Vertex 23 Zcoordinate
    -15.3001,                 !- Vertex 24 Xcoordinate
    17.9198,                  !- Vertex 24 Ycoordinate
    -2.5,                     !- Vertex 24 Zcoordinate
    -10.1981,                 !- Vertex 25 Xcoordinate
    22.3588,                  !- Vertex 25 Ycoordinate
    -2.5,                     !- Vertex 25 Zcoordinate
    -7.6011,                  !- Vertex 26 Xcoordinate
    19.2238,                  !- Vertex 26 Ycoordinate
    -2.5,                     !- Vertex 26 Zcoordinate
    4.8169,                   !- Vertex 27 Xcoordinate
    30.0058,                  !- Vertex 27 Ycoordinate
    -2.5,                     !- Vertex 27 Zcoordinate
    2.1779,                   !- Vertex 28 Xcoordinate
    32.9878,                  !- Vertex 28 Ycoordinate
    -2.5,                     !- Vertex 28 Zcoordinate
    7.3319,                   !- Vertex 29 Xcoordinate
    37.3778,                  !- Vertex 29 Ycoordinate
    -2.5,                     !- Vertex 29 Zcoordinate
    10.0239,                  !- Vertex 30 Xcoordinate
    34.3478,                  !- Vertex 30 Ycoordinate
    -2.5,                     !- Vertex 30 Zcoordinate
    15.7549,                  !- Vertex 31 Xcoordinate
    39.2658,                  !- Vertex 31 Ycoordinate
    -2.5;                     !- Vertex 31 Zcoordinate

BUILDINGSURFACE:DETAILED,
    Block Build0_Alt0 Storey 0 Wall 0001,    !- Name
    wall,                     !- Surface Type
    Project Wall,             !- Construction Name
    Block Build0_Alt0 Storey 0,    !- Zone Name
    outdoors,                 !- Outside Boundary Condition
    ,                         !- Outside Boundary Condition Object
    SunExposed,               !- Sun Exposure
    WindExposed,              !- Wind Exposure
    autocalculate,            !- View Factor to Ground
    autocalculate,            !- Number of Vertices
    29.9089,                  !- Vertex 1 Xcoordinate
    -10.5852,                 !- Vertex 1 Ycoordinate
    15,                       !- Vertex 1 Zcoordinate
    29.9089,                  !- Vertex 2 Xcoordinate
    -10.5852,                 !- Vertex 2 Ycoordinate
    0,                        !- Vertex 2 Zcoordinate
    25.4649,                  !- Vertex 3 Xcoordinate
    -5.3832,                  !- Vertex 3 Ycoordinate
    0,                        !- Vertex 3 Zcoordinate
    25.4649,                  !- Vertex 4 Xcoordinate
    -5.3832,                  !- Vertex 4 Ycoordinate
    15;                       !- Vertex 4 Zcoordinate

BUILDINGSURFACE:DETAILED,
    Block Build0_Alt0 Storey 0 Wall 0002,    !- Name
    wall,                     !- Surface Type
    Project Wall,             !- Construction Name
    Block Build0_Alt0 Storey 0,    !- Zone Name
    outdoors,                 !- Outside Boundary Condition
    ,                         !- Outside Boundary Condition Object
    SunExposed,               !- Sun Exposure
    WindExposed,              !- Wind Exposure
    autocalculate,            !- View Factor to Ground
    autocalculate,            !- Number of Vertices
    25.4649,                  !- Vertex 1 Xcoordinate
    -5.3832,                  !- Vertex 1 Ycoordinate
    15,                       !- Vertex 1 Zcoordinate
    25.4649,                  !- Vertex 2 Xcoordinate
    -5.3832,                  !- Vertex 2 Ycoordinate
    0,                        !- Vertex 2 Zcoordinate
    22.4829,                  !- Vertex 3 Xcoordinate
    -8.0232,                  !- Vertex 3 Ycoordinate
    0,                        !- Vertex 3 Zcoordinate
    22.4829,                  !- Vertex 4 Xcoordinate
    -8.0232,                  !- Vertex 4 Ycoordinate
    15;                       !- Vertex 4 Zcoordinate

BUILDINGSURFACE:DETAILED,
    Block Build0_Alt0 Storey 0 Wall 0003,    !- Name
    wall,                     !- Surface Type
    Project Wall,             !- Construction Name
    Block Build0_Alt0 Storey 0,    !- Zone Name
    outdoors,                 !- Outside Boundary Condition
    ,                         !- Outside Boundary Condition Object
    SunExposed,               !- Sun Exposure
    WindExposed,              !- Wind Exposure
    autocalculate,            !- View Factor to Ground
    autocalculate,            !- Number of Vertices
    22.4829,                  !- Vertex 1 Xcoordinate
    -8.0232,                  !- Vertex 1 Ycoordinate
    15,                       !- Vertex 1 Zcoordinate
    22.4829,                  !- Vertex 2 Xcoordinate
    -8.0232,                  !- Vertex 2 Ycoordinate
    0,                        !- Vertex 2 Zcoordinate
    17.4059,                  !- Vertex 3 Xcoordinate
    -2.1002,                  !- Vertex 3 Ycoordinate
    0,                        !- Vertex 3 Zcoordinate
    17.4059,                  !- Vertex 4 Xcoordinate
    -2.1002,                  !- Vertex 4 Ycoordinate
    15;                       !- Vertex 4 Zcoordinate

BUILDINGSURFACE:DETAILED,
    Block Build0_Alt0 Storey 0 Wall 0004,    !- Name
    wall,                     !- Surface Type
    Project Wall,             !- Construction Name
    Block Build0_Alt0 Storey 0,    !- Zone Name
    outdoors,                 !- Outside Boundary Condition
    ,                         !- Outside Boundary Condition Object
    SunExposed,               !- Sun Exposure
    WindExposed,              !- Wind Exposure
    autocalculate,            !- View Factor to Ground
    autocalculate,            !- Number of Vertices
    17.4059,                  !- Vertex 1 Xcoordinate
    -2.1002,                  !- Vertex 1 Ycoordinate
    15,                       !- Vertex 1 Zcoordinate
    17.4059,                  !- Vertex 2 Xcoordinate
    -2.1002,                  !- Vertex 2 Ycoordinate
    0,                        !- Vertex 2 Zcoordinate
    17.5789,                  !- Vertex 3 Xcoordinate
    2.8128,                   !- Vertex 3 Ycoordinate
    0,                        !- Vertex 3 Zcoordinate
    17.5789,                  !- Vertex 4 Xcoordinate
    2.8128,                   !- Vertex 4 Ycoordinate
    15;                       !- Vertex 4 Zcoordinate

BUILDINGSURFACE:DETAILED,
    Block Build0_Alt0 Storey 0 Wall 0005,    !- Name
    wall,                     !- Surface Type
    Project Wall,             !- Construction Name
    Block Build0_Alt0 Storey 0,    !- Zone Name
    outdoors,                 !- Outside Boundary Condition
    ,                         !- Outside Boundary Condition Object
    SunExposed,               !- Sun Exposure
    WindExposed,              !- Wind Exposure
    autocalculate,            !- View Factor to Ground
    autocalculate,            !- Number of Vertices
    17.5789,                  !- Vertex 1 Xcoordinate
    2.8128,                   !- Vertex 1 Ycoordinate
    15,                       !- Vertex 1 Zcoordinate
    17.5789,                  !- Vertex 2 Xcoordinate
    2.8128,                   !- Vertex 2 Ycoordinate
    0,                        !- Vertex 2 Zcoordinate
    11.1119,                  !- Vertex 3 Xcoordinate
    5.2188,                   !- Vertex 3 Ycoordinate
    0,                        !- Vertex 3 Zcoordinate
    11.1119,                  !- Vertex 4 Xcoordinate
    5.2188,                   !- Vertex 4 Ycoordinate
    15;                       !- Vertex 4 Zcoordinate

BUILDINGSURFACE:DETAILED,
    Block Build0_Alt0 Storey 0 Wall 0006,    !- Name
    wall,                     !- Surface Type
    Project Wall,             !- Construction Name
    Block Build0_Alt0 Storey 0,    !- Zone Name
    outdoors,                 !- Outside Boundary Condition
    ,                         !- Outside Boundary Condition Object
    SunExposed,               !- Sun Exposure
    WindExposed,              !- Wind Exposure
    autocalculate,            !- View Factor to Ground
    autocalculate,            !- Number of Vertices
    11.1119,                  !- Vertex 1 Xcoordinate
    5.2188,                   !- Vertex 1 Ycoordinate
    15,                       !- Vertex 1 Zcoordinate
    11.1119,                  !- Vertex 2 Xcoordinate
    5.2188,                   !- Vertex 2 Ycoordinate
    0,                        !- Vertex 2 Zcoordinate
    5.5399,                   !- Vertex 3 Xcoordinate
    5.5628,                   !- Vertex 3 Ycoordinate
    0,                        !- Vertex 3 Zcoordinate
    5.5399,                   !- Vertex 4 Xcoordinate
    5.5628,                   !- Vertex 4 Ycoordinate
    15;                       !- Vertex 4 Zcoordinate

BUILDINGSURFACE:DETAILED,
    Block Build0_Alt0 Storey 0 Wall 0007,    !- Name
    wall,                     !- Surface Type
    Project Wall,             !- Construction Name
    Block Build0_Alt0 Storey 0,    !- Zone Name
    outdoors,                 !- Outside Boundary Condition
    ,                         !- Outside Boundary Condition Object
    SunExposed,               !- Sun Exposure
    WindExposed,              !- Wind Exposure
    autocalculate,            !- View Factor to Ground
    autocalculate,            !- Number of Vertices
    5.5399,                   !- Vertex 1 Xcoordinate
    5.5628,                   !- Vertex 1 Ycoordinate
    15,                       !- Vertex 1 Zcoordinate
    5.5399,                   !- Vertex 2 Xcoordinate
    5.5628,                   !- Vertex 2 Ycoordinate
    0,                        !- Vertex 2 Zcoordinate
    1.3489,                   !- Vertex 3 Xcoordinate
    2.0178,                   !- Vertex 3 Ycoordinate
    0,                        !- Vertex 3 Zcoordinate
    1.3489,                   !- Vertex 4 Xcoordinate
    2.0178,                   !- Vertex 4 Ycoordinate
    15;                       !- Vertex 4 Zcoordinate

BUILDINGSURFACE:DETAILED,
    Block Build0_Alt0 Storey 0 Wall 0008,    !- Name
    wall,                     !- Surface Type
    Project Wall,             !- Construction Name
    Block Build0_Alt0 Storey 0,    !- Zone Name
    outdoors,                 !- Outside Boundary Condition
    ,                         !- Outside Boundary Condition Object
    SunExposed,               !- Sun Exposure
    WindExposed,              !- Wind Exposure
    autocalculate,            !- View Factor to Ground
    autocalculate,            !- Number of Vertices
    1.3489,                   !- Vertex 1 Xcoordinate
    2.0178,                   !- Vertex 1 Ycoordinate
    15,                       !- Vertex 1 Zcoordinate
    1.3489,                   !- Vertex 2 Xcoordinate
    2.0178,                   !- Vertex 2 Ycoordinate
    0,                        !- Vertex 2 Zcoordinate
    -4.8921,                  !- Vertex 3 Xcoordinate
    9.2878,                   !- Vertex 3 Ycoordinate
    0,                        !- Vertex 3 Zcoordinate
    -4.8921,                  !- Vertex 4 Xcoordinate
    9.2878,                   !- Vertex 4 Ycoordinate
    15;                       !- Vertex 4 Zcoordinate

BUILDINGSURFACE:DETAILED,
    Block Build0_Alt0 Storey 0 Wall 0009,    !- Name
    wall,                     !- Surface Type
    Project Wall,             !- Construction Name
    Block Build0_Alt0 Storey 0,    !- Zone Name
    outdoors,                 !- Outside Boundary Condition
    ,                         !- Outside Boundary Condition Object
    SunExposed,               !- Sun Exposure
    WindExposed,              !- Wind Exposure
    autocalculate,            !- View Factor to Ground
    autocalculate,            !- Number of Vertices
    -4.8921,                  !- Vertex 1 Xcoordinate
    9.2878,                   !- Vertex 1 Ycoordinate
    15,                       !- Vertex 1 Zcoordinate
    -4.8921,                  !- Vertex 2 Xcoordinate
    9.2878,                   !- Vertex 2 Ycoordinate
    0,                        !- Vertex 2 Zcoordinate
    12.0559,                  !- Vertex 3 Xcoordinate
    23.8808,                  !- Vertex 3 Ycoordinate
    0,                        !- Vertex 3 Zcoordinate
    12.0559,                  !- Vertex 4 Xcoordinate
    23.8808,                  !- Vertex 4 Ycoordinate
    15;                       !- Vertex 4 Zcoordinate

BUILDINGSURFACE:DETAILED,
    Block Build0_Alt0 Storey 0 Wall 0010,    !- Name
    wall,                     !- Surface Type
    Project Wall,             !- Construction Name
    Block Build0_Alt0 Storey 0,    !- Zone Name
    outdoors,                 !- Outside Boundary Condition
    ,                         !- Outside Boundary Condition Object
    SunExposed,               !- Sun Exposure
    WindExposed,              !- Wind Exposure
    autocalculate,            !- View Factor to Ground
    autocalculate,            !- Number of Vertices
    12.0559,                  !- Vertex 1 Xcoordinate
    23.8808,                  !- Vertex 1 Ycoordinate
    15,                       !- Vertex 1 Zcoordinate
    12.0559,                  !- Vertex 2 Xcoordinate
    23.8808,                  !- Vertex 2 Ycoordinate
    0,                        !- Vertex 2 Zcoordinate
    18.5549,                  !- Vertex 3 Xcoordinate
    16.4208,                  !- Vertex 3 Ycoordinate
    0,                        !- Vertex 3 Zcoordinate
    18.5549,                  !- Vertex 4 Xcoordinate
    16.4208,                  !- Vertex 4 Ycoordinate
    15;                       !- Vertex 4 Zcoordinate

BUILDINGSURFACE:DETAILED,
    Block Build0_Alt0 Storey 0 Wall 0011,    !- Name
    wall,                     !- Surface Type
    Project Wall,             !- Construction Name
    Block Build0_Alt0 Storey 0,    !- Zone Name
    outdoors,                 !- Outside Boundary Condition
    ,                         !- Outside Boundary Condition Object
    SunExposed,               !- Sun Exposure
    WindExposed,              !- Wind Exposure
    autocalculate,            !- View Factor to Ground
    autocalculate,            !- Number of Vertices
    18.5549,                  !- Vertex 1 Xcoordinate
    16.4208,                  !- Vertex 1 Ycoordinate
    15,                       !- Vertex 1 Zcoordinate
    18.5549,                  !- Vertex 2 Xcoordinate
    16.4208,                  !- Vertex 2 Ycoordinate
    0,                        !- Vertex 2 Zcoordinate
    25.0579,                  !- Vertex 3 Xcoordinate
    21.9748,                  !- Vertex 3 Ycoordinate
    0,                        !- Vertex 3 Zcoordinate
    25.0579,                  !- Vertex 4 Xcoordinate
    21.9748,                  !- Vertex 4 Ycoordinate
    15;                       !- Vertex 4 Zcoordinate

BUILDINGSURFACE:DETAILED,
    Block Build0_Alt0 Storey 0 Wall 0012,    !- Name
    wall,                     !- Surface Type
    Project Wall,             !- Construction Name
    Block Build0_Alt0 Storey 0,    !- Zone Name
    outdoors,                 !- Outside Boundary Condition
    ,                         !- Outside Boundary Condition Object
    SunExposed,               !- Sun Exposure
    WindExposed,              !- Wind Exposure
    autocalculate,            !- View Factor to Ground
    autocalculate,            !- Number of Vertices
    25.0579,                  !- Vertex 1 Xcoordinate
    21.9748,                  !- Vertex 1 Ycoordinate
    15,                       !- Vertex 1 Zcoordinate
    25.0579,                  !- Vertex 2 Xcoordinate
    21.9748,                  !- Vertex 2 Ycoordinate
    0,                        !- Vertex 2 Zcoordinate
    18.5989,                  !- Vertex 3 Xcoordinate
    29.6368,                  !- Vertex 3 Ycoordinate
    0,                        !- Vertex 3 Zcoordinate
    18.5989,                  !- Vertex 4 Xcoordinate
    29.6368,                  !- Vertex 4 Ycoordinate
    15;                       !- Vertex 4 Zcoordinate

BUILDINGSURFACE:DETAILED,
    Block Build0_Alt0 Storey 0 Wall 0013,    !- Name
    wall,                     !- Surface Type
    Project Wall,             !- Construction Name
    Block Build0_Alt0 Storey 0,    !- Zone Name
    outdoors,                 !- Outside Boundary Condition
    ,                         !- Outside Boundary Condition Object
    SunExposed,               !- Sun Exposure
    WindExposed,              !- Wind Exposure
    autocalculate,            !- View Factor to Ground
    autocalculate,            !- Number of Vertices
    18.5989,                  !- Vertex 1 Xcoordinate
    29.6368,                  !- Vertex 1 Ycoordinate
    15,                       !- Vertex 1 Zcoordinate
    18.5989,                  !- Vertex 2 Xcoordinate
    29.6368,                  !- Vertex 2 Ycoordinate
    0,                        !- Vertex 2 Zcoordinate
    21.6289,                  !- Vertex 3 Xcoordinate
    32.3288,                  !- Vertex 3 Ycoordinate
    0,                        !- Vertex 3 Zcoordinate
    21.6289,                  !- Vertex 4 Xcoordinate
    32.3288,                  !- Vertex 4 Ycoordinate
    15;                       !- Vertex 4 Zcoordinate

BUILDINGSURFACE:DETAILED,
    Block Build0_Alt0 Storey 0 Wall 0014,    !- Name
    wall,                     !- Surface Type
    Project Wall,             !- Construction Name
    Block Build0_Alt0 Storey 0,    !- Zone Name
    outdoors,                 !- Outside Boundary Condition
    ,                         !- Outside Boundary Condition Object
    SunExposed,               !- Sun Exposure
    WindExposed,              !- Wind Exposure
    autocalculate,            !- View Factor to Ground
    autocalculate,            !- Number of Vertices
    21.6289,                  !- Vertex 1 Xcoordinate
    32.3288,                  !- Vertex 1 Ycoordinate
    15,                       !- Vertex 1 Zcoordinate
    21.6289,                  !- Vertex 2 Xcoordinate
    32.3288,                  !- Vertex 2 Ycoordinate
    0,                        !- Vertex 2 Zcoordinate
    15.7549,                  !- Vertex 3 Xcoordinate
    39.2658,                  !- Vertex 3 Ycoordinate
    0,                        !- Vertex 3 Zcoordinate
    15.7549,                  !- Vertex 4 Xcoordinate
    39.2658,                  !- Vertex 4 Ycoordinate
    15;                       !- Vertex 4 Zcoordinate

BUILDINGSURFACE:DETAILED,
    Block Build0_Alt0 Storey 0 Wall 0015,    !- Name
    wall,                     !- Surface Type
    Project Wall,             !- Construction Name
    Block Build0_Alt0 Storey 0,    !- Zone Name
    outdoors,                 !- Outside Boundary Condition
    ,                         !- Outside Boundary Condition Object
    SunExposed,               !- Sun Exposure
    WindExposed,              !- Wind Exposure
    autocalculate,            !- View Factor to Ground
    autocalculate,            !- Number of Vertices
    15.7549,                  !- Vertex 1 Xcoordinate
    39.2658,                  !- Vertex 1 Ycoordinate
    15,                       !- Vertex 1 Zcoordinate
    15.7549,                  !- Vertex 2 Xcoordinate
    39.2658,                  !- Vertex 2 Ycoordinate
    0,                        !- Vertex 2 Zcoordinate
    10.0239,                  !- Vertex 3 Xcoordinate
    34.3478,                  !- Vertex 3 Ycoordinate
    0,                        !- Vertex 3 Zcoordinate
    10.0239,                  !- Vertex 4 Xcoordinate
    34.3478,                  !- Vertex 4 Ycoordinate
    15;                       !- Vertex 4 Zcoordinate

BUILDINGSURFACE:DETAILED,
    Block Build0_Alt0 Storey 0 Wall 0016,    !- Name
    wall,                     !- Surface Type
    Project Wall,             !- Construction Name
    Block Build0_Alt0 Storey 0,    !- Zone Name
    outdoors,                 !- Outside Boundary Condition
    ,                         !- Outside Boundary Condition Object
    SunExposed,               !- Sun Exposure
    WindExposed,              !- Wind Exposure
    autocalculate,            !- View Factor to Ground
    autocalculate,            !- Number of Vertices
    10.0239,                  !- Vertex 1 Xcoordinate
    34.3478,                  !- Vertex 1 Ycoordinate
    15,                       !- Vertex 1 Zcoordinate
    10.0239,                  !- Vertex 2 Xcoordinate
    34.3478,                  !- Vertex 2 Ycoordinate
    0,                        !- Vertex 2 Zcoordinate
    7.3319,                   !- Vertex 3 Xcoordinate
    37.3778,                  !- Vertex 3 Ycoordinate
    0,                        !- Vertex 3 Zcoordinate
    7.3319,                   !- Vertex 4 Xcoordinate
    37.3778,                  !- Vertex 4 Ycoordinate
    15;                       !- Vertex 4 Zcoordinate

BUILDINGSURFACE:DETAILED,
    Block Build0_Alt0 Storey 0 Wall 0017,    !- Name
    wall,                     !- Surface Type
    Project Wall,             !- Construction Name
    Block Build0_Alt0 Storey 0,    !- Zone Name
    outdoors,                 !- Outside Boundary Condition
    ,                         !- Outside Boundary Condition Object
    SunExposed,               !- Sun Exposure
    WindExposed,              !- Wind Exposure
    autocalculate,            !- View Factor to Ground
    autocalculate,            !- Number of Vertices
    7.3319,                   !- Vertex 1 Xcoordinate
    37.3778,                  !- Vertex 1 Ycoordinate
    15,                       !- Vertex 1 Zcoordinate
    7.3319,                   !- Vertex 2 Xcoordinate
    37.3778,                  !- Vertex 2 Ycoordinate
    0,                        !- Vertex 2 Zcoordinate
    2.1779,                   !- Vertex 3 Xcoordinate
    32.9878,                  !- Vertex 3 Ycoordinate
    0,                        !- Vertex 3 Zcoordinate
    2.1779,                   !- Vertex 4 Xcoordinate
    32.9878,                  !- Vertex 4 Ycoordinate
    15;                       !- Vertex 4 Zcoordinate

BUILDINGSURFACE:DETAILED,
    Block Build0_Alt0 Storey 0 Wall 0018,    !- Name
    wall,                     !- Surface Type
    Project Wall,             !- Construction Name
    Block Build0_Alt0 Storey 0,    !- Zone Name
    outdoors,                 !- Outside Boundary Condition
    ,                         !- Outside Boundary Condition Object
    SunExposed,               !- Sun Exposure
    WindExposed,              !- Wind Exposure
    autocalculate,            !- View Factor to Ground
    autocalculate,            !- Number of Vertices
    2.1779,                   !- Vertex 1 Xcoordinate
    32.9878,                  !- Vertex 1 Ycoordinate
    15,                       !- Vertex 1 Zcoordinate
    2.1779,                   !- Vertex 2 Xcoordinate
    32.9878,                  !- Vertex 2 Ycoordinate
    0,                        !- Vertex 2 Zcoordinate
    4.8169,                   !- Vertex 3 Xcoordinate
    30.0058,                  !- Vertex 3 Ycoordinate
    0,                        !- Vertex 3 Zcoordinate
    4.8169,                   !- Vertex 4 Xcoordinate
    30.0058,                  !- Vertex 4 Ycoordinate
    15;                       !- Vertex 4 Zcoordinate

BUILDINGSURFACE:DETAILED,
    Block Build0_Alt0 Storey 0 Wall 0019,    !- Name
    wall,                     !- Surface Type
    Project Wall,             !- Construction Name
    Block Build0_Alt0 Storey 0,    !- Zone Name
    outdoors,                 !- Outside Boundary Condition
    ,                         !- Outside Boundary Condition Object
    SunExposed,               !- Sun Exposure
    WindExposed,              !- Wind Exposure
    autocalculate,            !- View Factor to Ground
    autocalculate,            !- Number of Vertices
    4.8169,                   !- Vertex 1 Xcoordinate
    30.0058,                  !- Vertex 1 Ycoordinate
    15,                       !- Vertex 1 Zcoordinate
    4.8169,                   !- Vertex 2 Xcoordinate
    30.0058,                  !- Vertex 2 Ycoordinate
    0,                        !- Vertex 2 Zcoordinate
    -7.6011,                  !- Vertex 3 Xcoordinate
    19.2238,                  !- Vertex 3 Ycoordinate
    0,                        !- Vertex 3 Zcoordinate
    -7.6011,                  !- Vertex 4 Xcoordinate
    19.2238,                  !- Vertex 4 Ycoordinate
    15;                       !- Vertex 4 Zcoordinate

BUILDINGSURFACE:DETAILED,
    Block Build0_Alt0 Storey 0 Wall 0020,    !- Name
    wall,                     !- Surface Type
    Project Wall,             !- Construction Name
    Block Build0_Alt0 Storey 0,    !- Zone Name
    outdoors,                 !- Outside Boundary Condition
    ,                         !- Outside Boundary Condition Object
    SunExposed,               !- Sun Exposure
    WindExposed,              !- Wind Exposure
    autocalculate,            !- View Factor to Ground
    autocalculate,            !- Number of Vertices
    -7.6011,                  !- Vertex 1 Xcoordinate
    19.2238,                  !- Vertex 1 Ycoordinate
    15,                       !- Vertex 1 Zcoordinate
    -7.6011,                  !- Vertex 2 Xcoordinate
    19.2238,                  !- Vertex 2 Ycoordinate
    0,                        !- Vertex 2 Zcoordinate
    -10.1981,                 !- Vertex 3 Xcoordinate
    22.3588,                  !- Vertex 3 Ycoordinate
    0,                        !- Vertex 3 Zcoordinate
    -10.1981,                 !- Vertex 4 Xcoordinate
    22.3588,                  !- Vertex 4 Ycoordinate
    15;                       !- Vertex 4 Zcoordinate

BUILDINGSURFACE:DETAILED,
    Block Build0_Alt0 Storey 0 Wall 0021,    !- Name
    wall,                     !- Surface Type
    Project Wall,             !- Construction Name
    Block Build0_Alt0 Storey 0,    !- Zone Name
    outdoors,                 !- Outside Boundary Condition
    ,                         !- Outside Boundary Condition Object
    SunExposed,               !- Sun Exposure
    WindExposed,              !- Wind Exposure
    autocalculate,            !- View Factor to Ground
    autocalculate,            !- Number of Vertices
    -10.1981,                 !- Vertex 1 Xcoordinate
    22.3588,                  !- Vertex 1 Ycoordinate
    15,                       !- Vertex 1 Zcoordinate
    -10.1981,                 !- Vertex 2 Xcoordinate
    22.3588,                  !- Vertex 2 Ycoordinate
    0,                        !- Vertex 2 Zcoordinate
    -15.3001,                 !- Vertex 3 Xcoordinate
    17.9198,                  !- Vertex 3 Ycoordinate
    0,                        !- Vertex 3 Zcoordinate
    -15.3001,                 !- Vertex 4 Xcoordinate
    17.9198,                  !- Vertex 4 Ycoordinate
    15;                       !- Vertex 4 Zcoordinate

BUILDINGSURFACE:DETAILED,
    Block Build0_Alt0 Storey 0 Wall 0022,    !- Name
    wall,                     !- Surface Type
    Project Wall,             !- Construction Name
    Block Build0_Alt0 Storey 0,    !- Zone Name
    outdoors,                 !- Outside Boundary Condition
    ,                         !- Outside Boundary Condition Object
    SunExposed,               !- Sun Exposure
    WindExposed,              !- Wind Exposure
    autocalculate,            !- View Factor to Ground
    autocalculate,            !- Number of Vertices
    -15.3001,                 !- Vertex 1 Xcoordinate
    17.9198,                  !- Vertex 1 Ycoordinate
    15,                       !- Vertex 1 Zcoordinate
    -15.3001,                 !- Vertex 2 Xcoordinate
    17.9198,                  !- Vertex 2 Ycoordinate
    0,                        !- Vertex 2 Zcoordinate
    -12.7601,                 !- Vertex 3 Xcoordinate
    14.9328,                  !- Vertex 3 Ycoordinate
    0,                        !- Vertex 3 Zcoordinate
    -12.7601,                 !- Vertex 4 Xcoordinate
    14.9328,                  !- Vertex 4 Ycoordinate
    15;                       !- Vertex 4 Zcoordinate

BUILDINGSURFACE:DETAILED,
    Block Build0_Alt0 Storey 0 Wall 0023,    !- Name
    wall,                     !- Surface Type
    Project Wall,             !- Construction Name
    Block Build0_Alt0 Storey 0,    !- Zone Name
    outdoors,                 !- Outside Boundary Condition
    ,                         !- Outside Boundary Condition Object
    SunExposed,               !- Sun Exposure
    WindExposed,              !- Wind Exposure
    autocalculate,            !- View Factor to Ground
    autocalculate,            !- Number of Vertices
    -12.7601,                 !- Vertex 1 Xcoordinate
    14.9328,                  !- Vertex 1 Ycoordinate
    15,                       !- Vertex 1 Zcoordinate
    -12.7601,                 !- Vertex 2 Xcoordinate
    14.9328,                  !- Vertex 2 Ycoordinate
    0,                        !- Vertex 2 Zcoordinate
    -20.5081,                 !- Vertex 3 Xcoordinate
    8.1708,                   !- Vertex 3 Ycoordinate
    0,                        !- Vertex 3 Zcoordinate
    -20.5081,                 !- Vertex 4 Xcoordinate
    8.1708,                   !- Vertex 4 Ycoordinate
    15;                       !- Vertex 4 Zcoordinate

BUILDINGSURFACE:DETAILED,
    Block Build0_Alt0 Storey 0 Wall 0024,    !- Name
    wall,                     !- Surface Type
    Project Wall,             !- Construction Name
    Block Build0_Alt0 Storey 0,    !- Zone Name
    outdoors,                 !- Outside Boundary Condition
    ,                         !- Outside Boundary Condition Object
    SunExposed,               !- Sun Exposure
    WindExposed,              !- Wind Exposure
    autocalculate,            !- View Factor to Ground
    autocalculate,            !- Number of Vertices
    -20.5081,                 !- Vertex 1 Xcoordinate
    8.1708,                   !- Vertex 1 Ycoordinate
    15,                       !- Vertex 1 Zcoordinate
    -20.5081,                 !- Vertex 2 Xcoordinate
    8.1708,                   !- Vertex 2 Ycoordinate
    0,                        !- Vertex 2 Zcoordinate
    -14.4261,                 !- Vertex 3 Xcoordinate
    1.0928,                   !- Vertex 3 Ycoordinate
    0,                        !- Vertex 3 Zcoordinate
    -14.4261,                 !- Vertex 4 Xcoordinate
    1.0928,                   !- Vertex 4 Ycoordinate
    15;                       !- Vertex 4 Zcoordinate

BUILDINGSURFACE:DETAILED,
    Block Build0_Alt0 Storey 0 Wall 0025,    !- Name
    wall,                     !- Surface Type
    Project Wall,             !- Construction Name
    Block Build0_Alt0 Storey 0,    !- Zone Name
    outdoors,                 !- Outside Boundary Condition
    ,                         !- Outside Boundary Condition Object
    SunExposed,               !- Sun Exposure
    WindExposed,              !- Wind Exposure
    autocalculate,            !- View Factor to Ground
    autocalculate,            !- Number of Vertices
    -14.4261,                 !- Vertex 1 Xcoordinate
    1.0928,                   !- Vertex 1 Ycoordinate
    15,                       !- Vertex 1 Zcoordinate
    -14.4261,                 !- Vertex 2 Xcoordinate
    1.0928,                   !- Vertex 2 Ycoordinate
    0,                        !- Vertex 2 Zcoordinate
    -11.3421,                 !- Vertex 3 Xcoordinate
    3.6868,                   !- Vertex 3 Ycoordinate
    0,                        !- Vertex 3 Zcoordinate
    -11.3421,                 !- Vertex 4 Xcoordinate
    3.6868,                   !- Vertex 4 Ycoordinate
    15;                       !- Vertex 4 Zcoordinate

BUILDINGSURFACE:DETAILED,
    Block Build0_Alt0 Storey 0 Wall 0026,    !- Name
    wall,                     !- Surface Type
    Project Wall,             !- Construction Name
    Block Build0_Alt0 Storey 0,    !- Zone Name
    outdoors,                 !- Outside Boundary Condition
    ,                         !- Outside Boundary Condition Object
    SunExposed,               !- Sun Exposure
    WindExposed,              !- Wind Exposure
    autocalculate,            !- View Factor to Ground
    autocalculate,            !- Number of Vertices
    -11.3421,                 !- Vertex 1 Xcoordinate
    3.6868,                   !- Vertex 1 Ycoordinate
    15,                       !- Vertex 1 Zcoordinate
    -11.3421,                 !- Vertex 2 Xcoordinate
    3.6868,                   !- Vertex 2 Ycoordinate
    0,                        !- Vertex 2 Zcoordinate
    -0.7071,                  !- Vertex 3 Xcoordinate
    -8.7872,                  !- Vertex 3 Ycoordinate
    0,                        !- Vertex 3 Zcoordinate
    -0.7071,                  !- Vertex 4 Xcoordinate
    -8.7872,                  !- Vertex 4 Ycoordinate
    15;                       !- Vertex 4 Zcoordinate

BUILDINGSURFACE:DETAILED,
    Block Build0_Alt0 Storey 0 Wall 0027,    !- Name
    wall,                     !- Surface Type
    Project Wall,             !- Construction Name
    Block Build0_Alt0 Storey 0,    !- Zone Name
    outdoors,                 !- Outside Boundary Condition
    ,                         !- Outside Boundary Condition Object
    SunExposed,               !- Sun Exposure
    WindExposed,              !- Wind Exposure
    autocalculate,            !- View Factor to Ground
    autocalculate,            !- Number of Vertices
    -0.7071,                  !- Vertex 1 Xcoordinate
    -8.7872,                  !- Vertex 1 Ycoordinate
    15,                       !- Vertex 1 Zcoordinate
    -0.7071,                  !- Vertex 2 Xcoordinate
    -8.7872,                  !- Vertex 2 Ycoordinate
    0,                        !- Vertex 2 Zcoordinate
    -3.7911,                  !- Vertex 3 Xcoordinate
    -11.3812,                 !- Vertex 3 Ycoordinate
    0,                        !- Vertex 3 Zcoordinate
    -3.7911,                  !- Vertex 4 Xcoordinate
    -11.3812,                 !- Vertex 4 Ycoordinate
    15;                       !- Vertex 4 Zcoordinate

BUILDINGSURFACE:DETAILED,
    Block Build0_Alt0 Storey 0 Wall 0028,    !- Name
    wall,                     !- Surface Type
    Project Wall,             !- Construction Name
    Block Build0_Alt0 Storey 0,    !- Zone Name
    outdoors,                 !- Outside Boundary Condition
    ,                         !- Outside Boundary Condition Object
    SunExposed,               !- Sun Exposure
    WindExposed,              !- Wind Exposure
    autocalculate,            !- View Factor to Ground
    autocalculate,            !- Number of Vertices
    -3.7911,                  !- Vertex 1 Xcoordinate
    -11.3812,                 !- Vertex 1 Ycoordinate
    15,                       !- Vertex 1 Zcoordinate
    -3.7911,                  !- Vertex 2 Xcoordinate
    -11.3812,                 !- Vertex 2 Ycoordinate
    0,                        !- Vertex 2 Zcoordinate
    0.6479,                   !- Vertex 3 Xcoordinate
    -16.4822,                 !- Vertex 3 Ycoordinate
    0,                        !- Vertex 3 Zcoordinate
    0.6479,                   !- Vertex 4 Xcoordinate
    -16.4822,                 !- Vertex 4 Ycoordinate
    15;                       !- Vertex 4 Zcoordinate

BUILDINGSURFACE:DETAILED,
    Block Build0_Alt0 Storey 0 Wall 0029,    !- Name
    wall,                     !- Surface Type
    Project Wall,             !- Construction Name
    Block Build0_Alt0 Storey 0,    !- Zone Name
    outdoors,                 !- Outside Boundary Condition
    ,                         !- Outside Boundary Condition Object
    SunExposed,               !- Sun Exposure
    WindExposed,              !- Wind Exposure
    autocalculate,            !- View Factor to Ground
    autocalculate,            !- Number of Vertices
    0.6479,                   !- Vertex 1 Xcoordinate
    -16.4822,                 !- Vertex 1 Ycoordinate
    15,                       !- Vertex 1 Zcoordinate
    0.6479,                   !- Vertex 2 Xcoordinate
    -16.4822,                 !- Vertex 2 Ycoordinate
    0,                        !- Vertex 2 Zcoordinate
    3.6819,                   !- Vertex 3 Xcoordinate
    -13.8912,                 !- Vertex 3 Ycoordinate
    0,                        !- Vertex 3 Zcoordinate
    3.6819,                   !- Vertex 4 Xcoordinate
    -13.8912,                 !- Vertex 4 Ycoordinate
    15;                       !- Vertex 4 Zcoordinate

BUILDINGSURFACE:DETAILED,
    Block Build0_Alt0 Storey 0 Wall 0030,    !- Name
    wall,                     !- Surface Type
    Project Wall,             !- Construction Name
    Block Build0_Alt0 Storey 0,    !- Zone Name
    outdoors,                 !- Outside Boundary Condition
    ,                         !- Outside Boundary Condition Object
    SunExposed,               !- Sun Exposure
    WindExposed,              !- Wind Exposure
    autocalculate,            !- View Factor to Ground
    autocalculate,            !- Number of Vertices
    3.6819,                   !- Vertex 1 Xcoordinate
    -13.8912,                 !- Vertex 1 Ycoordinate
    15,                       !- Vertex 1 Zcoordinate
    3.6819,                   !- Vertex 2 Xcoordinate
    -13.8912,                 !- Vertex 2 Ycoordinate
    0,                        !- Vertex 2 Zcoordinate
    13.0009,                  !- Vertex 3 Xcoordinate
    -24.9742,                 !- Vertex 3 Ycoordinate
    0,                        !- Vertex 3 Zcoordinate
    13.0009,                  !- Vertex 4 Xcoordinate
    -24.9742,                 !- Vertex 4 Ycoordinate
    15;                       !- Vertex 4 Zcoordinate

BUILDINGSURFACE:DETAILED,
    Block Build0_Alt0 Storey 0 Wall 0031,    !- Name
    wall,                     !- Surface Type
    Project Wall,             !- Construction Name
    Block Build0_Alt0 Storey 0,    !- Zone Name
    outdoors,                 !- Outside Boundary Condition
    ,                         !- Outside Boundary Condition Object
    SunExposed,               !- Sun Exposure
    WindExposed,              !- Wind Exposure
    autocalculate,            !- View Factor to Ground
    autocalculate,            !- Number of Vertices
    13.0009,                  !- Vertex 1 Xcoordinate
    -24.9742,                 !- Vertex 1 Ycoordinate
    15,                       !- Vertex 1 Zcoordinate
    13.0009,                  !- Vertex 2 Xcoordinate
    -24.9742,                 !- Vertex 2 Ycoordinate
    0,                        !- Vertex 2 Zcoordinate
    29.9089,                  !- Vertex 3 Xcoordinate
    -10.5852,                 !- Vertex 3 Ycoordinate
    0,                        !- Vertex 3 Zcoordinate
    29.9089,                  !- Vertex 4 Xcoordinate
    -10.5852,                 !- Vertex 4 Ycoordinate
    15;                       !- Vertex 4 Zcoordinate

BUILDINGSURFACE:DETAILED,
    Block Build0_Alt0 Storey -1 Ceiling 0001_1,    !- Name
    ceiling,                  !- Surface Type
    Project Heated1rstFloor Rev,    !- Construction Name
    Block Build0_Alt0 Storey -1,    !- Zone Name
    surface,                  !- Outside Boundary Condition
    Block Build0_Alt0 Storey 0 Floor 0001_1,    !- Outside Boundary Condition Object
    NoSun,                    !- Sun Exposure
    NoWind,                   !- Wind Exposure
    autocalculate,            !- View Factor to Ground
    autocalculate,            !- Number of Vertices
    29.90889999968931,        !- Vertex 1 Xcoordinate
    -10.585199999623,         !- Vertex 1 Ycoordinate
    0,                        !- Vertex 1 Zcoordinate
    25.4648999995552,         !- Vertex 2 Xcoordinate
    -5.383199999574572,       !- Vertex 2 Ycoordinate
    0,                        !- Vertex 2 Zcoordinate
    22.482899999711663,       !- Vertex 3 Xcoordinate
    -8.023199999704957,       !- Vertex 3 Ycoordinate
    0,                        !- Vertex 3 Zcoordinate
    17.405899999663234,       !- Vertex 4 Xcoordinate
    -2.100199999753386,       !- Vertex 4 Ycoordinate
    0,                        !- Vertex 4 Zcoordinate
    17.578899999614805,       !- Vertex 5 Xcoordinate
    2.8127999999560416,       !- Vertex 5 Ycoordinate
    0,                        !- Vertex 5 Zcoordinate
    11.111899999901652,       !- Vertex 6 Xcoordinate
    5.218799999915063,        !- Vertex 6 Ycoordinate
    0,                        !- Vertex 6 Zcoordinate
    5.539899999741465,        !- Vertex 7 Xcoordinate
    5.562799999956042,        !- Vertex 7 Ycoordinate
    0,                        !- Vertex 7 Zcoordinate
    1.3488999996334314,       !- Vertex 8 Xcoordinate
    2.017799999564886,        !- Vertex 8 Ycoordinate
    0,                        !- Vertex 8 Zcoordinate
    -4.892099999822676,       !- Vertex 9 Xcoordinate
    9.287799999583513,        !- Vertex 9 Ycoordinate
    0,                        !- Vertex 9 Zcoordinate
    12.055899999570101,       !- Vertex 10 Xcoordinate
    23.88079999992624,        !- Vertex 10 Ycoordinate
    0,                        !- Vertex 10 Zcoordinate
    18.55489999987185,        !- Vertex 11 Xcoordinate
    16.420799999963492,       !- Vertex 11 Ycoordinate
    0,                        !- Vertex 11 Zcoordinate
    25.057899999897927,       !- Vertex 12 Xcoordinate
    21.974799999967217,       !- Vertex 12 Ycoordinate
    0,                        !- Vertex 12 Zcoordinate
    18.59889999963343,        !- Vertex 13 Xcoordinate
    29.636799999978393,       !- Vertex 13 Ycoordinate
    0,                        !- Vertex 13 Zcoordinate
    21.6288999998942,         !- Vertex 14 Xcoordinate
    32.32879999978468,        !- Vertex 14 Ycoordinate
    0,                        !- Vertex 14 Zcoordinate
    15.754899999592453,       !- Vertex 15 Xcoordinate
    39.26579999970272,        !- Vertex 15 Ycoordinate
    0,                        !- Vertex 15 Zcoordinate
    10.023899999912828,       !- Vertex 16 Xcoordinate
    34.34779999963939,        !- Vertex 16 Ycoordinate
    0,                        !- Vertex 16 Zcoordinate
    7.331899999640882,        !- Vertex 17 Xcoordinate
    37.37779999990016,        !- Vertex 17 Ycoordinate
    0,                        !- Vertex 17 Zcoordinate
    2.1778999995440245,       !- Vertex 18 Xcoordinate
    32.98779999976978,        !- Vertex 18 Ycoordinate
    0,                        !- Vertex 18 Zcoordinate
    4.816899999976158,        !- Vertex 19 Xcoordinate
    30.00579999992624,        !- Vertex 19 Ycoordinate
    0,                        !- Vertex 19 Zcoordinate
    -7.601100e+00,            !- Vertex 20 Xcoordinate
    19.223799999803305,       !- Vertex 20 Ycoordinate
    0,                        !- Vertex 20 Zcoordinate
    -1.019810e+01,            !- Vertex 21 Xcoordinate
    22.358799999579787,       !- Vertex 21 Ycoordinate
    0,                        !- Vertex 21 Zcoordinate
    -1.530010e+01,            !- Vertex 22 Xcoordinate
    17.91979999979958,        !- Vertex 22 Ycoordinate
    0,                        !- Vertex 22 Zcoordinate
    -12.76009999960661,       !- Vertex 23 Xcoordinate
    14.932799999602139,       !- Vertex 23 Ycoordinate
    0,                        !- Vertex 23 Zcoordinate
    -2.050810e+01,            !- Vertex 24 Xcoordinate
    8.170799999963492,        !- Vertex 24 Ycoordinate
    0,                        !- Vertex 24 Zcoordinate
    -1.442610e+01,            !- Vertex 25 Xcoordinate
    1.0927999997511506,       !- Vertex 25 Ycoordinate
    0,                        !- Vertex 25 Zcoordinate
    -11.34209999954328,       !- Vertex 26 Xcoordinate
    3.686799999792129,        !- Vertex 26 Ycoordinate
    0,                        !- Vertex 26 Zcoordinate
    -7.071000e-01,            !- Vertex 27 Xcoordinate
    -8.78719999967143,        !- Vertex 27 Ycoordinate
    0,                        !- Vertex 27 Zcoordinate
    -3.791099999565631,       !- Vertex 28 Xcoordinate
    -1.138120e+01,            !- Vertex 28 Ycoordinate
    0,                        !- Vertex 28 Zcoordinate
    0.6478999997489154,       !- Vertex 29 Xcoordinate
    -1.648220e+01,            !- Vertex 29 Ycoordinate
    0,                        !- Vertex 29 Zcoordinate
    3.6818999997340143,       !- Vertex 30 Xcoordinate
    -1.389120e+01,            !- Vertex 30 Ycoordinate
    0,                        !- Vertex 30 Zcoordinate
    13.000899999868125,       !- Vertex 31 Xcoordinate
    -2.497420e+01,            !- Vertex 31 Ycoordinate
    0;                        !- Vertex 31 Zcoordinate

BUILDINGSURFACE:DETAILED,
    Block Build0_Alt0 Storey 0 Floor 0001_1,    !- Name
    floor,                    !- Surface Type
    Project Heated1rstFloor,    !- Construction Name
    Block Build0_Alt0 Storey 0,    !- Zone Name
    surface,                  !- Outside Boundary Condition
    Block Build0_Alt0 Storey -1 Ceiling 0001_1,    !- Outside Boundary Condition Object
    NoSun,                    !- Sun Exposure
    NoWind,                   !- Wind Exposure
    autocalculate,            !- View Factor to Ground
    autocalculate,            !- Number of Vertices
    21.6288999998942,         !- Vertex 1 Xcoordinate
    32.32879999978468,        !- Vertex 1 Ycoordinate
    0,                        !- Vertex 1 Zcoordinate
    18.59889999963343,        !- Vertex 2 Xcoordinate
    29.636799999978393,       !- Vertex 2 Ycoordinate
    0,                        !- Vertex 2 Zcoordinate
    25.057899999897927,       !- Vertex 3 Xcoordinate
    21.974799999967217,       !- Vertex 3 Ycoordinate
    0,                        !- Vertex 3 Zcoordinate
    18.55489999987185,        !- Vertex 4 Xcoordinate
    16.420799999963492,       !- Vertex 4 Ycoordinate
    0,                        !- Vertex 4 Zcoordinate
    12.055899999570101,       !- Vertex 5 Xcoordinate
    23.88079999992624,        !- Vertex 5 Ycoordinate
    0,                        !- Vertex 5 Zcoordinate
    -4.892099999822676,       !- Vertex 6 Xcoordinate
    9.287799999583513,        !- Vertex 6 Ycoordinate
    0,                        !- Vertex 6 Zcoordinate
    1.3488999996334314,       !- Vertex 7 Xcoordinate
    2.017799999564886,        !- Vertex 7 Ycoordinate
    0,                        !- Vertex 7 Zcoordinate
    5.539899999741465,        !- Vertex 8 Xcoordinate
    5.562799999956042,        !- Vertex 8 Ycoordinate
    0,                        !- Vertex 8 Zcoordinate
    11.111899999901652,       !- Vertex 9 Xcoordinate
    5.218799999915063,        !- Vertex 9 Ycoordinate
    0,                        !- Vertex 9 Zcoordinate
    17.578899999614805,       !- Vertex 10 Xcoordinate
    2.8127999999560416,       !- Vertex 10 Ycoordinate
    0,                        !- Vertex 10 Zcoordinate
    17.405899999663234,       !- Vertex 11 Xcoordinate
    -2.100199999753386,       !- Vertex 11 Ycoordinate
    0,                        !- Vertex 11 Zcoordinate
    22.482899999711663,       !- Vertex 12 Xcoordinate
    -8.023199999704957,       !- Vertex 12 Ycoordinate
    0,                        !- Vertex 12 Zcoordinate
    25.4648999995552,         !- Vertex 13 Xcoordinate
    -5.383199999574572,       !- Vertex 13 Ycoordinate
    0,                        !- Vertex 13 Zcoordinate
    29.90889999968931,        !- Vertex 14 Xcoordinate
    -10.585199999623,         !- Vertex 14 Ycoordinate
    0,                        !- Vertex 14 Zcoordinate
    13.000899999868125,       !- Vertex 15 Xcoordinate
    -2.497420e+01,            !- Vertex 15 Ycoordinate
    0,                        !- Vertex 15 Zcoordinate
    3.6818999997340143,       !- Vertex 16 Xcoordinate
    -1.389120e+01,            !- Vertex 16 Ycoordinate
    0,                        !- Vertex 16 Zcoordinate
    0.6478999997489154,       !- Vertex 17 Xcoordinate
    -1.648220e+01,            !- Vertex 17 Ycoordinate
    0,                        !- Vertex 17 Zcoordinate
    -3.791099999565631,       !- Vertex 18 Xcoordinate
    -1.138120e+01,            !- Vertex 18 Ycoordinate
    0,                        !- Vertex 18 Zcoordinate
    -7.071000e-01,            !- Vertex 19 Xcoordinate
    -8.78719999967143,        !- Vertex 19 Ycoordinate
    0,                        !- Vertex 19 Zcoordinate
    -11.34209999954328,       !- Vertex 20 Xcoordinate
    3.686799999792129,        !- Vertex 20 Ycoordinate
    0,                        !- Vertex 20 Zcoordinate
    -1.442610e+01,            !- Vertex 21 Xcoordinate
    1.0927999997511506,       !- Vertex 21 Ycoordinate
    0,                        !- Vertex 21 Zcoordinate
    -2.050810e+01,            !- Vertex 22 Xcoordinate
    8.170799999963492,        !- Vertex 22 Ycoordinate
    0,                        !- Vertex 22 Zcoordinate
    -12.76009999960661,       !- Vertex 23 Xcoordinate
    14.932799999602139,       !- Vertex 23 Ycoordinate
    0,                        !- Vertex 23 Zcoordinate
    -1.530010e+01,            !- Vertex 24 Xcoordinate
    17.91979999979958,        !- Vertex 24 Ycoordinate
    0,                        !- Vertex 24 Zcoordinate
    -1.019810e+01,            !- Vertex 25 Xcoordinate
    22.358799999579787,       !- Vertex 25 Ycoordinate
    0,                        !- Vertex 25 Zcoordinate
    -7.601100e+00,            !- Vertex 26 Xcoordinate
    19.223799999803305,       !- Vertex 26 Ycoordinate
    0,                        !- Vertex 26 Zcoordinate
    4.816899999976158,        !- Vertex 27 Xcoordinate
    30.00579999992624,        !- Vertex 27 Ycoordinate
    0,                        !- Vertex 27 Zcoordinate
    2.1778999995440245,       !- Vertex 28 Xcoordinate
    32.98779999976978,        !- Vertex 28 Ycoordinate
    0,                        !- Vertex 28 Zcoordinate
    7.331899999640882,        !- Vertex 29 Xcoordinate
    37.37779999990016,        !- Vertex 29 Ycoordinate
    0,                        !- Vertex 29 Zcoordinate
    10.023899999912828,       !- Vertex 30 Xcoordinate
    34.34779999963939,        !- Vertex 30 Ycoordinate
    0,                        !- Vertex 30 Zcoordinate
    15.754899999592453,       !- Vertex 31 Xcoordinate
    39.26579999970272,        !- Vertex 31 Ycoordinate
    0;                        !- Vertex 31 Zcoordinate

BUILDINGSURFACE:DETAILED,
    Block Build0_Alt0 Storey 0 Roof 0001_0,    !- Name
    roof,                     !- Surface Type
    Project Flat Roof,        !- Construction Name
    Block Build0_Alt0 Storey 0,    !- Zone Name
    outdoors,                 !- Outside Boundary Condition
    ,                         !- Outside Boundary Condition Object
    SunExposed,               !- Sun Exposure
    WindExposed,              !- Wind Exposure
    autocalculate,            !- View Factor to Ground
    autocalculate,            !- Number of Vertices
    -0.7071,                  !- Vertex 1 Xcoordinate
    -8.7872,                  !- Vertex 1 Ycoordinate
    15,                       !- Vertex 1 Zcoordinate
    -4.8921,                  !- Vertex 2 Xcoordinate
    9.2878,                   !- Vertex 2 Ycoordinate
    15,                       !- Vertex 2 Zcoordinate
    -7.6011,                  !- Vertex 3 Xcoordinate
    19.2238,                  !- Vertex 3 Ycoordinate
    15,                       !- Vertex 3 Zcoordinate
    -11.3421,                 !- Vertex 4 Xcoordinate
    3.6868,                   !- Vertex 4 Ycoordinate
    15;                       !- Vertex 4 Zcoordinate

BUILDINGSURFACE:DETAILED,
    Block Build0_Alt0 Storey 0 Roof 0001_1,    !- Name
    roof,                     !- Surface Type
    Project Flat Roof,        !- Construction Name
    Block Build0_Alt0 Storey 0,    !- Zone Name
    outdoors,                 !- Outside Boundary Condition
    ,                         !- Outside Boundary Condition Object
    SunExposed,               !- Sun Exposure
    WindExposed,              !- Wind Exposure
    autocalculate,            !- View Factor to Ground
    autocalculate,            !- Number of Vertices
    29.9089,                  !- Vertex 1 Xcoordinate
    -10.5852,                 !- Vertex 1 Ycoordinate
    15,                       !- Vertex 1 Zcoordinate
    25.4649,                  !- Vertex 2 Xcoordinate
    -5.3832,                  !- Vertex 2 Ycoordinate
    15,                       !- Vertex 2 Zcoordinate
    22.4829,                  !- Vertex 3 Xcoordinate
    -8.0232,                  !- Vertex 3 Ycoordinate
    15,                       !- Vertex 3 Zcoordinate
    13.0009,                  !- Vertex 4 Xcoordinate
    -24.9742,                 !- Vertex 4 Ycoordinate
    15;                       !- Vertex 4 Zcoordinate

BUILDINGSURFACE:DETAILED,
    Block Build0_Alt0 Storey 0 Roof 0001_2,    !- Name
    roof,                     !- Surface Type
    Project Flat Roof,        !- Construction Name
    Block Build0_Alt0 Storey 0,    !- Zone Name
    outdoors,                 !- Outside Boundary Condition
    ,                         !- Outside Boundary Condition Object
    SunExposed,               !- Sun Exposure
    WindExposed,              !- Wind Exposure
    autocalculate,            !- View Factor to Ground
    autocalculate,            !- Number of Vertices
    -7.6011,                  !- Vertex 1 Xcoordinate
    19.2238,                  !- Vertex 1 Ycoordinate
    15,                       !- Vertex 1 Zcoordinate
    -10.1981,                 !- Vertex 2 Xcoordinate
    22.3588,                  !- Vertex 2 Ycoordinate
    15,                       !- Vertex 2 Zcoordinate
    -15.3001,                 !- Vertex 3 Xcoordinate
    17.9198,                  !- Vertex 3 Ycoordinate
    15,                       !- Vertex 3 Zcoordinate
    -12.7601,                 !- Vertex 4 Xcoordinate
    14.9328,                  !- Vertex 4 Ycoordinate
    15;                       !- Vertex 4 Zcoordinate

BUILDINGSURFACE:DETAILED,
    Block Build0_Alt0 Storey 0 Roof 0001_3,    !- Name
    roof,                     !- Surface Type
    Project Flat Roof,        !- Construction Name
    Block Build0_Alt0 Storey 0,    !- Zone Name
    outdoors,                 !- Outside Boundary Condition
    ,                         !- Outside Boundary Condition Object
    SunExposed,               !- Sun Exposure
    WindExposed,              !- Wind Exposure
    autocalculate,            !- View Factor to Ground
    autocalculate,            !- Number of Vertices
    3.6819,                   !- Vertex 1 Xcoordinate
    -13.8912,                 !- Vertex 1 Ycoordinate
    15,                       !- Vertex 1 Zcoordinate
    -0.7071,                  !- Vertex 2 Xcoordinate
    -8.7872,                  !- Vertex 2 Ycoordinate
    15,                       !- Vertex 2 Zcoordinate
    -3.7911,                  !- Vertex 3 Xcoordinate
    -11.3812,                 !- Vertex 3 Ycoordinate
    15,                       !- Vertex 3 Zcoordinate
    0.6479,                   !- Vertex 4 Xcoordinate
    -16.4822,                 !- Vertex 4 Ycoordinate
    15;                       !- Vertex 4 Zcoordinate

BUILDINGSURFACE:DETAILED,
    Block Build0_Alt0 Storey 0 Roof 0001_4,    !- Name
    roof,                     !- Surface Type
    Project Flat Roof,        !- Construction Name
    Block Build0_Alt0 Storey 0,    !- Zone Name
    outdoors,                 !- Outside Boundary Condition
    ,                         !- Outside Boundary Condition Object
    SunExposed,               !- Sun Exposure
    WindExposed,              !- Wind Exposure
    autocalculate,            !- View Factor to Ground
    autocalculate,            !- Number of Vertices
    10.0239,                  !- Vertex 1 Xcoordinate
    34.3478,                  !- Vertex 1 Ycoordinate
    15,                       !- Vertex 1 Zcoordinate
    7.3319,                   !- Vertex 2 Xcoordinate
    37.3778,                  !- Vertex 2 Ycoordinate
    15,                       !- Vertex 2 Zcoordinate
    2.1779,                   !- Vertex 3 Xcoordinate
    32.9878,                  !- Vertex 3 Ycoordinate
    15,                       !- Vertex 3 Zcoordinate
    4.8169,                   !- Vertex 4 Xcoordinate
    30.0058,                  !- Vertex 4 Ycoordinate
    15;                       !- Vertex 4 Zcoordinate

BUILDINGSURFACE:DETAILED,
    Block Build0_Alt0 Storey 0 Roof 0001_5,    !- Name
    roof,                     !- Surface Type
    Project Flat Roof,        !- Construction Name
    Block Build0_Alt0 Storey 0,    !- Zone Name
    outdoors,                 !- Outside Boundary Condition
    ,                         !- Outside Boundary Condition Object
    SunExposed,               !- Sun Exposure
    WindExposed,              !- Wind Exposure
    autocalculate,            !- View Factor to Ground
    autocalculate,            !- Number of Vertices
    3.6819,                   !- Vertex 1 Xcoordinate
    -13.8912,                 !- Vertex 1 Ycoordinate
    15,                       !- Vertex 1 Zcoordinate
    1.3489,                   !- Vertex 2 Xcoordinate
    2.0178,                   !- Vertex 2 Ycoordinate
    15,                       !- Vertex 2 Zcoordinate
    -4.8921,                  !- Vertex 3 Xcoordinate
    9.2878,                   !- Vertex 3 Ycoordinate
    15,                       !- Vertex 3 Zcoordinate
    -0.7071,                  !- Vertex 4 Xcoordinate
    -8.7872,                  !- Vertex 4 Ycoordinate
    15;                       !- Vertex 4 Zcoordinate

BUILDINGSURFACE:DETAILED,
    Block Build0_Alt0 Storey 0 Roof 0001_6,    !- Name
    roof,                     !- Surface Type
    Project Flat Roof,        !- Construction Name
    Block Build0_Alt0 Storey 0,    !- Zone Name
    outdoors,                 !- Outside Boundary Condition
    ,                         !- Outside Boundary Condition Object
    SunExposed,               !- Sun Exposure
    WindExposed,              !- Wind Exposure
    autocalculate,            !- View Factor to Ground
    autocalculate,            !- Number of Vertices
    -4.8921,                  !- Vertex 1 Xcoordinate
    9.2878,                   !- Vertex 1 Ycoordinate
    15,                       !- Vertex 1 Zcoordinate
    10.0239,                  !- Vertex 2 Xcoordinate
    34.3478,                  !- Vertex 2 Ycoordinate
    15,                       !- Vertex 2 Zcoordinate
    4.8169,                   !- Vertex 3 Xcoordinate
    30.0058,                  !- Vertex 3 Ycoordinate
    15,                       !- Vertex 3 Zcoordinate
    -7.6011,                  !- Vertex 4 Xcoordinate
    19.2238,                  !- Vertex 4 Ycoordinate
    15;                       !- Vertex 4 Zcoordinate

BUILDINGSURFACE:DETAILED,
    Block Build0_Alt0 Storey 0 Roof 0001_7,    !- Name
    roof,                     !- Surface Type
    Project Flat Roof,        !- Construction Name
    Block Build0_Alt0 Storey 0,    !- Zone Name
    outdoors,                 !- Outside Boundary Condition
    ,                         !- Outside Boundary Condition Object
    SunExposed,               !- Sun Exposure
    WindExposed,              !- Wind Exposure
    autocalculate,            !- View Factor to Ground
    autocalculate,            !- Number of Vertices
    17.4059,                  !- Vertex 1 Xcoordinate
    -2.1002,                  !- Vertex 1 Ycoordinate
    15,                       !- Vertex 1 Zcoordinate
    17.5789,                  !- Vertex 2 Xcoordinate
    2.8128,                   !- Vertex 2 Ycoordinate
    15,                       !- Vertex 2 Zcoordinate
    11.1119,                  !- Vertex 3 Xcoordinate
    5.2188,                   !- Vertex 3 Ycoordinate
    15,                       !- Vertex 3 Zcoordinate
    5.5399,                   !- Vertex 4 Xcoordinate
    5.5628,                   !- Vertex 4 Ycoordinate
    15,                       !- Vertex 4 Zcoordinate
    1.3489,                   !- Vertex 5 Xcoordinate
    2.0178,                   !- Vertex 5 Ycoordinate
    15;                       !- Vertex 5 Zcoordinate

BUILDINGSURFACE:DETAILED,
    Block Build0_Alt0 Storey 0 Roof 0001_8,    !- Name
    roof,                     !- Surface Type
    Project Flat Roof,        !- Construction Name
    Block Build0_Alt0 Storey 0,    !- Zone Name
    outdoors,                 !- Outside Boundary Condition
    ,                         !- Outside Boundary Condition Object
    SunExposed,               !- Sun Exposure
    WindExposed,              !- Wind Exposure
    autocalculate,            !- View Factor to Ground
    autocalculate,            !- Number of Vertices
    25.0579,                  !- Vertex 1 Xcoordinate
    21.9748,                  !- Vertex 1 Ycoordinate
    15,                       !- Vertex 1 Zcoordinate
    18.5989,                  !- Vertex 2 Xcoordinate
    29.6368,                  !- Vertex 2 Ycoordinate
    15,                       !- Vertex 2 Zcoordinate
    12.0559,                  !- Vertex 3 Xcoordinate
    23.8808,                  !- Vertex 3 Ycoordinate
    15,                       !- Vertex 3 Zcoordinate
    18.5549,                  !- Vertex 4 Xcoordinate
    16.4208,                  !- Vertex 4 Ycoordinate
    15;                       !- Vertex 4 Zcoordinate

BUILDINGSURFACE:DETAILED,
    Block Build0_Alt0 Storey 0 Roof 0001_9,    !- Name
    roof,                     !- Surface Type
    Project Flat Roof,        !- Construction Name
    Block Build0_Alt0 Storey 0,    !- Zone Name
    outdoors,                 !- Outside Boundary Condition
    ,                         !- Outside Boundary Condition Object
    SunExposed,               !- Sun Exposure
    WindExposed,              !- Wind Exposure
    autocalculate,            !- View Factor to Ground
    autocalculate,            !- Number of Vertices
    -11.3421,                 !- Vertex 1 Xcoordinate
    3.6868,                   !- Vertex 1 Ycoordinate
    15,                       !- Vertex 1 Zcoordinate
    -7.6011,                  !- Vertex 2 Xcoordinate
    19.2238,                  !- Vertex 2 Ycoordinate
    15,                       !- Vertex 2 Zcoordinate
    -12.7601,                 !- Vertex 3 Xcoordinate
    14.9328,                  !- Vertex 3 Ycoordinate
    15,                       !- Vertex 3 Zcoordinate
    -20.5081,                 !- Vertex 4 Xcoordinate
    8.1708,                   !- Vertex 4 Ycoordinate
    15,                       !- Vertex 4 Zcoordinate
    -14.4261,                 !- Vertex 5 Xcoordinate
    1.0928,                   !- Vertex 5 Ycoordinate
    15;                       !- Vertex 5 Zcoordinate

BUILDINGSURFACE:DETAILED,
    Block Build0_Alt0 Storey 0 Roof 0001_10,    !- Name
    roof,                     !- Surface Type
    Project Flat Roof,        !- Construction Name
    Block Build0_Alt0 Storey 0,    !- Zone Name
    outdoors,                 !- Outside Boundary Condition
    ,                         !- Outside Boundary Condition Object
    SunExposed,               !- Sun Exposure
    WindExposed,              !- Wind Exposure
    autocalculate,            !- View Factor to Ground
    autocalculate,            !- Number of Vertices
    12.0559,                  !- Vertex 1 Xcoordinate
    23.8808,                  !- Vertex 1 Ycoordinate
    15,                       !- Vertex 1 Zcoordinate
    18.5989,                  !- Vertex 2 Xcoordinate
    29.6368,                  !- Vertex 2 Ycoordinate
    15,                       !- Vertex 2 Zcoordinate
    21.6289,                  !- Vertex 3 Xcoordinate
    32.3288,                  !- Vertex 3 Ycoordinate
    15,                       !- Vertex 3 Zcoordinate
    15.7549,                  !- Vertex 4 Xcoordinate
    39.2658,                  !- Vertex 4 Ycoordinate
    15,                       !- Vertex 4 Zcoordinate
    10.0239,                  !- Vertex 5 Xcoordinate
    34.3478,                  !- Vertex 5 Ycoordinate
    15,                       !- Vertex 5 Zcoordinate
    -4.8921,                  !- Vertex 6 Xcoordinate
    9.2878,                   !- Vertex 6 Ycoordinate
    15;                       !- Vertex 6 Zcoordinate

BUILDINGSURFACE:DETAILED,
    Block Build0_Alt0 Storey 0 Roof 0001_11,    !- Name
    roof,                     !- Surface Type
    Project Flat Roof,        !- Construction Name
    Block Build0_Alt0 Storey 0,    !- Zone Name
    outdoors,                 !- Outside Boundary Condition
    ,                         !- Outside Boundary Condition Object
    SunExposed,               !- Sun Exposure
    WindExposed,              !- Wind Exposure
    autocalculate,            !- View Factor to Ground
    autocalculate,            !- Number of Vertices
    13.0009,                  !- Vertex 1 Xcoordinate
    -24.9742,                 !- Vertex 1 Ycoordinate
    15,                       !- Vertex 1 Zcoordinate
    22.4829,                  !- Vertex 2 Xcoordinate
    -8.0232,                  !- Vertex 2 Ycoordinate
    15,                       !- Vertex 2 Zcoordinate
    17.4059,                  !- Vertex 3 Xcoordinate
    -2.1002,                  !- Vertex 3 Ycoordinate
    15,                       !- Vertex 3 Zcoordinate
    1.3489,                   !- Vertex 4 Xcoordinate
    2.0178,                   !- Vertex 4 Ycoordinate
    15,                       !- Vertex 4 Zcoordinate
    3.6819,                   !- Vertex 5 Xcoordinate
    -13.8912,                 !- Vertex 5 Ycoordinate
    15;                       !- Vertex 5 Zcoordinate

FENESTRATIONSURFACE:DETAILED,
    Block Build0_Alt0 Storey 0 Wall 0001 window,    !- Name
    Window,                   !- Surface Type
    Project External Window,    !- Construction Name
    Block Build0_Alt0 Storey 0 Wall 0001,    !- Building Surface Name
    ,                         !- Outside Boundary Condition Object
    autocalculate,            !- View Factor to Ground
    ,                         !- Frame and Divider Name
    1.0,                      !- Multiplier
    autocalculate,            !- Number of Vertices
    29.906678,                !- Vertex 1 Xcoordinate
    -10.582599,               !- Vertex 1 Ycoordinate
    9.75,                     !- Vertex 1 Zcoordinate
    29.906678,                !- Vertex 2 Xcoordinate
    -10.582599,               !- Vertex 2 Ycoordinate
    5.25,                     !- Vertex 2 Zcoordinate
    25.467122,                !- Vertex 3 Xcoordinate
    -5.385801000000001,       !- Vertex 3 Ycoordinate
    5.25,                     !- Vertex 3 Zcoordinate
    25.467122,                !- Vertex 4 Xcoordinate
    -5.385801000000001,       !- Vertex 4 Ycoordinate
    9.75;                     !- Vertex 4 Zcoordinate

FENESTRATIONSURFACE:DETAILED,
    Block Build0_Alt0 Storey 0 Wall 0002 window,    !- Name
    Window,                   !- Surface Type
    Project External Window,    !- Construction Name
    Block Build0_Alt0 Storey 0 Wall 0002,    !- Building Surface Name
    ,                         !- Outside Boundary Condition Object
    autocalculate,            !- View Factor to Ground
    ,                         !- Frame and Divider Name
    1.0,                      !- Multiplier
    autocalculate,            !- Number of Vertices
    25.463409,                !- Vertex 1 Xcoordinate
    -5.38452,                 !- Vertex 1 Ycoordinate
    9.75,                     !- Vertex 1 Zcoordinate
    25.463409,                !- Vertex 2 Xcoordinate
    -5.38452,                 !- Vertex 2 Ycoordinate
    5.25,                     !- Vertex 2 Zcoordinate
    22.484391000000002,       !- Vertex 3 Xcoordinate
    -8.02188,                 !- Vertex 3 Ycoordinate
    5.25,                     !- Vertex 3 Zcoordinate
    22.484391000000002,       !- Vertex 4 Xcoordinate
    -8.02188,                 !- Vertex 4 Ycoordinate
    9.75;                     !- Vertex 4 Zcoordinate

FENESTRATIONSURFACE:DETAILED,
    Block Build0_Alt0 Storey 0 Wall 0003 window,    !- Name
    Window,                   !- Surface Type
    Project External Window,    !- Construction Name
    Block Build0_Alt0 Storey 0 Wall 0003,    !- Building Surface Name
    ,                         !- Outside Boundary Condition Object
    autocalculate,            !- View Factor to Ground
    ,                         !- Frame and Divider Name
    1.0,                      !- Multiplier
    autocalculate,            !- Number of Vertices
    22.4803615,               !- Vertex 1 Xcoordinate
    -8.0202385,               !- Vertex 1 Ycoordinate
    9.75,                     !- Vertex 1 Zcoordinate
    22.4803615,               !- Vertex 2 Xcoordinate
    -8.0202385,               !- Vertex 2 Ycoordinate
    5.25,                     !- Vertex 2 Zcoordinate
    17.4084385,               !- Vertex 3 Xcoordinate
    -2.1031615,               !- Vertex 3 Ycoordinate
    5.25,                     !- Vertex 3 Zcoordinate
    17.4084385,               !- Vertex 4 Xcoordinate
    -2.1031615,               !- Vertex 4 Ycoordinate
    9.75;                     !- Vertex 4 Zcoordinate

FENESTRATIONSURFACE:DETAILED,
    Block Build0_Alt0 Storey 0 Wall 0004 window,    !- Name
    Window,                   !- Surface Type
    Project External Window,    !- Construction Name
    Block Build0_Alt0 Storey 0 Wall 0004,    !- Building Surface Name
    ,                         !- Outside Boundary Condition Object
    autocalculate,            !- View Factor to Ground
    ,                         !- Frame and Divider Name
    1.0,                      !- Multiplier
    autocalculate,            !- Number of Vertices
    17.405986499999997,       !- Vertex 1 Xcoordinate
    -2.0977435,               !- Vertex 1 Ycoordinate
    9.75,                     !- Vertex 1 Zcoordinate
    17.405986499999997,       !- Vertex 2 Xcoordinate
    -2.0977435,               !- Vertex 2 Ycoordinate
    5.25,                     !- Vertex 2 Zcoordinate
    17.578813500000003,       !- Vertex 3 Xcoordinate
    2.8103435,                !- Vertex 3 Ycoordinate
    5.25,                     !- Vertex 3 Zcoordinate
    17.578813500000003,       !- Vertex 4 Xcoordinate
    2.8103435,                !- Vertex 4 Ycoordinate
    9.75;                     !- Vertex 4 Zcoordinate

FENESTRATIONSURFACE:DETAILED,
    Block Build0_Alt0 Storey 0 Wall 0005 window,    !- Name
    Window,                   !- Surface Type
    Project External Window,    !- Construction Name
    Block Build0_Alt0 Storey 0 Wall 0005,    !- Building Surface Name
    ,                         !- Outside Boundary Condition Object
    autocalculate,            !- View Factor to Ground
    ,                         !- Frame and Divider Name
    1.0,                      !- Multiplier
    autocalculate,            !- Number of Vertices
    17.5756665,               !- Vertex 1 Xcoordinate
    2.8140030000000005,       !- Vertex 1 Ycoordinate
    9.75,                     !- Vertex 1 Zcoordinate
    17.5756665,               !- Vertex 2 Xcoordinate
    2.8140030000000005,       !- Vertex 2 Ycoordinate
    5.25,                     !- Vertex 2 Zcoordinate
    11.1151335,               !- Vertex 3 Xcoordinate
    5.217597,                 !- Vertex 3 Ycoordinate
    5.25,                     !- Vertex 3 Zcoordinate
    11.1151335,               !- Vertex 4 Xcoordinate
    5.217597,                 !- Vertex 4 Ycoordinate
    9.75;                     !- Vertex 4 Zcoordinate

FENESTRATIONSURFACE:DETAILED,
    Block Build0_Alt0 Storey 0 Wall 0006 window,    !- Name
    Window,                   !- Surface Type
    Project External Window,    !- Construction Name
    Block Build0_Alt0 Storey 0 Wall 0006,    !- Building Surface Name
    ,                         !- Outside Boundary Condition Object
    autocalculate,            !- View Factor to Ground
    ,                         !- Frame and Divider Name
    1.0,                      !- Multiplier
    autocalculate,            !- Number of Vertices
    11.109114,                !- Vertex 1 Xcoordinate
    5.218972,                 !- Vertex 1 Ycoordinate
    9.75,                     !- Vertex 1 Zcoordinate
    11.109114,                !- Vertex 2 Xcoordinate
    5.218972,                 !- Vertex 2 Ycoordinate
    5.25,                     !- Vertex 2 Zcoordinate
    5.542686,                 !- Vertex 3 Xcoordinate
    5.562628,                 !- Vertex 3 Ycoordinate
    5.25,                     !- Vertex 3 Zcoordinate
    5.542686,                 !- Vertex 4 Xcoordinate
    5.562628,                 !- Vertex 4 Ycoordinate
    9.75;                     !- Vertex 4 Zcoordinate

FENESTRATIONSURFACE:DETAILED,
    Block Build0_Alt0 Storey 0 Wall 0007 window,    !- Name
    Window,                   !- Surface Type
    Project External Window,    !- Construction Name
    Block Build0_Alt0 Storey 0 Wall 0007,    !- Building Surface Name
    ,                         !- Outside Boundary Condition Object
    autocalculate,            !- View Factor to Ground
    ,                         !- Frame and Divider Name
    1.0,                      !- Multiplier
    autocalculate,            !- Number of Vertices
    5.5378045,                !- Vertex 1 Xcoordinate
    5.5610275,                !- Vertex 1 Ycoordinate
    9.75,                     !- Vertex 1 Zcoordinate
    5.5378045,                !- Vertex 2 Xcoordinate
    5.5610275,                !- Vertex 2 Ycoordinate
    5.25,                     !- Vertex 2 Zcoordinate
    1.3509954999999998,       !- Vertex 3 Xcoordinate
    2.0195724999999998,       !- Vertex 3 Ycoordinate
    5.25,                     !- Vertex 3 Zcoordinate
    1.3509954999999998,       !- Vertex 4 Xcoordinate
    2.0195724999999998,       !- Vertex 4 Ycoordinate
    9.75;                     !- Vertex 4 Zcoordinate

FENESTRATIONSURFACE:DETAILED,
    Block Build0_Alt0 Storey 0 Wall 0008 window,    !- Name
    Window,                   !- Surface Type
    Project External Window,    !- Construction Name
    Block Build0_Alt0 Storey 0 Wall 0008,    !- Building Surface Name
    ,                         !- Outside Boundary Condition Object
    autocalculate,            !- View Factor to Ground
    ,                         !- Frame and Divider Name
    1.0,                      !- Multiplier
    autocalculate,            !- Number of Vertices
    1.3457794999999997,       !- Vertex 1 Xcoordinate
    2.021435,                 !- Vertex 1 Ycoordinate
    9.75,                     !- Vertex 1 Zcoordinate
    1.3457794999999997,       !- Vertex 2 Xcoordinate
    2.021435,                 !- Vertex 2 Ycoordinate
    5.25,                     !- Vertex 2 Zcoordinate
    -4.8889795,               !- Vertex 3 Xcoordinate
    9.284165000000002,        !- Vertex 3 Ycoordinate
    5.25,                     !- Vertex 3 Zcoordinate
    -4.8889795,               !- Vertex 4 Xcoordinate
    9.284165000000002,        !- Vertex 4 Ycoordinate
    9.75;                     !- Vertex 4 Zcoordinate

FENESTRATIONSURFACE:DETAILED,
    Block Build0_Alt0 Storey 0 Wall 0009 window,    !- Name
    Window,                   !- Surface Type
    Project External Window,    !- Construction Name
    Block Build0_Alt0 Storey 0 Wall 0009,    !- Building Surface Name
    ,                         !- Outside Boundary Condition Object
    autocalculate,            !- View Factor to Ground
    ,                         !- Frame and Divider Name
    1.0,                      !- Multiplier
    autocalculate,            !- Number of Vertices
    -4.883626000000001,       !- Vertex 1 Xcoordinate
    9.2950965,                !- Vertex 1 Ycoordinate
    9.75,                     !- Vertex 1 Zcoordinate
    -4.883626000000001,       !- Vertex 2 Xcoordinate
    9.2950965,                !- Vertex 2 Ycoordinate
    5.25,                     !- Vertex 2 Zcoordinate
    12.047426,                !- Vertex 3 Xcoordinate
    23.8735035,               !- Vertex 3 Ycoordinate
    5.25,                     !- Vertex 3 Zcoordinate
    12.047426,                !- Vertex 4 Xcoordinate
    23.8735035,               !- Vertex 4 Ycoordinate
    9.75;                     !- Vertex 4 Zcoordinate

FENESTRATIONSURFACE:DETAILED,
    Block Build0_Alt0 Storey 0 Wall 0010 window,    !- Name
    Window,                   !- Surface Type
    Project External Window,    !- Construction Name
    Block Build0_Alt0 Storey 0 Wall 0010,    !- Building Surface Name
    ,                         !- Outside Boundary Condition Object
    autocalculate,            !- View Factor to Ground
    ,                         !- Frame and Divider Name
    1.0,                      !- Multiplier
    autocalculate,            !- Number of Vertices
    12.0591495,               !- Vertex 1 Xcoordinate
    23.87707,                 !- Vertex 1 Ycoordinate
    9.75,                     !- Vertex 1 Zcoordinate
    12.0591495,               !- Vertex 2 Xcoordinate
    23.87707,                 !- Vertex 2 Ycoordinate
    5.25,                     !- Vertex 2 Zcoordinate
    18.5516505,               !- Vertex 3 Xcoordinate
    16.42453,                 !- Vertex 3 Ycoordinate
    5.25,                     !- Vertex 3 Zcoordinate
    18.5516505,               !- Vertex 4 Xcoordinate
    16.42453,                 !- Vertex 4 Ycoordinate
    9.75;                     !- Vertex 4 Zcoordinate

FENESTRATIONSURFACE:DETAILED,
    Block Build0_Alt0 Storey 0 Wall 0011 window,    !- Name
    Window,                   !- Surface Type
    Project External Window,    !- Construction Name
    Block Build0_Alt0 Storey 0 Wall 0011,    !- Building Surface Name
    ,                         !- Outside Boundary Condition Object
    autocalculate,            !- View Factor to Ground
    ,                         !- Frame and Divider Name
    1.0,                      !- Multiplier
    autocalculate,            !- Number of Vertices
    18.5581515,               !- Vertex 1 Xcoordinate
    16.423577,                !- Vertex 1 Ycoordinate
    9.75,                     !- Vertex 1 Zcoordinate
    18.5581515,               !- Vertex 2 Xcoordinate
    16.423577,                !- Vertex 2 Ycoordinate
    5.25,                     !- Vertex 2 Zcoordinate
    25.0546485,               !- Vertex 3 Xcoordinate
    21.972023,                !- Vertex 3 Ycoordinate
    5.25,                     !- Vertex 3 Zcoordinate
    25.0546485,               !- Vertex 4 Xcoordinate
    21.972023,                !- Vertex 4 Ycoordinate
    9.75;                     !- Vertex 4 Zcoordinate

FENESTRATIONSURFACE:DETAILED,
    Block Build0_Alt0 Storey 0 Wall 0012 window,    !- Name
    Window,                   !- Surface Type
    Project External Window,    !- Construction Name
    Block Build0_Alt0 Storey 0 Wall 0012,    !- Building Surface Name
    ,                         !- Outside Boundary Condition Object
    autocalculate,            !- View Factor to Ground
    ,                         !- Frame and Divider Name
    1.0,                      !- Multiplier
    autocalculate,            !- Number of Vertices
    25.0546705,               !- Vertex 1 Xcoordinate
    21.978631,                !- Vertex 1 Ycoordinate
    9.75,                     !- Vertex 1 Zcoordinate
    25.0546705,               !- Vertex 2 Xcoordinate
    21.978631,                !- Vertex 2 Ycoordinate
    5.25,                     !- Vertex 2 Zcoordinate
    18.6021295,               !- Vertex 3 Xcoordinate
    29.632969000000003,       !- Vertex 3 Ycoordinate
    5.25,                     !- Vertex 3 Zcoordinate
    18.6021295,               !- Vertex 4 Xcoordinate
    29.632969000000003,       !- Vertex 4 Ycoordinate
    9.75;                     !- Vertex 4 Zcoordinate

FENESTRATIONSURFACE:DETAILED,
    Block Build0_Alt0 Storey 0 Wall 0013 window,    !- Name
    Window,                   !- Surface Type
    Project External Window,    !- Construction Name
    Block Build0_Alt0 Storey 0 Wall 0013,    !- Building Surface Name
    ,                         !- Outside Boundary Condition Object
    autocalculate,            !- View Factor to Ground
    ,                         !- Frame and Divider Name
    1.0,                      !- Multiplier
    autocalculate,            !- Number of Vertices
    18.600415,                !- Vertex 1 Xcoordinate
    29.638146000000003,       !- Vertex 1 Ycoordinate
    9.75,                     !- Vertex 1 Zcoordinate
    18.600415,                !- Vertex 2 Xcoordinate
    29.638146000000003,       !- Vertex 2 Ycoordinate
    5.25,                     !- Vertex 2 Zcoordinate
    21.627385,                !- Vertex 3 Xcoordinate
    32.327454,                !- Vertex 3 Ycoordinate
    5.25,                     !- Vertex 3 Zcoordinate
    21.627385,                !- Vertex 4 Xcoordinate
    32.327454,                !- Vertex 4 Ycoordinate
    9.75;                     !- Vertex 4 Zcoordinate

FENESTRATIONSURFACE:DETAILED,
    Block Build0_Alt0 Storey 0 Wall 0014 window,    !- Name
    Window,                   !- Surface Type
    Project External Window,    !- Construction Name
    Block Build0_Alt0 Storey 0 Wall 0014,    !- Building Surface Name
    ,                         !- Outside Boundary Condition Object
    autocalculate,            !- View Factor to Ground
    ,                         !- Frame and Divider Name
    1.0,                      !- Multiplier
    autocalculate,            !- Number of Vertices
    21.625963000000002,       !- Vertex 1 Xcoordinate
    32.3322685,               !- Vertex 1 Ycoordinate
    9.75,                     !- Vertex 1 Zcoordinate
    21.625963000000002,       !- Vertex 2 Xcoordinate
    32.3322685,               !- Vertex 2 Ycoordinate
    5.25,                     !- Vertex 2 Zcoordinate
    15.757836999999999,       !- Vertex 3 Xcoordinate
    39.2623315,               !- Vertex 3 Ycoordinate
    5.25,                     !- Vertex 3 Zcoordinate
    15.757836999999999,       !- Vertex 4 Xcoordinate
    39.2623315,               !- Vertex 4 Ycoordinate
    9.75;                     !- Vertex 4 Zcoordinate

FENESTRATIONSURFACE:DETAILED,
    Block Build0_Alt0 Storey 0 Wall 0015 window,    !- Name
    Window,                   !- Surface Type
    Project External Window,    !- Construction Name
    Block Build0_Alt0 Storey 0 Wall 0015,    !- Building Surface Name
    ,                         !- Outside Boundary Condition Object
    autocalculate,            !- View Factor to Ground
    ,                         !- Frame and Divider Name
    1.0,                      !- Multiplier
    autocalculate,            !- Number of Vertices
    15.752034499999999,       !- Vertex 1 Xcoordinate
    39.263341,                !- Vertex 1 Ycoordinate
    9.75,                     !- Vertex 1 Zcoordinate
    15.752034499999999,       !- Vertex 2 Xcoordinate
    39.263341,                !- Vertex 2 Ycoordinate
    5.25,                     !- Vertex 2 Zcoordinate
    10.0267655,               !- Vertex 3 Xcoordinate
    34.350259,                !- Vertex 3 Ycoordinate
    5.25,                     !- Vertex 3 Zcoordinate
    10.0267655,               !- Vertex 4 Xcoordinate
    34.350259,                !- Vertex 4 Ycoordinate
    9.75;                     !- Vertex 4 Zcoordinate

FENESTRATIONSURFACE:DETAILED,
    Block Build0_Alt0 Storey 0 Wall 0016 window,    !- Name
    Window,                   !- Surface Type
    Project External Window,    !- Construction Name
    Block Build0_Alt0 Storey 0 Wall 0016,    !- Building Surface Name
    ,                         !- Outside Boundary Condition Object
    autocalculate,            !- View Factor to Ground
    ,                         !- Frame and Divider Name
    1.0,                      !- Multiplier
    autocalculate,            !- Number of Vertices
    10.022554,                !- Vertex 1 Xcoordinate
    34.349315,                !- Vertex 1 Ycoordinate
    9.75,                     !- Vertex 1 Zcoordinate
    10.022554,                !- Vertex 2 Xcoordinate
    34.349315,                !- Vertex 2 Ycoordinate
    5.25,                     !- Vertex 2 Zcoordinate
    7.333246,                 !- Vertex 3 Xcoordinate
    37.376285,                !- Vertex 3 Ycoordinate
    5.25,                     !- Vertex 3 Zcoordinate
    7.333246,                 !- Vertex 4 Xcoordinate
    37.376285,                !- Vertex 4 Ycoordinate
    9.75;                     !- Vertex 4 Zcoordinate

FENESTRATIONSURFACE:DETAILED,
    Block Build0_Alt0 Storey 0 Wall 0017 window,    !- Name
    Window,                   !- Surface Type
    Project External Window,    !- Construction Name
    Block Build0_Alt0 Storey 0 Wall 0017,    !- Building Surface Name
    ,                         !- Outside Boundary Condition Object
    autocalculate,            !- View Factor to Ground
    ,                         !- Frame and Divider Name
    1.0,                      !- Multiplier
    autocalculate,            !- Number of Vertices
    7.3293230000000005,       !- Vertex 1 Xcoordinate
    37.375605,                !- Vertex 1 Ycoordinate
    9.75,                     !- Vertex 1 Zcoordinate
    7.3293230000000005,       !- Vertex 2 Xcoordinate
    37.375605,                !- Vertex 2 Ycoordinate
    5.25,                     !- Vertex 2 Zcoordinate
    2.180477,                 !- Vertex 3 Xcoordinate
    32.989995,                !- Vertex 3 Ycoordinate
    5.25,                     !- Vertex 3 Zcoordinate
    2.180477,                 !- Vertex 4 Xcoordinate
    32.989995,                !- Vertex 4 Ycoordinate
    9.75;                     !- Vertex 4 Zcoordinate

FENESTRATIONSURFACE:DETAILED,
    Block Build0_Alt0 Storey 0 Wall 0018 window,    !- Name
    Window,                   !- Surface Type
    Project External Window,    !- Construction Name
    Block Build0_Alt0 Storey 0 Wall 0018,    !- Building Surface Name
    ,                         !- Outside Boundary Condition Object
    autocalculate,            !- View Factor to Ground
    ,                         !- Frame and Divider Name
    1.0,                      !- Multiplier
    autocalculate,            !- Number of Vertices
    2.1792195000000003,       !- Vertex 1 Xcoordinate
    32.986309,                !- Vertex 1 Ycoordinate
    9.75,                     !- Vertex 1 Zcoordinate
    2.1792195000000003,       !- Vertex 2 Xcoordinate
    32.986309,                !- Vertex 2 Ycoordinate
    5.25,                     !- Vertex 2 Zcoordinate
    4.8155805,                !- Vertex 3 Xcoordinate
    30.007291000000002,       !- Vertex 3 Ycoordinate
    5.25,                     !- Vertex 3 Zcoordinate
    4.8155805,                !- Vertex 4 Xcoordinate
    30.007291000000002,       !- Vertex 4 Ycoordinate
    9.75;                     !- Vertex 4 Zcoordinate

FENESTRATIONSURFACE:DETAILED,
    Block Build0_Alt0 Storey 0 Wall 0019 window,    !- Name
    Window,                   !- Surface Type
    Project External Window,    !- Construction Name
    Block Build0_Alt0 Storey 0 Wall 0019,    !- Building Surface Name
    ,                         !- Outside Boundary Condition Object
    autocalculate,            !- View Factor to Ground
    ,                         !- Frame and Divider Name
    1.0,                      !- Multiplier
    autocalculate,            !- Number of Vertices
    4.810691,                 !- Vertex 1 Xcoordinate
    30.000409,                !- Vertex 1 Ycoordinate
    9.75,                     !- Vertex 1 Zcoordinate
    4.810691,                 !- Vertex 2 Xcoordinate
    30.000409,                !- Vertex 2 Ycoordinate
    5.25,                     !- Vertex 2 Zcoordinate
    -7.594890999999999,       !- Vertex 3 Xcoordinate
    19.229191,                !- Vertex 3 Ycoordinate
    5.25,                     !- Vertex 3 Zcoordinate
    -7.594890999999999,       !- Vertex 4 Xcoordinate
    19.229191,                !- Vertex 4 Ycoordinate
    9.75;                     !- Vertex 4 Zcoordinate

FENESTRATIONSURFACE:DETAILED,
    Block Build0_Alt0 Storey 0 Wall 0020 window,    !- Name
    Window,                   !- Surface Type
    Project External Window,    !- Construction Name
    Block Build0_Alt0 Storey 0 Wall 0020,    !- Building Surface Name
    ,                         !- Outside Boundary Condition Object
    autocalculate,            !- View Factor to Ground
    ,                         !- Frame and Divider Name
    1.0,                      !- Multiplier
    autocalculate,            !- Number of Vertices
    -7.6023985,               !- Vertex 1 Xcoordinate
    19.2253675,               !- Vertex 1 Ycoordinate
    9.75,                     !- Vertex 1 Zcoordinate
    -7.6023985,               !- Vertex 2 Xcoordinate
    19.2253675,               !- Vertex 2 Ycoordinate
    5.25,                     !- Vertex 2 Zcoordinate
    -10.1968015,              !- Vertex 3 Xcoordinate
    22.3572325,               !- Vertex 3 Ycoordinate
    5.25,                     !- Vertex 3 Zcoordinate
    -10.1968015,              !- Vertex 4 Xcoordinate
    22.3572325,               !- Vertex 4 Ycoordinate
    9.75;                     !- Vertex 4 Zcoordinate

FENESTRATIONSURFACE:DETAILED,
    Block Build0_Alt0 Storey 0 Wall 0021 window,    !- Name
    Window,                   !- Surface Type
    Project External Window,    !- Construction Name
    Block Build0_Alt0 Storey 0 Wall 0021,    !- Building Surface Name
    ,                         !- Outside Boundary Condition Object
    autocalculate,            !- View Factor to Ground
    ,                         !- Frame and Divider Name
    1.0,                      !- Multiplier
    autocalculate,            !- Number of Vertices
    -10.200651,               !- Vertex 1 Xcoordinate
    22.3565805,               !- Vertex 1 Ycoordinate
    9.75,                     !- Vertex 1 Zcoordinate
    -10.200651,               !- Vertex 2 Xcoordinate
    22.3565805,               !- Vertex 2 Ycoordinate
    5.25,                     !- Vertex 2 Zcoordinate
    -15.297549,               !- Vertex 3 Xcoordinate
    17.922019499999998,       !- Vertex 3 Ycoordinate
    5.25,                     !- Vertex 3 Zcoordinate
    -15.297549,               !- Vertex 4 Xcoordinate
    17.922019499999998,       !- Vertex 4 Ycoordinate
    9.75;                     !- Vertex 4 Zcoordinate

FENESTRATIONSURFACE:DETAILED,
    Block Build0_Alt0 Storey 0 Wall 0022 window,    !- Name
    Window,                   !- Surface Type
    Project External Window,    !- Construction Name
    Block Build0_Alt0 Storey 0 Wall 0022,    !- Building Surface Name
    ,                         !- Outside Boundary Condition Object
    autocalculate,            !- View Factor to Ground
    ,                         !- Frame and Divider Name
    1.0,                      !- Multiplier
    autocalculate,            !- Number of Vertices
    -15.29883,                !- Vertex 1 Xcoordinate
    17.9183065,               !- Vertex 1 Ycoordinate
    9.75,                     !- Vertex 1 Zcoordinate
    -15.29883,                !- Vertex 2 Xcoordinate
    17.9183065,               !- Vertex 2 Ycoordinate
    5.25,                     !- Vertex 2 Zcoordinate
    -12.76137,                !- Vertex 3 Xcoordinate
    14.9342935,               !- Vertex 3 Ycoordinate
    5.25,                     !- Vertex 3 Zcoordinate
    -12.76137,                !- Vertex 4 Xcoordinate
    14.9342935,               !- Vertex 4 Ycoordinate
    9.75;                     !- Vertex 4 Zcoordinate

FENESTRATIONSURFACE:DETAILED,
    Block Build0_Alt0 Storey 0 Wall 0023 window,    !- Name
    Window,                   !- Surface Type
    Project External Window,    !- Construction Name
    Block Build0_Alt0 Storey 0 Wall 0023,    !- Building Surface Name
    ,                         !- Outside Boundary Condition Object
    autocalculate,            !- View Factor to Ground
    ,                         !- Frame and Divider Name
    1.0,                      !- Multiplier
    autocalculate,            !- Number of Vertices
    -12.763974,               !- Vertex 1 Xcoordinate
    14.929419,                !- Vertex 1 Ycoordinate
    9.75,                     !- Vertex 1 Zcoordinate
    -12.763974,               !- Vertex 2 Xcoordinate
    14.929419,                !- Vertex 2 Ycoordinate
    5.25,                     !- Vertex 2 Zcoordinate
    -20.504226,               !- Vertex 3 Xcoordinate
    8.174181,                 !- Vertex 3 Ycoordinate
    5.25,                     !- Vertex 3 Zcoordinate
    -20.504226,               !- Vertex 4 Xcoordinate
    8.174181,                 !- Vertex 4 Ycoordinate
    9.75;                     !- Vertex 4 Zcoordinate

FENESTRATIONSURFACE:DETAILED,
    Block Build0_Alt0 Storey 0 Wall 0024 window,    !- Name
    Window,                   !- Surface Type
    Project External Window,    !- Construction Name
    Block Build0_Alt0 Storey 0 Wall 0024,    !- Building Surface Name
    ,                         !- Outside Boundary Condition Object
    autocalculate,            !- View Factor to Ground
    ,                         !- Frame and Divider Name
    1.0,                      !- Multiplier
    autocalculate,            !- Number of Vertices
    -20.505059,               !- Vertex 1 Xcoordinate
    8.167261,                 !- Vertex 1 Ycoordinate
    9.75,                     !- Vertex 1 Zcoordinate
    -20.505059,               !- Vertex 2 Xcoordinate
    8.167261,                 !- Vertex 2 Ycoordinate
    5.25,                     !- Vertex 2 Zcoordinate
    -14.429141,               !- Vertex 3 Xcoordinate
    1.096339,                 !- Vertex 3 Ycoordinate
    5.25,                     !- Vertex 3 Zcoordinate
    -14.429141,               !- Vertex 4 Xcoordinate
    1.096339,                 !- Vertex 4 Ycoordinate
    9.75;                     !- Vertex 4 Zcoordinate

FENESTRATIONSURFACE:DETAILED,
    Block Build0_Alt0 Storey 0 Wall 0025 window,    !- Name
    Window,                   !- Surface Type
    Project External Window,    !- Construction Name
    Block Build0_Alt0 Storey 0 Wall 0025,    !- Building Surface Name
    ,                         !- Outside Boundary Condition Object
    autocalculate,            !- View Factor to Ground
    ,                         !- Frame and Divider Name
    1.0,                      !- Multiplier
    autocalculate,            !- Number of Vertices
    -14.424558,               !- Vertex 1 Xcoordinate
    1.094097,                 !- Vertex 1 Ycoordinate
    9.75,                     !- Vertex 1 Zcoordinate
    -14.424558,               !- Vertex 2 Xcoordinate
    1.094097,                 !- Vertex 2 Ycoordinate
    5.25,                     !- Vertex 2 Zcoordinate
    -1.134364e+01,            !- Vertex 3 Xcoordinate
    3.6855029999999998,       !- Vertex 3 Ycoordinate
    5.25,                     !- Vertex 3 Zcoordinate
    -1.134364e+01,            !- Vertex 4 Xcoordinate
    3.6855029999999998,       !- Vertex 4 Ycoordinate
    9.75;                     !- Vertex 4 Zcoordinate

FENESTRATIONSURFACE:DETAILED,
    Block Build0_Alt0 Storey 0 Wall 0026 window,    !- Name
    Window,                   !- Surface Type
    Project External Window,    !- Construction Name
    Block Build0_Alt0 Storey 0 Wall 0026,    !- Building Surface Name
    ,                         !- Outside Boundary Condition Object
    autocalculate,            !- View Factor to Ground
    ,                         !- Frame and Divider Name
    1.0,                      !- Multiplier
    autocalculate,            !- Number of Vertices
    -11.3367825,              !- Vertex 1 Xcoordinate
    3.6805630000000003,       !- Vertex 1 Ycoordinate
    9.75,                     !- Vertex 1 Zcoordinate
    -11.3367825,              !- Vertex 2 Xcoordinate
    3.6805630000000003,       !- Vertex 2 Ycoordinate
    5.25,                     !- Vertex 2 Zcoordinate
    -7.124175e-01,            !- Vertex 3 Xcoordinate
    -8.780963,                !- Vertex 3 Ycoordinate
    5.25,                     !- Vertex 3 Zcoordinate
    -7.124175e-01,            !- Vertex 4 Xcoordinate
    -8.780963,                !- Vertex 4 Ycoordinate
    9.75;                     !- Vertex 4 Zcoordinate

FENESTRATIONSURFACE:DETAILED,
    Block Build0_Alt0 Storey 0 Wall 0027 window,    !- Name
    Window,                   !- Surface Type
    Project External Window,    !- Construction Name
    Block Build0_Alt0 Storey 0 Wall 0027,    !- Building Surface Name
    ,                         !- Outside Boundary Condition Object
    autocalculate,            !- View Factor to Ground
    ,                         !- Frame and Divider Name
    1.0,                      !- Multiplier
    autocalculate,            !- Number of Vertices
    -0.708642,                !- Vertex 1 Xcoordinate
    -8.788497,                !- Vertex 1 Ycoordinate
    9.75,                     !- Vertex 1 Zcoordinate
    -0.708642,                !- Vertex 2 Xcoordinate
    -8.788497,                !- Vertex 2 Ycoordinate
    5.25,                     !- Vertex 2 Zcoordinate
    -3.789558e+00,            !- Vertex 3 Xcoordinate
    -1.137990e+01,            !- Vertex 3 Ycoordinate
    5.25,                     !- Vertex 3 Zcoordinate
    -3.789558e+00,            !- Vertex 4 Xcoordinate
    -1.137990e+01,            !- Vertex 4 Ycoordinate
    9.75;                     !- Vertex 4 Zcoordinate

FENESTRATIONSURFACE:DETAILED,
    Block Build0_Alt0 Storey 0 Wall 0028 window,    !- Name
    Window,                   !- Surface Type
    Project External Window,    !- Construction Name
    Block Build0_Alt0 Storey 0 Wall 0028,    !- Building Surface Name
    ,                         !- Outside Boundary Condition Object
    autocalculate,            !- View Factor to Ground
    ,                         !- Frame and Divider Name
    1.0,                      !- Multiplier
    autocalculate,            !- Number of Vertices
    -3.788881e+00,            !- Vertex 1 Xcoordinate
    -11.3837505,              !- Vertex 1 Ycoordinate
    9.75,                     !- Vertex 1 Zcoordinate
    -3.788881e+00,            !- Vertex 2 Xcoordinate
    -11.3837505,              !- Vertex 2 Ycoordinate
    5.25,                     !- Vertex 2 Zcoordinate
    0.6456805000000001,       !- Vertex 3 Xcoordinate
    -16.4796495,              !- Vertex 3 Ycoordinate
    5.25,                     !- Vertex 3 Zcoordinate
    0.6456805000000001,       !- Vertex 4 Xcoordinate
    -16.4796495,              !- Vertex 4 Ycoordinate
    9.75;                     !- Vertex 4 Zcoordinate

FENESTRATIONSURFACE:DETAILED,
    Block Build0_Alt0 Storey 0 Wall 0029 window,    !- Name
    Window,                   !- Surface Type
    Project External Window,    !- Construction Name
    Block Build0_Alt0 Storey 0 Wall 0029,    !- Building Surface Name
    ,                         !- Outside Boundary Condition Object
    autocalculate,            !- View Factor to Ground
    ,                         !- Frame and Divider Name
    1.0,                      !- Multiplier
    autocalculate,            !- Number of Vertices
    0.6494169999999999,       !- Vertex 1 Xcoordinate
    -1.648090e+01,            !- Vertex 1 Ycoordinate
    9.75,                     !- Vertex 1 Zcoordinate
    0.6494169999999999,       !- Vertex 2 Xcoordinate
    -1.648090e+01,            !- Vertex 2 Ycoordinate
    5.25,                     !- Vertex 2 Zcoordinate
    3.680383,                 !- Vertex 3 Xcoordinate
    -1.389250e+01,            !- Vertex 3 Ycoordinate
    5.25,                     !- Vertex 3 Zcoordinate
    3.680383,                 !- Vertex 4 Xcoordinate
    -1.389250e+01,            !- Vertex 4 Ycoordinate
    9.75;                     !- Vertex 4 Zcoordinate

FENESTRATIONSURFACE:DETAILED,
    Block Build0_Alt0 Storey 0 Wall 0030 window,    !- Name
    Window,                   !- Surface Type
    Project External Window,    !- Construction Name
    Block Build0_Alt0 Storey 0 Wall 0030,    !- Building Surface Name
    ,                         !- Outside Boundary Condition Object
    autocalculate,            !- View Factor to Ground
    ,                         !- Frame and Divider Name
    1.0,                      !- Multiplier
    autocalculate,            !- Number of Vertices
    3.6865595000000004,       !- Vertex 1 Xcoordinate
    -13.8967415,              !- Vertex 1 Ycoordinate
    9.75,                     !- Vertex 1 Zcoordinate
    3.6865595000000004,       !- Vertex 2 Xcoordinate
    -13.8967415,              !- Vertex 2 Ycoordinate
    5.25,                     !- Vertex 2 Zcoordinate
    12.996240499999999,       !- Vertex 3 Xcoordinate
    -24.9686585,              !- Vertex 3 Ycoordinate
    5.25,                     !- Vertex 3 Zcoordinate
    12.996240499999999,       !- Vertex 4 Xcoordinate
    -24.9686585,              !- Vertex 4 Ycoordinate
    9.75;                     !- Vertex 4 Zcoordinate

FENESTRATIONSURFACE:DETAILED,
    Block Build0_Alt0 Storey 0 Wall 0031 window,    !- Name
    Window,                   !- Surface Type
    Project External Window,    !- Construction Name
    Block Build0_Alt0 Storey 0 Wall 0031,    !- Building Surface Name
    ,                         !- Outside Boundary Condition Object
    autocalculate,            !- View Factor to Ground
    ,                         !- Frame and Divider Name
    1.0,                      !- Multiplier
    autocalculate,            !- Number of Vertices
    13.009354,                !- Vertex 1 Xcoordinate
    -24.9670055,              !- Vertex 1 Ycoordinate
    9.75,                     !- Vertex 1 Zcoordinate
    13.009354,                !- Vertex 2 Xcoordinate
    -24.9670055,              !- Vertex 2 Ycoordinate
    5.25,                     !- Vertex 2 Zcoordinate
    29.900446,                !- Vertex 3 Xcoordinate
    -1.059239e+01,            !- Vertex 3 Ycoordinate
    5.25,                     !- Vertex 3 Zcoordinate
    29.900446,                !- Vertex 4 Xcoordinate
    -1.059239e+01,            !- Vertex 4 Ycoordinate
    9.75;                     !- Vertex 4 Zcoordinate

INTERNALMASS,
    Block Build0_Alt0 Storey -1IntMass,    !- Name
    NonHeatedZoneIntMassObj,    !- Construction Name
    Block Build0_Alt0 Storey -1,    !- Zone or ZoneList Name
    2476;                     !- Surface Area

INTERNALMASS,
    Block Build0_Alt0 Storey 0IntMass,    !- Name
    HeatedZoneIntMassObj,     !- Construction Name
    Block Build0_Alt0 Storey 0,    !- Zone or ZoneList Name
    12381;                    !- Surface Area

SHADING:SITE:DETAILED,
    Shading_V326_1,           !- Name
    ,                         !- Transmittance Schedule Name
    autocalculate,            !- Number of Vertices
    19.7639,                  !- Vertex 1 Xcoordinate
    48.1208,                  !- Vertex 1 Ycoordinate
    15.8,                     !- Vertex 1 Zcoordinate
    19.7639,                  !- Vertex 2 Xcoordinate
    48.1208,                  !- Vertex 2 Ycoordinate
    0,                        !- Vertex 2 Zcoordinate
    41.5919,                  !- Vertex 3 Xcoordinate
    22.7408,                  !- Vertex 3 Ycoordinate
    0,                        !- Vertex 3 Zcoordinate
    41.5919,                  !- Vertex 4 Xcoordinate
    22.7408,                  !- Vertex 4 Ycoordinate
    15.8;                     !- Vertex 4 Zcoordinate

SHADING:SITE:DETAILED,
    Shading_V327_1,           !- Name
    ,                         !- Transmittance Schedule Name
    autocalculate,            !- Number of Vertices
    41.5919,                  !- Vertex 1 Xcoordinate
    22.7408,                  !- Vertex 1 Ycoordinate
    15.8,                     !- Vertex 1 Zcoordinate
    41.5919,                  !- Vertex 2 Xcoordinate
    22.7408,                  !- Vertex 2 Ycoordinate
    0,                        !- Vertex 2 Zcoordinate
    38.5819,                  !- Vertex 3 Xcoordinate
    20.1498,                  !- Vertex 3 Ycoordinate
    0,                        !- Vertex 3 Zcoordinate
    38.5819,                  !- Vertex 4 Xcoordinate
    20.1498,                  !- Vertex 4 Ycoordinate
    15.8;                     !- Vertex 4 Zcoordinate

SHADING:SITE:DETAILED,
    Shading_V328_1,           !- Name
    ,                         !- Transmittance Schedule Name
    autocalculate,            !- Number of Vertices
    38.5819,                  !- Vertex 1 Xcoordinate
    20.1498,                  !- Vertex 1 Ycoordinate
    15.8,                     !- Vertex 1 Zcoordinate
    38.5819,                  !- Vertex 2 Xcoordinate
    20.1498,                  !- Vertex 2 Ycoordinate
    0,                        !- Vertex 2 Zcoordinate
    42.9369,                  !- Vertex 3 Xcoordinate
    15.0458,                  !- Vertex 3 Ycoordinate
    0,                        !- Vertex 3 Zcoordinate
    42.9369,                  !- Vertex 4 Xcoordinate
    15.0458,                  !- Vertex 4 Ycoordinate
    15.8;                     !- Vertex 4 Zcoordinate

SHADING:SITE:DETAILED,
    Shading_V391_1,           !- Name
    ,                         !- Transmittance Schedule Name
    autocalculate,            !- Number of Vertices
    53.7739,                  !- Vertex 1 Xcoordinate
    -17.9472,                 !- Vertex 1 Ycoordinate
    4.4,                      !- Vertex 1 Zcoordinate
    53.7739,                  !- Vertex 2 Xcoordinate
    -17.9472,                 !- Vertex 2 Ycoordinate
    0,                        !- Vertex 2 Zcoordinate
    48.4839,                  !- Vertex 3 Xcoordinate
    -11.7832,                 !- Vertex 3 Ycoordinate
    0,                        !- Vertex 3 Zcoordinate
    48.4839,                  !- Vertex 4 Xcoordinate
    -11.7832,                 !- Vertex 4 Ycoordinate
    4.4;                      !- Vertex 4 Zcoordinate

SHADING:SITE:DETAILED,
    Shading_V392_1,           !- Name
    ,                         !- Transmittance Schedule Name
    autocalculate,            !- Number of Vertices
    48.4839,                  !- Vertex 1 Xcoordinate
    -11.7832,                 !- Vertex 1 Ycoordinate
    4.4,                      !- Vertex 1 Zcoordinate
    48.4839,                  !- Vertex 2 Xcoordinate
    -11.7832,                 !- Vertex 2 Ycoordinate
    0,                        !- Vertex 2 Zcoordinate
    45.5019,                  !- Vertex 3 Xcoordinate
    -14.4232,                 !- Vertex 3 Ycoordinate
    0,                        !- Vertex 3 Zcoordinate
    45.5019,                  !- Vertex 4 Xcoordinate
    -14.4232,                 !- Vertex 4 Ycoordinate
    4.4;                      !- Vertex 4 Zcoordinate

SHADING:SITE:DETAILED,
    Shading_V150_1,           !- Name
    ,                         !- Transmittance Schedule Name
    autocalculate,            !- Number of Vertices
    -1.3511,                  !- Vertex 1 Xcoordinate
    47.4068,                  !- Vertex 1 Ycoordinate
    15.5,                     !- Vertex 1 Zcoordinate
    -1.3511,                  !- Vertex 2 Xcoordinate
    47.4068,                  !- Vertex 2 Ycoordinate
    0,                        !- Vertex 2 Zcoordinate
    -3.9511,                  !- Vertex 3 Xcoordinate
    50.4448,                  !- Vertex 3 Ycoordinate
    0,                        !- Vertex 3 Zcoordinate
    -3.9511,                  !- Vertex 4 Xcoordinate
    50.4448,                  !- Vertex 4 Ycoordinate
    15.5;                     !- Vertex 4 Zcoordinate

SHADING:SITE:DETAILED,
    Shading_V151_1,           !- Name
    ,                         !- Transmittance Schedule Name
    autocalculate,            !- Number of Vertices
    -3.9511,                  !- Vertex 1 Xcoordinate
    50.4448,                  !- Vertex 1 Ycoordinate
    15.5,                     !- Vertex 1 Zcoordinate
    -3.9511,                  !- Vertex 2 Xcoordinate
    50.4448,                  !- Vertex 2 Ycoordinate
    0,                        !- Vertex 2 Zcoordinate
    0.1999,                   !- Vertex 3 Xcoordinate
    53.9978,                  !- Vertex 3 Ycoordinate
    0,                        !- Vertex 3 Zcoordinate
    0.1999,                   !- Vertex 4 Xcoordinate
    53.9978,                  !- Vertex 4 Ycoordinate
    15.5;                     !- Vertex 4 Zcoordinate

SHADING:SITE:DETAILED,
    Shading_V237_1,           !- Name
    ,                         !- Transmittance Schedule Name
    autocalculate,            !- Number of Vertices
    56.5999,                  !- Vertex 1 Xcoordinate
    95.8038,                  !- Vertex 1 Ycoordinate
    24.8,                     !- Vertex 1 Zcoordinate
    56.5999,                  !- Vertex 2 Xcoordinate
    95.8038,                  !- Vertex 2 Ycoordinate
    0,                        !- Vertex 2 Zcoordinate
    64.2689,                  !- Vertex 3 Xcoordinate
    102.4048,                 !- Vertex 3 Ycoordinate
    0,                        !- Vertex 3 Zcoordinate
    64.2689,                  !- Vertex 4 Xcoordinate
    102.4048,                 !- Vertex 4 Ycoordinate
    24.8;                     !- Vertex 4 Zcoordinate

SHADING:SITE:DETAILED,
    Shading_V376_1,           !- Name
    ,                         !- Transmittance Schedule Name
    autocalculate,            !- Number of Vertices
    -11.2361,                 !- Vertex 1 Xcoordinate
    79.6708,                  !- Vertex 1 Ycoordinate
    14.2,                     !- Vertex 1 Zcoordinate
    -11.2361,                 !- Vertex 2 Xcoordinate
    79.6708,                  !- Vertex 2 Ycoordinate
    0,                        !- Vertex 2 Zcoordinate
    -8.2401,                  !- Vertex 3 Xcoordinate
    82.3238,                  !- Vertex 3 Ycoordinate
    0,                        !- Vertex 3 Zcoordinate
    -8.2401,                  !- Vertex 4 Xcoordinate
    82.3238,                  !- Vertex 4 Ycoordinate
    14.2;                     !- Vertex 4 Zcoordinate

SHADING:SITE:DETAILED,
    Shading_V377_1,           !- Name
    ,                         !- Transmittance Schedule Name
    autocalculate,            !- Number of Vertices
    -8.2401,                  !- Vertex 1 Xcoordinate
    82.3238,                  !- Vertex 1 Ycoordinate
    14.2,                     !- Vertex 1 Zcoordinate
    -8.2401,                  !- Vertex 2 Xcoordinate
    82.3238,                  !- Vertex 2 Ycoordinate
    0,                        !- Vertex 2 Zcoordinate
    11.9189,                  !- Vertex 3 Xcoordinate
    58.7588,                  !- Vertex 3 Ycoordinate
    0,                        !- Vertex 3 Zcoordinate
    11.9189,                  !- Vertex 4 Xcoordinate
    58.7588,                  !- Vertex 4 Ycoordinate
    14.2;                     !- Vertex 4 Zcoordinate

SHADING:SITE:DETAILED,
    Shading_V378_1,           !- Name
    ,                         !- Transmittance Schedule Name
    autocalculate,            !- Number of Vertices
    11.9189,                  !- Vertex 1 Xcoordinate
    58.7588,                  !- Vertex 1 Ycoordinate
    14.2,                     !- Vertex 1 Zcoordinate
    11.9189,                  !- Vertex 2 Xcoordinate
    58.7588,                  !- Vertex 2 Ycoordinate
    0,                        !- Vertex 2 Zcoordinate
    18.5659,                  !- Vertex 3 Xcoordinate
    64.9698,                  !- Vertex 3 Ycoordinate
    0,                        !- Vertex 3 Zcoordinate
    18.5659,                  !- Vertex 4 Xcoordinate
    64.9698,                  !- Vertex 4 Ycoordinate
    14.2;                     !- Vertex 4 Zcoordinate

SHADING:SITE:DETAILED,
    Shading_V476_1,           !- Name
    ,                         !- Transmittance Schedule Name
    autocalculate,            !- Number of Vertices
    24.8499,                  !- Vertex 1 Xcoordinate
    82.1768,                  !- Vertex 1 Ycoordinate
    12.8,                     !- Vertex 1 Zcoordinate
    24.8499,                  !- Vertex 2 Xcoordinate
    82.1768,                  !- Vertex 2 Ycoordinate
    0,                        !- Vertex 2 Zcoordinate
    29.0049,                  !- Vertex 3 Xcoordinate
    77.3358,                  !- Vertex 3 Ycoordinate
    0,                        !- Vertex 3 Zcoordinate
    29.0049,                  !- Vertex 4 Xcoordinate
    77.3358,                  !- Vertex 4 Ycoordinate
    12.8;                     !- Vertex 4 Zcoordinate

SHADING:SITE:DETAILED,
    Shading_V477_1,           !- Name
    ,                         !- Transmittance Schedule Name
    autocalculate,            !- Number of Vertices
    29.0049,                  !- Vertex 1 Xcoordinate
    77.3358,                  !- Vertex 1 Ycoordinate
    12.8,                     !- Vertex 1 Zcoordinate
    29.0049,                  !- Vertex 2 Xcoordinate
    77.3358,                  !- Vertex 2 Ycoordinate
    0,                        !- Vertex 2 Zcoordinate
    32.0409,                  !- Vertex 3 Xcoordinate
    79.9418,                  !- Vertex 3 Ycoordinate
    0,                        !- Vertex 3 Zcoordinate
    32.0409,                  !- Vertex 4 Xcoordinate
    79.9418,                  !- Vertex 4 Ycoordinate
    12.8;                     !- Vertex 4 Zcoordinate

SHADING:SITE:DETAILED,
    Shading_V478_1,           !- Name
    ,                         !- Transmittance Schedule Name
    autocalculate,            !- Number of Vertices
    32.0409,                  !- Vertex 1 Xcoordinate
    79.9418,                  !- Vertex 1 Ycoordinate
    12.8,                     !- Vertex 1 Zcoordinate
    32.0409,                  !- Vertex 2 Xcoordinate
    79.9418,                  !- Vertex 2 Ycoordinate
    0,                        !- Vertex 2 Zcoordinate
    36.2129,                  !- Vertex 3 Xcoordinate
    75.0818,                  !- Vertex 3 Ycoordinate
    0,                        !- Vertex 3 Zcoordinate
    36.2129,                  !- Vertex 4 Xcoordinate
    75.0818,                  !- Vertex 4 Ycoordinate
    12.8;                     !- Vertex 4 Zcoordinate

SHADING:SITE:DETAILED,
    Shading_V479_1,           !- Name
    ,                         !- Transmittance Schedule Name
    autocalculate,            !- Number of Vertices
    36.2129,                  !- Vertex 1 Xcoordinate
    75.0818,                  !- Vertex 1 Ycoordinate
    12.8,                     !- Vertex 1 Zcoordinate
    36.2129,                  !- Vertex 2 Xcoordinate
    75.0818,                  !- Vertex 2 Ycoordinate
    0,                        !- Vertex 2 Zcoordinate
    43.8629,                  !- Vertex 3 Xcoordinate
    81.6298,                  !- Vertex 3 Ycoordinate
    0,                        !- Vertex 3 Zcoordinate
    43.8629,                  !- Vertex 4 Xcoordinate
    81.6298,                  !- Vertex 4 Ycoordinate
    12.8;                     !- Vertex 4 Zcoordinate

SHADING:SITE:DETAILED,
    Shading_V394_1,           !- Name
    ,                         !- Transmittance Schedule Name
    autocalculate,            !- Number of Vertices
    38.6819,                  !- Vertex 1 Xcoordinate
    -6.5282,                  !- Vertex 1 Ycoordinate
    4.4,                      !- Vertex 1 Zcoordinate
    38.6819,                  !- Vertex 2 Xcoordinate
    -6.5282,                  !- Vertex 2 Ycoordinate
    0,                        !- Vertex 2 Zcoordinate
    34.9679,                  !- Vertex 3 Xcoordinate
    -6.2982,                  !- Vertex 3 Ycoordinate
    0,                        !- Vertex 3 Zcoordinate
    34.9679,                  !- Vertex 4 Xcoordinate
    -6.2982,                  !- Vertex 4 Ycoordinate
    4.4;                      !- Vertex 4 Zcoordinate

SHADING:SITE:DETAILED,
    Shading_V395_1,           !- Name
    ,                         !- Transmittance Schedule Name
    autocalculate,            !- Number of Vertices
    34.9679,                  !- Vertex 1 Xcoordinate
    -6.2982,                  !- Vertex 1 Ycoordinate
    4.4,                      !- Vertex 1 Zcoordinate
    34.9679,                  !- Vertex 2 Xcoordinate
    -6.2982,                  !- Vertex 2 Ycoordinate
    0,                        !- Vertex 2 Zcoordinate
    29.9089,                  !- Vertex 3 Xcoordinate
    -10.5852,                 !- Vertex 3 Ycoordinate
    0,                        !- Vertex 3 Zcoordinate
    29.9089,                  !- Vertex 4 Xcoordinate
    -10.5852,                 !- Vertex 4 Ycoordinate
    4.4;                      !- Vertex 4 Zcoordinate

SHADING:SITE:DETAILED,
    Shading_V314_1,           !- Name
    ,                         !- Transmittance Schedule Name
    autocalculate,            !- Number of Vertices
    45.9649,                  !- Vertex 1 Xcoordinate
    17.6608,                  !- Vertex 1 Ycoordinate
    15.8,                     !- Vertex 1 Zcoordinate
    45.9649,                  !- Vertex 2 Xcoordinate
    17.6608,                  !- Vertex 2 Ycoordinate
    0,                        !- Vertex 2 Zcoordinate
    51.7259,                  !- Vertex 3 Xcoordinate
    10.9138,                  !- Vertex 3 Ycoordinate
    0,                        !- Vertex 3 Zcoordinate
    51.7259,                  !- Vertex 4 Xcoordinate
    10.9138,                  !- Vertex 4 Ycoordinate
    15.8;                     !- Vertex 4 Zcoordinate

SHADING:SITE:DETAILED,
    Shading_V87_1,            !- Name
    ,                         !- Transmittance Schedule Name
    autocalculate,            !- Number of Vertices
    -109.5347,                !- Vertex 1 Xcoordinate
    61.4911,                  !- Vertex 1 Ycoordinate
    12,                       !- Vertex 1 Zcoordinate
    -109.5347,                !- Vertex 2 Xcoordinate
    61.4911,                  !- Vertex 2 Ycoordinate
    0,                        !- Vertex 2 Zcoordinate
    -108.7531,                !- Vertex 3 Xcoordinate
    71.9648,                  !- Vertex 3 Ycoordinate
    0,                        !- Vertex 3 Zcoordinate
    -108.7531,                !- Vertex 4 Xcoordinate
    71.9648,                  !- Vertex 4 Ycoordinate
    12;                       !- Vertex 4 Zcoordinate

SHADING:SITE:DETAILED,
    Shading_V88_1,            !- Name
    ,                         !- Transmittance Schedule Name
    autocalculate,            !- Number of Vertices
    -108.7531,                !- Vertex 1 Xcoordinate
    71.9648,                  !- Vertex 1 Ycoordinate
    12,                       !- Vertex 1 Zcoordinate
    -108.7531,                !- Vertex 2 Xcoordinate
    71.9648,                  !- Vertex 2 Ycoordinate
    0,                        !- Vertex 2 Zcoordinate
    -104.7651,                !- Vertex 3 Xcoordinate
    75.3568,                  !- Vertex 3 Ycoordinate
    0,                        !- Vertex 3 Zcoordinate
    -104.7651,                !- Vertex 4 Xcoordinate
    75.3568,                  !- Vertex 4 Ycoordinate
    12;                       !- Vertex 4 Zcoordinate

SHADING:SITE:DETAILED,
    Shading_V143_1,           !- Name
    ,                         !- Transmittance Schedule Name
    autocalculate,            !- Number of Vertices
    -34.3701,                 !- Vertex 1 Xcoordinate
    24.4138,                  !- Vertex 1 Ycoordinate
    15.5,                     !- Vertex 1 Zcoordinate
    -34.3701,                 !- Vertex 2 Xcoordinate
    24.4138,                  !- Vertex 2 Ycoordinate
    0,                        !- Vertex 2 Zcoordinate
    -26.5661,                 !- Vertex 3 Xcoordinate
    31.0928,                  !- Vertex 3 Ycoordinate
    0,                        !- Vertex 3 Zcoordinate
    -26.5661,                 !- Vertex 4 Xcoordinate
    31.0928,                  !- Vertex 4 Ycoordinate
    15.5;                     !- Vertex 4 Zcoordinate

SHADING:SITE:DETAILED,
    Shading_V144_1,           !- Name
    ,                         !- Transmittance Schedule Name
    autocalculate,            !- Number of Vertices
    -26.5661,                 !- Vertex 1 Xcoordinate
    31.0928,                  !- Vertex 1 Ycoordinate
    15.5,                     !- Vertex 1 Zcoordinate
    -26.5661,                 !- Vertex 2 Xcoordinate
    31.0928,                  !- Vertex 2 Ycoordinate
    0,                        !- Vertex 2 Zcoordinate
    -23.9641,                 !- Vertex 3 Xcoordinate
    28.0538,                  !- Vertex 3 Ycoordinate
    0,                        !- Vertex 3 Zcoordinate
    -23.9641,                 !- Vertex 4 Xcoordinate
    28.0538,                  !- Vertex 4 Ycoordinate
    15.5;                     !- Vertex 4 Zcoordinate

SHADING:SITE:DETAILED,
    Shading_V145_1,           !- Name
    ,                         !- Transmittance Schedule Name
    autocalculate,            !- Number of Vertices
    -23.9641,                 !- Vertex 1 Xcoordinate
    28.0538,                  !- Vertex 1 Ycoordinate
    15.5,                     !- Vertex 1 Zcoordinate
    -23.9641,                 !- Vertex 2 Xcoordinate
    28.0538,                  !- Vertex 2 Ycoordinate
    0,                        !- Vertex 2 Zcoordinate
    -18.8661,                 !- Vertex 3 Xcoordinate
    32.4158,                  !- Vertex 3 Ycoordinate
    0,                        !- Vertex 3 Zcoordinate
    -18.8661,                 !- Vertex 4 Xcoordinate
    32.4158,                  !- Vertex 4 Ycoordinate
    15.5;                     !- Vertex 4 Zcoordinate

SHADING:SITE:DETAILED,
    Shading_V147_1,           !- Name
    ,                         !- Transmittance Schedule Name
    autocalculate,            !- Number of Vertices
    -21.4681,                 !- Vertex 1 Xcoordinate
    35.4558,                  !- Vertex 1 Ycoordinate
    15.5,                     !- Vertex 1 Zcoordinate
    -21.4681,                 !- Vertex 2 Xcoordinate
    35.4558,                  !- Vertex 2 Ycoordinate
    0,                        !- Vertex 2 Zcoordinate
    -9.0221,                  !- Vertex 3 Xcoordinate
    46.1048,                  !- Vertex 3 Ycoordinate
    0,                        !- Vertex 3 Zcoordinate
    -9.0221,                  !- Vertex 4 Xcoordinate
    46.1048,                  !- Vertex 4 Ycoordinate
    15.5;                     !- Vertex 4 Zcoordinate

SHADING:SITE:DETAILED,
    Shading_V177_1,           !- Name
    ,                         !- Transmittance Schedule Name
    autocalculate,            !- Number of Vertices
    -56.9101,                 !- Vertex 1 Xcoordinate
    -1.7082,                  !- Vertex 1 Ycoordinate
    19.2,                     !- Vertex 1 Zcoordinate
    -56.9101,                 !- Vertex 2 Xcoordinate
    -1.7082,                  !- Vertex 2 Ycoordinate
    0,                        !- Vertex 2 Zcoordinate
    -49.2711,                 !- Vertex 3 Xcoordinate
    4.8848,                   !- Vertex 3 Ycoordinate
    0,                        !- Vertex 3 Zcoordinate
    -49.2711,                 !- Vertex 4 Xcoordinate
    4.8848,                   !- Vertex 4 Ycoordinate
    19.2;                     !- Vertex 4 Zcoordinate

SHADING:SITE:DETAILED,
    Shading_V178_1,           !- Name
    ,                         !- Transmittance Schedule Name
    autocalculate,            !- Number of Vertices
    -49.2711,                 !- Vertex 1 Xcoordinate
    4.8848,                   !- Vertex 1 Ycoordinate
    19.2,                     !- Vertex 1 Zcoordinate
    -49.2711,                 !- Vertex 2 Xcoordinate
    4.8848,                   !- Vertex 2 Ycoordinate
    0,                        !- Vertex 2 Zcoordinate
    -54.4691,                 !- Vertex 3 Xcoordinate
    10.9078,                  !- Vertex 3 Ycoordinate
    0,                        !- Vertex 3 Zcoordinate
    -54.4691,                 !- Vertex 4 Xcoordinate
    10.9078,                  !- Vertex 4 Ycoordinate
    19.2;                     !- Vertex 4 Zcoordinate

SHADING:SITE:DETAILED,
    Shading_V179_1,           !- Name
    ,                         !- Transmittance Schedule Name
    autocalculate,            !- Number of Vertices
    -54.4691,                 !- Vertex 1 Xcoordinate
    10.9078,                  !- Vertex 1 Ycoordinate
    19.2,                     !- Vertex 1 Zcoordinate
    -54.4691,                 !- Vertex 2 Xcoordinate
    10.9078,                  !- Vertex 2 Ycoordinate
    0,                        !- Vertex 2 Zcoordinate
    -48.4131,                 !- Vertex 3 Xcoordinate
    16.1068,                  !- Vertex 3 Ycoordinate
    0,                        !- Vertex 3 Zcoordinate
    -48.4131,                 !- Vertex 4 Xcoordinate
    16.1068,                  !- Vertex 4 Ycoordinate
    19.2;                     !- Vertex 4 Zcoordinate

SHADING:SITE:DETAILED,
    Shading_V180_1,           !- Name
    ,                         !- Transmittance Schedule Name
    autocalculate,            !- Number of Vertices
    -48.4131,                 !- Vertex 1 Xcoordinate
    16.1068,                  !- Vertex 1 Ycoordinate
    19.2,                     !- Vertex 1 Zcoordinate
    -48.4131,                 !- Vertex 2 Xcoordinate
    16.1068,                  !- Vertex 2 Ycoordinate
    0,                        !- Vertex 2 Zcoordinate
    -54.9911,                 !- Vertex 3 Xcoordinate
    23.7618,                  !- Vertex 3 Ycoordinate
    0,                        !- Vertex 3 Zcoordinate
    -54.9911,                 !- Vertex 4 Xcoordinate
    23.7618,                  !- Vertex 4 Ycoordinate
    19.2;                     !- Vertex 4 Zcoordinate

SHADING:SITE:DETAILED,
    Shading_V306_1,           !- Name
    ,                         !- Transmittance Schedule Name
    autocalculate,            !- Number of Vertices
    -36.9421,                 !- Vertex 1 Xcoordinate
    -9.4712,                  !- Vertex 1 Ycoordinate
    18.8,                     !- Vertex 1 Zcoordinate
    -36.9421,                 !- Vertex 2 Xcoordinate
    -9.4712,                  !- Vertex 2 Ycoordinate
    0,                        !- Vertex 2 Zcoordinate
    -42.7591,                 !- Vertex 3 Xcoordinate
    -2.6452,                  !- Vertex 3 Ycoordinate
    0,                        !- Vertex 3 Zcoordinate
    -42.7591,                 !- Vertex 4 Xcoordinate
    -2.6452,                  !- Vertex 4 Ycoordinate
    18.8;                     !- Vertex 4 Zcoordinate

SHADING:SITE:DETAILED,
    Shading_V350_1,           !- Name
    ,                         !- Transmittance Schedule Name
    autocalculate,            !- Number of Vertices
    -70.8991,                 !- Vertex 1 Xcoordinate
    29.9968,                  !- Vertex 1 Ycoordinate
    12.2,                     !- Vertex 1 Zcoordinate
    -70.8991,                 !- Vertex 2 Xcoordinate
    29.9968,                  !- Vertex 2 Ycoordinate
    0,                        !- Vertex 2 Zcoordinate
    -67.9691,                 !- Vertex 3 Xcoordinate
    32.5138,                  !- Vertex 3 Ycoordinate
    0,                        !- Vertex 3 Zcoordinate
    -67.9691,                 !- Vertex 4 Xcoordinate
    32.5138,                  !- Vertex 4 Ycoordinate
    12.2;                     !- Vertex 4 Zcoordinate

SHADING:SITE:DETAILED,
    Shading_V351_1,           !- Name
    ,                         !- Transmittance Schedule Name
    autocalculate,            !- Number of Vertices
    -67.9691,                 !- Vertex 1 Xcoordinate
    32.5138,                  !- Vertex 1 Ycoordinate
    12.2,                     !- Vertex 1 Zcoordinate
    -67.9691,                 !- Vertex 2 Xcoordinate
    32.5138,                  !- Vertex 2 Ycoordinate
    0,                        !- Vertex 2 Zcoordinate
    -74.3441,                 !- Vertex 3 Xcoordinate
    40.0408,                  !- Vertex 3 Ycoordinate
    0,                        !- Vertex 3 Zcoordinate
    -74.3441,                 !- Vertex 4 Xcoordinate
    40.0408,                  !- Vertex 4 Ycoordinate
    12.2;                     !- Vertex 4 Zcoordinate

SHADING:SITE:DETAILED,
    Shading_V502_1,           !- Name
    ,                         !- Transmittance Schedule Name
    autocalculate,            !- Number of Vertices
    -102.0021,                !- Vertex 1 Xcoordinate
    -30.2502,                 !- Vertex 1 Ycoordinate
    8.3,                      !- Vertex 1 Zcoordinate
    -102.0021,                !- Vertex 2 Xcoordinate
    -30.2502,                 !- Vertex 2 Ycoordinate
    0,                        !- Vertex 2 Zcoordinate
    -94.5871,                 !- Vertex 3 Xcoordinate
    -22.8032,                 !- Vertex 3 Ycoordinate
    0,                        !- Vertex 3 Zcoordinate
    -94.5871,                 !- Vertex 4 Xcoordinate
    -22.8032,                 !- Vertex 4 Ycoordinate
    8.3;                      !- Vertex 4 Zcoordinate

SHADING:SITE:DETAILED,
    Shading_V503_1,           !- Name
    ,                         !- Transmittance Schedule Name
    autocalculate,            !- Number of Vertices
    -94.5871,                 !- Vertex 1 Xcoordinate
    -22.8032,                 !- Vertex 1 Ycoordinate
    8.3,                      !- Vertex 1 Zcoordinate
    -94.5871,                 !- Vertex 2 Xcoordinate
    -22.8032,                 !- Vertex 2 Ycoordinate
    0,                        !- Vertex 2 Zcoordinate
    -102.7111,                !- Vertex 3 Xcoordinate
    -14.6192,                 !- Vertex 3 Ycoordinate
    0,                        !- Vertex 3 Zcoordinate
    -102.7111,                !- Vertex 4 Xcoordinate
    -14.6192,                 !- Vertex 4 Ycoordinate
    8.3;                      !- Vertex 4 Zcoordinate

SHADING:SITE:DETAILED,
    Shading_V148_1,           !- Name
    ,                         !- Transmittance Schedule Name
    autocalculate,            !- Number of Vertices
    -9.0221,                  !- Vertex 1 Xcoordinate
    46.1048,                  !- Vertex 1 Ycoordinate
    15.5,                     !- Vertex 1 Zcoordinate
    -9.0221,                  !- Vertex 2 Xcoordinate
    46.1048,                  !- Vertex 2 Ycoordinate
    0,                        !- Vertex 2 Zcoordinate
    -6.4221,                  !- Vertex 3 Xcoordinate
    43.0658,                  !- Vertex 3 Ycoordinate
    0,                        !- Vertex 3 Zcoordinate
    -6.4221,                  !- Vertex 4 Xcoordinate
    43.0658,                  !- Vertex 4 Ycoordinate
    15.5;                     !- Vertex 4 Zcoordinate

SHADING:SITE:DETAILED,
    Shading_V149_1,           !- Name
    ,                         !- Transmittance Schedule Name
    autocalculate,            !- Number of Vertices
    -6.4221,                  !- Vertex 1 Xcoordinate
    43.0658,                  !- Vertex 1 Ycoordinate
    15.5,                     !- Vertex 1 Zcoordinate
    -6.4221,                  !- Vertex 2 Xcoordinate
    43.0658,                  !- Vertex 2 Ycoordinate
    0,                        !- Vertex 2 Zcoordinate
    -1.3511,                  !- Vertex 3 Xcoordinate
    47.4068,                  !- Vertex 3 Ycoordinate
    0,                        !- Vertex 3 Zcoordinate
    -1.3511,                  !- Vertex 4 Xcoordinate
    47.4068,                  !- Vertex 4 Ycoordinate
    15.5;                     !- Vertex 4 Zcoordinate

SHADING:SITE:DETAILED,
    Shading_V221_1,           !- Name
    ,                         !- Transmittance Schedule Name
    autocalculate,            !- Number of Vertices
    -54.1271,                 !- Vertex 1 Xcoordinate
    128.2488,                 !- Vertex 1 Ycoordinate
    14.3,                     !- Vertex 1 Zcoordinate
    -54.1271,                 !- Vertex 2 Xcoordinate
    128.2488,                 !- Vertex 2 Ycoordinate
    0,                        !- Vertex 2 Zcoordinate
    -50.3111,                 !- Vertex 3 Xcoordinate
    123.7898,                 !- Vertex 3 Ycoordinate
    0,                        !- Vertex 3 Zcoordinate
    -50.3111,                 !- Vertex 4 Xcoordinate
    123.7898,                 !- Vertex 4 Ycoordinate
    14.3;                     !- Vertex 4 Zcoordinate

SHADING:SITE:DETAILED,
    Shading_V222_1,           !- Name
    ,                         !- Transmittance Schedule Name
    autocalculate,            !- Number of Vertices
    -50.3111,                 !- Vertex 1 Xcoordinate
    123.7898,                 !- Vertex 1 Ycoordinate
    14.3,                     !- Vertex 1 Zcoordinate
    -50.3111,                 !- Vertex 2 Xcoordinate
    123.7898,                 !- Vertex 2 Ycoordinate
    0,                        !- Vertex 2 Zcoordinate
    -47.2711,                 !- Vertex 3 Xcoordinate
    126.3898,                 !- Vertex 3 Ycoordinate
    0,                        !- Vertex 3 Zcoordinate
    -47.2711,                 !- Vertex 4 Xcoordinate
    126.3898,                 !- Vertex 4 Ycoordinate
    14.3;                     !- Vertex 4 Zcoordinate

SHADING:SITE:DETAILED,
    Shading_V375_1,           !- Name
    ,                         !- Transmittance Schedule Name
    autocalculate,            !- Number of Vertices
    -17.5701,                 !- Vertex 1 Xcoordinate
    87.2858,                  !- Vertex 1 Ycoordinate
    14.2,                     !- Vertex 1 Zcoordinate
    -17.5701,                 !- Vertex 2 Xcoordinate
    87.2858,                  !- Vertex 2 Ycoordinate
    0,                        !- Vertex 2 Zcoordinate
    -11.2361,                 !- Vertex 3 Xcoordinate
    79.6708,                  !- Vertex 3 Ycoordinate
    0,                        !- Vertex 3 Zcoordinate
    -11.2361,                 !- Vertex 4 Xcoordinate
    79.6708,                  !- Vertex 4 Ycoordinate
    14.2;                     !- Vertex 4 Zcoordinate

SHADING:SITE:DETAILED,
    Shading_V59_1,            !- Name
    ,                         !- Transmittance Schedule Name
    autocalculate,            !- Number of Vertices
    -12.4201,                 !- Vertex 1 Xcoordinate
    -32.6222,                 !- Vertex 1 Ycoordinate
    11.6,                     !- Vertex 1 Zcoordinate
    -12.4201,                 !- Vertex 2 Xcoordinate
    -32.6222,                 !- Vertex 2 Ycoordinate
    0,                        !- Vertex 2 Zcoordinate
    -17.3721,                 !- Vertex 3 Xcoordinate
    -32.1832,                 !- Vertex 3 Ycoordinate
    0,                        !- Vertex 3 Zcoordinate
    -17.3721,                 !- Vertex 4 Xcoordinate
    -32.1832,                 !- Vertex 4 Ycoordinate
    11.6;                     !- Vertex 4 Zcoordinate

SHADING:SITE:DETAILED,
    Shading_V60_1,            !- Name
    ,                         !- Transmittance Schedule Name
    autocalculate,            !- Number of Vertices
    -17.3721,                 !- Vertex 1 Xcoordinate
    -32.1832,                 !- Vertex 1 Ycoordinate
    11.6,                     !- Vertex 1 Zcoordinate
    -17.3721,                 !- Vertex 2 Xcoordinate
    -32.1832,                 !- Vertex 2 Ycoordinate
    0,                        !- Vertex 2 Zcoordinate
    -23.9717,                 !- Vertex 3 Xcoordinate
    -24.5238,                 !- Vertex 3 Ycoordinate
    0,                        !- Vertex 3 Zcoordinate
    -23.9717,                 !- Vertex 4 Xcoordinate
    -24.5238,                 !- Vertex 4 Ycoordinate
    11.6;                     !- Vertex 4 Zcoordinate

SHADING:SITE:DETAILED,
    Shading_V302_1,           !- Name
    ,                         !- Transmittance Schedule Name
    autocalculate,            !- Number of Vertices
    -23.9717,                 !- Vertex 1 Xcoordinate
    -24.5238,                 !- Vertex 1 Ycoordinate
    18.8,                     !- Vertex 1 Zcoordinate
    -23.9717,                 !- Vertex 2 Xcoordinate
    -24.5238,                 !- Vertex 2 Ycoordinate
    0,                        !- Vertex 2 Zcoordinate
    -30.9111,                 !- Vertex 3 Xcoordinate
    -16.4702,                 !- Vertex 3 Ycoordinate
    0,                        !- Vertex 3 Zcoordinate
    -30.9111,                 !- Vertex 4 Xcoordinate
    -16.4702,                 !- Vertex 4 Ycoordinate
    18.8;                     !- Vertex 4 Zcoordinate

SHADING:SITE:DETAILED,
    Shading_V146_1,           !- Name
    ,                         !- Transmittance Schedule Name
    autocalculate,            !- Number of Vertices
    -18.8661,                 !- Vertex 1 Xcoordinate
    32.4158,                  !- Vertex 1 Ycoordinate
    15.5,                     !- Vertex 1 Zcoordinate
    -18.8661,                 !- Vertex 2 Xcoordinate
    32.4158,                  !- Vertex 2 Ycoordinate
    0,                        !- Vertex 2 Zcoordinate
    -21.4681,                 !- Vertex 3 Xcoordinate
    35.4558,                  !- Vertex 3 Ycoordinate
    0,                        !- Vertex 3 Zcoordinate
    -21.4681,                 !- Vertex 4 Xcoordinate
    35.4558,                  !- Vertex 4 Ycoordinate
    15.5;                     !- Vertex 4 Zcoordinate

SHADING:SITE:DETAILED,
    Shading_V449_1,           !- Name
    ,                         !- Transmittance Schedule Name
    autocalculate,            !- Number of Vertices
    -158.1421,                !- Vertex 1 Xcoordinate
    -84.7482,                 !- Vertex 1 Ycoordinate
    6.4,                      !- Vertex 1 Zcoordinate
    -158.1421,                !- Vertex 2 Xcoordinate
    -84.7482,                 !- Vertex 2 Ycoordinate
    0,                        !- Vertex 2 Zcoordinate
    -168.1591,                !- Vertex 3 Xcoordinate
    -87.1492,                 !- Vertex 3 Ycoordinate
    0,                        !- Vertex 3 Zcoordinate
    -168.1591,                !- Vertex 4 Xcoordinate
    -87.1492,                 !- Vertex 4 Ycoordinate
    6.4;                      !- Vertex 4 Zcoordinate

SHADING:SITE:DETAILED,
    Shading_V86_1,            !- Name
    ,                         !- Transmittance Schedule Name
    autocalculate,            !- Number of Vertices
    -145.0771,                !- Vertex 1 Xcoordinate
    -22.8072,                 !- Vertex 1 Ycoordinate
    8,                        !- Vertex 1 Zcoordinate
    -145.0771,                !- Vertex 2 Xcoordinate
    -22.8072,                 !- Vertex 2 Ycoordinate
    0,                        !- Vertex 2 Zcoordinate
    -136.4961,                !- Vertex 3 Xcoordinate
    -16.6222,                 !- Vertex 3 Ycoordinate
    0,                        !- Vertex 3 Zcoordinate
    -136.4961,                !- Vertex 4 Xcoordinate
    -16.6222,                 !- Vertex 4 Ycoordinate
    8;                        !- Vertex 4 Zcoordinate

SHADING:SITE:DETAILED,
    Shading_V89_1,            !- Name
    ,                         !- Transmittance Schedule Name
    autocalculate,            !- Number of Vertices
    -104.7651,                !- Vertex 1 Xcoordinate
    75.3568,                  !- Vertex 1 Ycoordinate
    12,                       !- Vertex 1 Zcoordinate
    -104.7651,                !- Vertex 2 Xcoordinate
    75.3568,                  !- Vertex 2 Ycoordinate
    0,                        !- Vertex 2 Zcoordinate
    -109.4181,                !- Vertex 3 Xcoordinate
    80.7948,                  !- Vertex 3 Ycoordinate
    0,                        !- Vertex 3 Zcoordinate
    -109.4181,                !- Vertex 4 Xcoordinate
    80.7948,                  !- Vertex 4 Ycoordinate
    12;                       !- Vertex 4 Zcoordinate

SHADING:SITE:DETAILED,
    Shading_V286_1,           !- Name
    ,                         !- Transmittance Schedule Name
    autocalculate,            !- Number of Vertices
    -141.8231,                !- Vertex 1 Xcoordinate
    123.0998,                 !- Vertex 1 Ycoordinate
    18.7,                     !- Vertex 1 Zcoordinate
    -141.8231,                !- Vertex 2 Xcoordinate
    123.0998,                 !- Vertex 2 Ycoordinate
    0,                        !- Vertex 2 Zcoordinate
    -148.3661,                !- Vertex 3 Xcoordinate
    130.7048,                 !- Vertex 3 Ycoordinate
    0,                        !- Vertex 3 Zcoordinate
    -148.3661,                !- Vertex 4 Xcoordinate
    130.7048,                 !- Vertex 4 Ycoordinate
    18.7;                     !- Vertex 4 Zcoordinate

SHADING:SITE:DETAILED,
    Shading_V304_1,           !- Name
    ,                         !- Transmittance Schedule Name
    autocalculate,            !- Number of Vertices
    -26.7501,                 !- Vertex 1 Xcoordinate
    -12.8852,                 !- Vertex 1 Ycoordinate
    18.8,                     !- Vertex 1 Zcoordinate
    -26.7501,                 !- Vertex 2 Xcoordinate
    -12.8852,                 !- Vertex 2 Ycoordinate
    0,                        !- Vertex 2 Zcoordinate
    -32.7821,                 !- Vertex 3 Xcoordinate
    -5.8862,                  !- Vertex 3 Ycoordinate
    0,                        !- Vertex 3 Zcoordinate
    -32.7821,                 !- Vertex 4 Xcoordinate
    -5.8862,                  !- Vertex 4 Ycoordinate
    18.8;                     !- Vertex 4 Zcoordinate

SHADING:SITE:DETAILED,
    Shading_V507_1,           !- Name
    ,                         !- Transmittance Schedule Name
    autocalculate,            !- Number of Vertices
    -122.9731,                !- Vertex 1 Xcoordinate
    90.4958,                  !- Vertex 1 Ycoordinate
    19,                       !- Vertex 1 Zcoordinate
    -122.9731,                !- Vertex 2 Xcoordinate
    90.4958,                  !- Vertex 2 Ycoordinate
    0,                        !- Vertex 2 Zcoordinate
    -116.9401,                !- Vertex 3 Xcoordinate
    95.7348,                  !- Vertex 3 Ycoordinate
    0,                        !- Vertex 3 Zcoordinate
    -116.9401,                !- Vertex 4 Xcoordinate
    95.7348,                  !- Vertex 4 Ycoordinate
    19;                       !- Vertex 4 Zcoordinate

SHADING:SITE:DETAILED,
    Shading_V508_1,           !- Name
    ,                         !- Transmittance Schedule Name
    autocalculate,            !- Number of Vertices
    -116.9401,                !- Vertex 1 Xcoordinate
    95.7348,                  !- Vertex 1 Ycoordinate
    19,                       !- Vertex 1 Zcoordinate
    -116.9401,                !- Vertex 2 Xcoordinate
    95.7348,                  !- Vertex 2 Ycoordinate
    0,                        !- Vertex 2 Zcoordinate
    -123.5081,                !- Vertex 3 Xcoordinate
    103.4078,                 !- Vertex 3 Ycoordinate
    0,                        !- Vertex 3 Zcoordinate
    -123.5081,                !- Vertex 4 Xcoordinate
    103.4078,                 !- Vertex 4 Ycoordinate
    19;                       !- Vertex 4 Zcoordinate

SHADING:SITE:DETAILED,
    Shading_V393_1,           !- Name
    ,                         !- Transmittance Schedule Name
    autocalculate,            !- Number of Vertices
    45.5019,                  !- Vertex 1 Xcoordinate
    -14.4232,                 !- Vertex 1 Ycoordinate
    4.4,                      !- Vertex 1 Zcoordinate
    45.5019,                  !- Vertex 2 Xcoordinate
    -14.4232,                 !- Vertex 2 Ycoordinate
    0,                        !- Vertex 2 Zcoordinate
    38.6819,                  !- Vertex 3 Xcoordinate
    -6.5282,                  !- Vertex 3 Ycoordinate
    0,                        !- Vertex 3 Zcoordinate
    38.6819,                  !- Vertex 4 Xcoordinate
    -6.5282,                  !- Vertex 4 Ycoordinate
    4.4;                      !- Vertex 4 Zcoordinate

SHADING:SITE:DETAILED,
    Shading_V305_1,           !- Name
    ,                         !- Transmittance Schedule Name
    autocalculate,            !- Number of Vertices
    -32.7821,                 !- Vertex 1 Xcoordinate
    -5.8862,                  !- Vertex 1 Ycoordinate
    18.8,                     !- Vertex 1 Zcoordinate
    -32.7821,                 !- Vertex 2 Xcoordinate
    -5.8862,                  !- Vertex 2 Ycoordinate
    0,                        !- Vertex 2 Zcoordinate
    -36.9421,                 !- Vertex 3 Xcoordinate
    -9.4712,                  !- Vertex 3 Ycoordinate
    0,                        !- Vertex 3 Zcoordinate
    -36.9421,                 !- Vertex 4 Xcoordinate
    -9.4712,                  !- Vertex 4 Ycoordinate
    18.8;                     !- Vertex 4 Zcoordinate

SHADING:SITE:DETAILED,
    Shading_V349_1,           !- Name
    ,                         !- Transmittance Schedule Name
    autocalculate,            !- Number of Vertices
    -67.1729,                 !- Vertex 1 Xcoordinate
    25.6612,                  !- Vertex 1 Ycoordinate
    12.2,                     !- Vertex 1 Zcoordinate
    -67.1729,                 !- Vertex 2 Xcoordinate
    25.6612,                  !- Vertex 2 Ycoordinate
    0,                        !- Vertex 2 Zcoordinate
    -70.8991,                 !- Vertex 3 Xcoordinate
    29.9968,                  !- Vertex 3 Ycoordinate
    0,                        !- Vertex 3 Zcoordinate
    -70.8991,                 !- Vertex 4 Xcoordinate
    29.9968,                  !- Vertex 4 Ycoordinate
    12.2;                     !- Vertex 4 Zcoordinate

SHADING:SITE:DETAILED,
    Shading_V58_1,            !- Name
    ,                         !- Transmittance Schedule Name
    autocalculate,            !- Number of Vertices
    -12.9611,                 !- Vertex 1 Xcoordinate
    -39.7532,                 !- Vertex 1 Ycoordinate
    11.6,                     !- Vertex 1 Zcoordinate
    -12.9611,                 !- Vertex 2 Xcoordinate
    -39.7532,                 !- Vertex 2 Ycoordinate
    0,                        !- Vertex 2 Zcoordinate
    -12.4201,                 !- Vertex 3 Xcoordinate
    -32.6222,                 !- Vertex 3 Ycoordinate
    0,                        !- Vertex 3 Zcoordinate
    -12.4201,                 !- Vertex 4 Xcoordinate
    -32.6222,                 !- Vertex 4 Ycoordinate
    11.6;                     !- Vertex 4 Zcoordinate

SHADING:SITE:DETAILED,
    Shading_V446_1,           !- Name
    ,                         !- Transmittance Schedule Name
    autocalculate,            !- Number of Vertices
    14.0079,                  !- Vertex 1 Xcoordinate
    -26.1792,                 !- Vertex 1 Ycoordinate
    6.7,                      !- Vertex 1 Zcoordinate
    14.0079,                  !- Vertex 2 Xcoordinate
    -26.1792,                 !- Vertex 2 Ycoordinate
    0,                        !- Vertex 2 Zcoordinate
    13.7009,                  !- Vertex 3 Xcoordinate
    -30.3982,                 !- Vertex 3 Ycoordinate
    0,                        !- Vertex 3 Zcoordinate
    13.7009,                  !- Vertex 4 Xcoordinate
    -30.3982,                 !- Vertex 4 Ycoordinate
    6.7;                      !- Vertex 4 Zcoordinate

SHADING:SITE:DETAILED,
    Shading_V461_1,           !- Name
    ,                         !- Transmittance Schedule Name
    autocalculate,            !- Number of Vertices
    -11.2131,                 !- Vertex 1 Xcoordinate
    -68.3922,                 !- Vertex 1 Ycoordinate
    18.8,                     !- Vertex 1 Zcoordinate
    -11.2131,                 !- Vertex 2 Xcoordinate
    -68.3922,                 !- Vertex 2 Ycoordinate
    0,                        !- Vertex 2 Zcoordinate
    -10.4301,                 !- Vertex 3 Xcoordinate
    -58.3032,                 !- Vertex 3 Ycoordinate
    0,                        !- Vertex 3 Zcoordinate
    -10.4301,                 !- Vertex 4 Xcoordinate
    -58.3032,                 !- Vertex 4 Ycoordinate
    18.8;                     !- Vertex 4 Zcoordinate

SHADING:SITE:DETAILED,
    Shading_V462_1,           !- Name
    ,                         !- Transmittance Schedule Name
    autocalculate,            !- Number of Vertices
    -10.4301,                 !- Vertex 1 Xcoordinate
    -58.3032,                 !- Vertex 1 Ycoordinate
    18.8,                     !- Vertex 1 Zcoordinate
    -10.4301,                 !- Vertex 2 Xcoordinate
    -58.3032,                 !- Vertex 2 Ycoordinate
    0,                        !- Vertex 2 Zcoordinate
    -18.2971,                 !- Vertex 3 Xcoordinate
    -57.7952,                 !- Vertex 3 Ycoordinate
    0,                        !- Vertex 3 Zcoordinate
    -18.2971,                 !- Vertex 4 Xcoordinate
    -57.7952,                 !- Vertex 4 Ycoordinate
    18.8;                     !- Vertex 4 Zcoordinate

SHADING:SITE:DETAILED,
    Shading_V463_1,           !- Name
    ,                         !- Transmittance Schedule Name
    autocalculate,            !- Number of Vertices
    -18.2971,                 !- Vertex 1 Xcoordinate
    -57.7952,                 !- Vertex 1 Ycoordinate
    18.8,                     !- Vertex 1 Zcoordinate
    -18.2971,                 !- Vertex 2 Xcoordinate
    -57.7952,                 !- Vertex 2 Ycoordinate
    0,                        !- Vertex 2 Zcoordinate
    -17.6136,                 !- Vertex 3 Xcoordinate
    -48.4931,                 !- Vertex 3 Ycoordinate
    0,                        !- Vertex 3 Zcoordinate
    -17.6136,                 !- Vertex 4 Xcoordinate
    -48.4931,                 !- Vertex 4 Ycoordinate
    18.8;                     !- Vertex 4 Zcoordinate

SHADING:SITE:DETAILED,
    Shading_V303_1,           !- Name
    ,                         !- Transmittance Schedule Name
    autocalculate,            !- Number of Vertices
    -30.9111,                 !- Vertex 1 Xcoordinate
    -16.4702,                 !- Vertex 1 Ycoordinate
    18.8,                     !- Vertex 1 Zcoordinate
    -30.9111,                 !- Vertex 2 Xcoordinate
    -16.4702,                 !- Vertex 2 Ycoordinate
    0,                        !- Vertex 2 Zcoordinate
    -26.7501,                 !- Vertex 3 Xcoordinate
    -12.8852,                 !- Vertex 3 Ycoordinate
    0,                        !- Vertex 3 Zcoordinate
    -26.7501,                 !- Vertex 4 Xcoordinate
    -12.8852,                 !- Vertex 4 Ycoordinate
    18.8;                     !- Vertex 4 Zcoordinate

SHADING:SITE:DETAILED,
    Shading_V56_1,            !- Name
    ,                         !- Transmittance Schedule Name
    autocalculate,            !- Number of Vertices
    -17.6136,                 !- Vertex 1 Xcoordinate
    -48.4931,                 !- Vertex 1 Ycoordinate
    11.6,                     !- Vertex 1 Zcoordinate
    -17.6136,                 !- Vertex 2 Xcoordinate
    -48.4931,                 !- Vertex 2 Ycoordinate
    0,                        !- Vertex 2 Zcoordinate
    -16.9491,                 !- Vertex 3 Xcoordinate
    -39.4502,                 !- Vertex 3 Ycoordinate
    0,                        !- Vertex 3 Zcoordinate
    -16.9491,                 !- Vertex 4 Xcoordinate
    -39.4502,                 !- Vertex 4 Ycoordinate
    11.6;                     !- Vertex 4 Zcoordinate

SHADING:SITE:DETAILED,
    Shading_V313_1,           !- Name
    ,                         !- Transmittance Schedule Name
    autocalculate,            !- Number of Vertices
    42.9369,                  !- Vertex 1 Xcoordinate
    15.0458,                  !- Vertex 1 Ycoordinate
    15.8,                     !- Vertex 1 Zcoordinate
    42.9369,                  !- Vertex 2 Xcoordinate
    15.0458,                  !- Vertex 2 Ycoordinate
    0,                        !- Vertex 2 Zcoordinate
    45.9649,                  !- Vertex 3 Xcoordinate
    17.6608,                  !- Vertex 3 Ycoordinate
    0,                        !- Vertex 3 Zcoordinate
    45.9649,                  !- Vertex 4 Xcoordinate
    17.6608,                  !- Vertex 4 Ycoordinate
    15.8;                     !- Vertex 4 Zcoordinate

ELECTRICEQUIPMENT,
    Block Build0_Alt0 Storey 0Load,    !- Name
    Block Build0_Alt0 Storey 0,    !- Zone or ZoneList Name
    LoadSchedule,             !- Schedule Name
    Watts/Area,               !- Design Level Calculation Method
    ,                         !- Design Level
    0.05,                     !- Watts per Zone Floor Area
    ,                         !- Watts per Person
    0,                        !- Fraction Latent
    0,                        !- Fraction Radiant
    0,                        !- Fraction Lost
    General;                  !- EndUse Subcategory

ZONEINFILTRATION:DESIGNFLOWRATE,
    Block Build0_Alt0 Storey -1Leak,    !- Name
    Block Build0_Alt0 Storey -1,    !- Zone or ZoneList Name
    AlwaysON,                 !- Schedule Name
    AirChanges/Hour,          !- Design Flow Rate Calculation Method
    ,                         !- Design Flow Rate
    ,                         !- Flow per Zone Floor Area
    ,                         !- Flow per Exterior Surface Area
    1,                        !- Air Changes per Hour
    1,                        !- Constant Term Coefficient
    0,                        !- Temperature Term Coefficient
    0,                        !- Velocity Term Coefficient
    0;                        !- Velocity Squared Term Coefficient

ZONEINFILTRATION:FLOWCOEFFICIENT,
    Block Build0_Alt0 Storey 0Leak,    !- Name
    Block Build0_Alt0 Storey 0,    !- Zone Name
    AlwaysON,                 !- Schedule Name
    3.782309e-01,             !- Flow Coefficient
    0.107,                    !- Stack Coefficient
    0.667,                    !- Pressure Exponent
    0.167,                    !- Wind Coefficient
    0.61;                     !- Shelter Factor

ZONEVENTILATION:DESIGNFLOWRATE,
    Block Build0_Alt0 Storey 0FreeCool,    !- Name
    Block Build0_Alt0 Storey 0,    !- Zone or ZoneList Name
    AlwaysON,                 !- Schedule Name
    AirChanges/Hour,          !- Design Flow Rate Calculation Method
    ,                         !- Design Flow Rate
    ,                         !- Flow Rate per Zone Floor Area
    ,                         !- Flow Rate per Person
    4,                        !- Air Changes per Hour
    Natural,                  !- Ventilation Type
    0,                        !- Fan Pressure Rise
    1,                        !- Fan Total Efficiency
    1,                        !- Constant Term Coefficient
    0,                        !- Temperature Term Coefficient
    0,                        !- Velocity Term Coefficient
    0,                        !- Velocity Squared Term Coefficient
    26,                       !- Minimum Indoor Temperature
    ,                         !- Minimum Indoor Temperature Schedule Name
    100,                      !- Maximum Indoor Temperature
    ,                         !- Maximum Indoor Temperature Schedule Name
    1,                        !- Delta Temperature
    ,                         !- Delta Temperature Schedule Name
    -100,                     !- Minimum Outdoor Temperature
    ,                         !- Minimum Outdoor Temperature Schedule Name
    100,                      !- Maximum Outdoor Temperature
    ,                         !- Maximum Outdoor Temperature Schedule Name
    40;                       !- Maximum Wind Speed

HVACTEMPLATE:THERMOSTAT,
    ResidZone,                !- Name
    ,                         !- Heating Setpoint Schedule Name
    21,                       !- Constant Heating Setpoint
    ,                         !- Cooling Setpoint Schedule Name
    50;                       !- Constant Cooling Setpoint

HVACTEMPLATE:ZONE:IDEALLOADSAIRSYSTEM,
    Block Build0_Alt0 Storey 0,    !- Zone Name
    ResidZone,                !- Template Thermostat Name
    ,                         !- System Availability Schedule Name
    50,                       !- Maximum Heating Supply Air Temperature
    13,                       !- Minimum Cooling Supply Air Temperature
    0.0156,                   !- Maximum Heating Supply Air Humidity Ratio
    0.0077,                   !- Minimum Cooling Supply Air Humidity Ratio
    NoLimit,                  !- Heating Limit
    ,                         !- Maximum Heating Air Flow Rate
    154767.81449593275,       !- Maximum Sensible Heating Capacity
    NoLimit,                  !- Cooling Limit
    ,                         !- Maximum Cooling Air Flow Rate
    ,                         !- Maximum Total Cooling Capacity
    ,                         !- Heating Availability Schedule Name
    ,                         !- Cooling Availability Schedule Name
    ConstantSensibleHeatRatio,    !- Dehumidification Control Type
    0.7,                      !- Cooling Sensible Heat Ratio
    60,                       !- Dehumidification Setpoint
    None,                     !- Humidification Control Type
    30,                       !- Humidification Setpoint
    Flow/Area,                !- Outdoor Air Method
    0.007,                    !- Outdoor Air Flow Rate per Person
    1.750000e-03,             !- Outdoor Air Flow Rate per Zone Floor Area
    0,                        !- Outdoor Air Flow Rate per Zone
    ,                         !- Design Specification Outdoor Air Object Name
    None,                     !- Demand Controlled Ventilation Type
    NoEconomizer,             !- Outdoor Air Economizer Type
    Sensible,                 !- Heat Recovery Type
    0.65,                     !- Sensible Heat Recovery Effectiveness
    0;                        !- Latent Heat Recovery Effectiveness

OUTDOORAIR:NODE,
    Block Build0_Alt0 Storey 0 IDEAL LOADS OUTDOOR AIR INLET,    !- Name
    -1,                       !- Height Above Ground
    ,                         !- Drybulb Temperature Schedule Name
    ,                         !- Wetbulb Temperature Schedule Name
    ,                         !- Wind Speed Schedule Name
    ,                         !- Wind Direction Schedule Name
    ,                         !- Wind Pressure Coefficient Curve Name
    No,                       !- Symmetric Wind Pressure Coefficient Curve
    Absolute;                 !- Wind Angle Type

ENERGYMANAGEMENTSYSTEM:SENSOR,
    T0,                       !- Name
    Block Build0_Alt0 Storey 0,    !- OutputVariable or OutputMeter Index Key Name
    Zone Mean Air Temperature;    !- OutputVariable or OutputMeter Name

ENERGYMANAGEMENTSYSTEM:SENSOR,
    Pow0,                     !- Name
    Block Build0_Alt0 Storey 0 IDEAL LOADS AIR SYSTEM,    !- OutputVariable or OutputMeter Index Key Name
    Zone Ideal Loads Supply Air Total Heating Rate;    !- OutputVariable or OutputMeter Name

ENERGYMANAGEMENTSYSTEM:SENSOR,
    DHWPow,                   !- Name
    DHW,                      !- OutputVariable or OutputMeter Index Key Name
    Water Use Equipment Heating Rate;    !- OutputVariable or OutputMeter Name

ENERGYMANAGEMENTSYSTEM:PROGRAMCALLINGMANAGER,
    Average Building Temperature,    !- Name
    EndOfZoneTimestepBeforeZoneReporting,    !- EnergyPlus Model Calling Point
    AverageZoneTemps;         !- Program Name 1

ENERGYMANAGEMENTSYSTEM:PROGRAMCALLINGMANAGER,
    Compute Total Building Heat Pow,    !- Name
    EndOfZoneTimestepBeforeZoneReporting,    !- EnergyPlus Model Calling Point
    TotZonePow;               !- Program Name 1

ENERGYMANAGEMENTSYSTEM:PROGRAMCALLINGMANAGER,
    Compute Total DHW Heat Pow,    !- Name
    EndOfZoneTimestepBeforeZoneReporting,    !- EnergyPlus Model Calling Point
    prgmDHWPow;               !- Program Name 1

ENERGYMANAGEMENTSYSTEM:PROGRAM,
    AverageZoneTemps,         !- Name
    SET SumNumerator = T0*Vol0,    !- Program Line 1
    SET SumDenominator  = Vol0,    !- Program Line 2
    SET AverageBuildingTemp  = SumNumerator / SumDenominator;    !- Program Line 3

ENERGYMANAGEMENTSYSTEM:PROGRAM,
    TotZonePow,               !- Name
    SET TotBuildPow = Pow0;    !- Program Line 1

ENERGYMANAGEMENTSYSTEM:PROGRAM,
    prgmDHWPow,               !- Name
    SET TotDHWPow = DHWPow;    !- Program Line 1

ENERGYMANAGEMENTSYSTEM:GLOBALVARIABLE,
    AverageBuildingTemp;      !- Erl Variable 1 Name

ENERGYMANAGEMENTSYSTEM:GLOBALVARIABLE,
    TotBuildPow;              !- Erl Variable 1 Name

ENERGYMANAGEMENTSYSTEM:GLOBALVARIABLE,
    TotDHWPow;                !- Erl Variable 1 Name

ENERGYMANAGEMENTSYSTEM:OUTPUTVARIABLE,
    Mean Heated Zones Air Temperature,    !- Name
    AverageBuildingTemp,      !- EMS Variable Name
    Averaged,                 !- Type of Data in Variable
    ZoneTimeStep;             !- Update Frequency

ENERGYMANAGEMENTSYSTEM:OUTPUTVARIABLE,
    Total Building Heating Power,    !- Name
    TotBuildPow,              !- EMS Variable Name
    Averaged,                 !- Type of Data in Variable
    ZoneTimeStep;             !- Update Frequency

ENERGYMANAGEMENTSYSTEM:OUTPUTVARIABLE,
    Total DHW Heating Power,    !- Name
    TotDHWPow,                !- EMS Variable Name
    Averaged,                 !- Type of Data in Variable
    ZoneTimeStep;             !- Update Frequency

ENERGYMANAGEMENTSYSTEM:INTERNALVARIABLE,
    Vol0,                     !- Name
    Block Build0_Alt0 Storey 0,    !- Internal Data Index Key Name
    Zone Air Volume;          !- Internal Data Type

WATERUSE:EQUIPMENT,
    DHW,                      !- Name
    General,                  !- EndUse Subcategory
    1.511757e-08,             !- Peak Flow Rate
    WaterTaps,                !- Flow Rate Fraction Schedule Name
    TargetWaterTemp,          !- Target Temperature Schedule Name
    HotWaterTemp,             !- Hot Water Supply Temperature Schedule Name
    ColdWaterTemp;            !- Cold Water Supply Temperature Schedule Name

Output:VariableDictionary,
    Regular;                  !- Key Field

OUTPUT:ENERGYMANAGEMENTSYSTEM,
    Verbose,                  !- Actuator Availability Dictionary Reporting
    Verbose,                  !- Internal Variable Availability Dictionary Reporting
    Verbose;                  !- EMS Runtime Language Debug Output Level

Output:Table:SummaryReports,
    AllSummary;               !- Report 1 Name

OutputControl:Table:Style,
    HTML;                     !- Column Separator

OUTPUT:VARIABLE,
    *,                        !- Key Value
    Site Outdoor Air Drybulb Temperature,    !- Variable Name
    Hourly;                   !- Reporting Frequency

OUTPUT:VARIABLE,
    *,                        !- Key Value
    Site Outdoor Air Relative Humidity,    !- Variable Name
    Hourly;                   !- Reporting Frequency

OUTPUT:VARIABLE,
    *,                        !- Key Value
    Site Outdoor Air Barometric Pressure,    !- Variable Name
    Hourly;                   !- Reporting Frequency

OUTPUT:VARIABLE,
    *,                        !- Key Value
    Site Wind Speed,          !- Variable Name
    Hourly;                   !- Reporting Frequency

OUTPUT:VARIABLE,
    *,                        !- Key Value
    Site Diffuse Solar Radiation Rate per Area,    !- Variable Name
    Hourly;                   !- Reporting Frequency

OUTPUT:VARIABLE,
    *,                        !- Key Value
    Site Direct Solar Radiation Rate per Area,    !- Variable Name
    Hourly;                   !- Reporting Frequency

OUTPUT:VARIABLE,
    *,                        !- Key Value
    Zone Electric Equipment Electric Power,    !- Variable Name
    Hourly;                   !- Reporting Frequency

OUTPUT:VARIABLE,
    *,                        !- Key Value
    Zone Electric Equipment Total Heating Rate,    !- Variable Name
    Hourly;                   !- Reporting Frequency

OUTPUT:VARIABLE,
    *,                        !- Key Value
    Surface Outside Face Incident Solar Radiation Rate per Area,    !- Variable Name
    Hourly;                   !- Reporting Frequency

OUTPUT:VARIABLE,
    *,                        !- Key Value
    Surface Outside Face Incident Beam Solar Radiation Rate per Area,    !- Variable Name
    Hourly;                   !- Reporting Frequency

OUTPUT:VARIABLE,
    *,                        !- Key Value
    Zone Ideal Loads Supply Air Total Heating Rate,    !- Variable Name
    Hourly;                   !- Reporting Frequency

OUTPUT:VARIABLE,
    *,                        !- Key Value
    Water Use Equipment Hot Water Mass Flow Rate,    !- Variable Name
    Hourly;                   !- Reporting Frequency

OUTPUT:VARIABLE,
    *,                        !- Key Value
    Water Use Equipment Cold Water Mass Flow Rate,    !- Variable Name
    Hourly;                   !- Reporting Frequency

OUTPUT:VARIABLE,
    *,                        !- Key Value
    Water Use Equipment Hot Water Temperature,    !- Variable Name
    Hourly;                   !- Reporting Frequency

OUTPUT:VARIABLE,
    *,                        !- Key Value
    Water Use Equipment Cold Water Temperature,    !- Variable Name
    Hourly;                   !- Reporting Frequency

OUTPUT:VARIABLE,
    *,                        !- Key Value
    Water Use Equipment Heating Rate,    !- Variable Name
    Hourly;                   !- Reporting Frequency

OUTPUT:VARIABLE,
    *,                        !- Key Value
    Mean Heated Zones Air Temperature,    !- Variable Name
    Hourly;                   !- Reporting Frequency

OUTPUT:VARIABLE,
    *,                        !- Key Value
    Total Building Heating Power,    !- Variable Name
    Hourly;                   !- Reporting Frequency

OUTPUT:VARIABLE,
    *,                        !- Key Value
    Total DHW Heating Power,    !- Variable Name
    Hourly;                   !- Reporting Frequency

OUTPUT:DIAGNOSTICS,
    DISPLAYEXTRAWARNINGS,     !- Key 1
    DisplayAdvancedReportVariables;    !- Key 2