!- Darwin Line endings 

Version,
    9.5;                      !- Version Identifier

SimulationControl,
    No,                       !- Do Zone Sizing Calculation
    No,                       !- Do System Sizing Calculation
    No,                       !- Do Plant Sizing Calculation
    No,                       !- Run Simulation for Sizing Periods
    Yes,                      !- Run Simulation for Weather File Run Periods
    No,                       !- Do HVAC Sizing Simulation for Sizing Periods
    1;                        !- Maximum Number of HVAC Sizing Simulation Passes

Building,
    None,                     !- Name
    0,                        !- North Axis
    Suburbs,                  !- Terrain
    0.04,                     !- Loads Convergence Tolerance Value
    0.4,                      !- Temperature Convergence Tolerance Value
    FullExterior,             !- Solar Distribution
    25,                       !- Maximum Number of Warmup Days
    6;                        !- Minimum Number of Warmup Days

SHADOWCALCULATION,
    PolygonClipping,          !- Shading Calculation Method
    Periodic,                 !- Shading Calculation Update Frequency Method
    20,                       !- Shading Calculation Update Frequency
    25000,                    !- Maximum Figures in Shadow Overlap Calculations
    SutherlandHodgman,        !- Polygon Clipping Algorithm
    512,                      !- Pixel Counting Resolution
    SimpleSkyDiffuseModeling,    !- Sky Diffuse Modeling Algorithm
    No,                       !- Output External Shading Calculation Results
    No,                       !- Disable SelfShading Within Shading Zone Groups
    No;                       !- Disable SelfShading From Shading Zone Groups to Other Zones

Timestep,
    4;                        !- Number of Timesteps per Hour

Site:Location,
    WeatherData/USA_CA_San.Francisco.Intl.AP.724940_TMY3.epw,    !- Name
    37.62,                    !- Latitude
    -122.4,                   !- Longitude
    -8,                       !- Time Zone
    2;                        !- Elevation

SizingPeriod:DesignDay,
    DENVER_STAPLETON Ann Htg 99.6% Condns DB,    !- Name
    12,                       !- Month
    21,                       !- Day of Month
    WinterDesignDay,          !- Day Type
    -20,                      !- Maximum DryBulb Temperature
    0,                        !- Daily DryBulb Temperature Range
    ,                         !- DryBulb Temperature Range Modifier Type
    ,                         !- DryBulb Temperature Range Modifier Day Schedule Name
    Wetbulb,                  !- Humidity Condition Type
    -20,                      !- Wetbulb or DewPoint at Maximum DryBulb
    ,                         !- Humidity Condition Day Schedule Name
    ,                         !- Humidity Ratio at Maximum DryBulb
    ,                         !- Enthalpy at Maximum DryBulb
    ,                         !- Daily WetBulb Temperature Range
    100594,                   !- Barometric Pressure
    2.3,                      !- Wind Speed
    180,                      !- Wind Direction
    No,                       !- Rain Indicator
    No,                       !- Snow Indicator
    No,                       !- Daylight Saving Time Indicator
    ASHRAEClearSky,           !- Solar Model Indicator
    ,                         !- Beam Solar Day Schedule Name
    ,                         !- Diffuse Solar Day Schedule Name
    ,                         !- ASHRAE Clear Sky Optical Depth for Beam Irradiance taub
    ,                         !- ASHRAE Clear Sky Optical Depth for Diffuse Irradiance taud
    0;                        !- Sky Clearness

SizingPeriod:DesignDay,
    DENVER_STAPLETON Ann Clg .4% Condns DB=>MWB,    !- Name
    7,                        !- Month
    21,                       !- Day of Month
    SummerDesignDay,          !- Day Type
    34.1,                     !- Maximum DryBulb Temperature
    15.2,                     !- Daily DryBulb Temperature Range
    ,                         !- DryBulb Temperature Range Modifier Type
    ,                         !- DryBulb Temperature Range Modifier Day Schedule Name
    Wetbulb,                  !- Humidity Condition Type
    15.8,                     !- Wetbulb or DewPoint at Maximum DryBulb
    ,                         !- Humidity Condition Day Schedule Name
    ,                         !- Humidity Ratio at Maximum DryBulb
    ,                         !- Enthalpy at Maximum DryBulb
    ,                         !- Daily WetBulb Temperature Range
    100594,                   !- Barometric Pressure
    4,                        !- Wind Speed
    120,                      !- Wind Direction
    No,                       !- Rain Indicator
    No,                       !- Snow Indicator
    No,                       !- Daylight Saving Time Indicator
    ASHRAEClearSky,           !- Solar Model Indicator
    ,                         !- Beam Solar Day Schedule Name
    ,                         !- Diffuse Solar Day Schedule Name
    ,                         !- ASHRAE Clear Sky Optical Depth for Beam Irradiance taub
    ,                         !- ASHRAE Clear Sky Optical Depth for Diffuse Irradiance taud
    1;                        !- Sky Clearness

RunPeriod,
    Run Period 1,             !- Name
    1,                        !- Begin Month
    1,                        !- Begin Day of Month
    ,                         !- Begin Year
    12,                       !- End Month
    31,                       !- End Day of Month
    ,                         !- End Year
    Tuesday,                  !- Day of Week for Start Day
    Yes,                      !- Use Weather File Holidays and Special Days
    Yes,                      !- Use Weather File Daylight Saving Period
    No,                       !- Apply Weekend Holiday Rule
    Yes,                      !- Use Weather File Rain Indicators
    Yes;                      !- Use Weather File Snow Indicators

SITE:GROUNDTEMPERATURE:BUILDINGSURFACE,
    15,                       !- January Ground Temperature
    15,                       !- February Ground Temperature
    15,                       !- March Ground Temperature
    15,                       !- April Ground Temperature
    15,                       !- May Ground Temperature
    15,                       !- June Ground Temperature
    15,                       !- July Ground Temperature
    15,                       !- August Ground Temperature
    15,                       !- September Ground Temperature
    15,                       !- October Ground Temperature
    15,                       !- November Ground Temperature
    15;                       !- December Ground Temperature

SCHEDULETYPELIMITS,
    Any Number,               !- Name
    ,                         !- Lower Limit Value
    ,                         !- Upper Limit Value
    ,                         !- Numeric Type
    Dimensionless;            !- Unit Type

SCHEDULE:COMPACT,
    AlwaysON,                 !- Name
    Any Number,               !- Schedule Type Limits Name
    Through: 12/31,           !- Field 1
    For: AllDays,             !- Field 2
    Until: 24:00,             !- Field 3
    1;                        !- Field 4

SCHEDULE:COMPACT,
    OccupActivity,            !- Name
    Any Number,               !- Schedule Type Limits Name
    Through: 12/31,           !- Field 1
    For: AllDays,             !- Field 2
    Until: 24:00,             !- Field 3
    70;                       !- Field 4

SCHEDULE:COMPACT,
    HotWaterTemp,             !- Name
    Any Number,               !- Schedule Type Limits Name
    Through: 12/31,           !- Field 1
    For: AllDays,             !- Field 2
    Until: 24:00,             !- Field 3
    55;                       !- Field 4

SCHEDULE:COMPACT,
    TargetWaterTemp,          !- Name
    Any Number,               !- Schedule Type Limits Name
    Through: 12/31,           !- Field 1
    For: AllDays,             !- Field 2
    Until: 24:00,             !- Field 3
    37;                       !- Field 4

SCHEDULE:FILE,
    LoadSchedule,             !- Name
    Any Number,               !- Schedule Type Limits Name
    /Users/alizad/PycharmProjects/mubes-ubem/examples/ForTest/InputFiles/Building31_winter.txt,    !- File Name
    1,                        !- Column Number
    0,                        !- Rows to Skip at Top
    8760,                     !- Number of Hours of Data
    Comma,                    !- Column Separator
    No;                       !- Interpolate to Timestep

SCHEDULE:FILE,
    Watertaps,                !- Name
    Any Number,               !- Schedule Type Limits Name
    /Users/alizad/PycharmProjects/mubes-ubem/examples/ForTest/InputFiles/domestic_hot_water_40_apartments.txt,    !- File Name
    1,                        !- Column Number
    0,                        !- Rows to Skip at Top
    8760,                     !- Number of Hours of Data
    Comma,                    !- Column Separator
    No;                       !- Interpolate to Timestep

SCHEDULE:FILE,
    ColdWaterTemp,            !- Name
    Any Number,               !- Schedule Type Limits Name
    /Users/alizad/PycharmProjects/mubes-ubem/examples/ForTest/InputFiles/cold_water_temperature_stockholm.txt,    !- File Name
    1,                        !- Column Number
    0,                        !- Rows to Skip at Top
    8760,                     !- Number of Hours of Data
    Comma,                    !- Column Separator
    No;                       !- Interpolate to Timestep

MATERIAL,
    DefaultMaterial,          !- Name
    Rough,                    !- Roughness
    0.1,                      !- Thickness
    0.1,                      !- Conductivity
    1000,                     !- Density
    1000,                     !- Specific Heat
    0.9,                      !- Thermal Absorptance
    0.7,                      !- Solar Absorptance
    0.7;                      !- Visible Absorptance

MATERIAL,
    Basement Floor,           !- Name
    Rough,                    !- Roughness
    0.1,                      !- Thickness
    0.9,                      !- Conductivity
    2300,                     !- Density
    1000,                     !- Specific Heat
    0.9,                      !- Thermal Absorptance
    0.7,                      !- Solar Absorptance
    0.7;                      !- Visible Absorptance

MATERIAL,
    Heated1rstFloor Inertia,    !- Name
    Rough,                    !- Roughness
    0.1,                      !- Thickness
    0.9,                      !- Conductivity
    2300,                     !- Density
    1000,                     !- Specific Heat
    0.9,                      !- Thermal Absorptance
    0.7,                      !- Solar Absorptance
    0.7;                      !- Visible Absorptance

MATERIAL,
    Heated1rstFloor Insulation,    !- Name
    Rough,                    !- Roughness
    0.15,                     !- Thickness
    0.035,                    !- Conductivity
    150,                      !- Density
    1000,                     !- Specific Heat
    0.9,                      !- Thermal Absorptance
    0.7,                      !- Solar Absorptance
    0.7;                      !- Visible Absorptance

MATERIAL,
    Roof Insulation,          !- Name
    Rough,                    !- Roughness
    0.3,                      !- Thickness
    0.03,                     !- Conductivity
    150,                      !- Density
    1000,                     !- Specific Heat
    0.9,                      !- Thermal Absorptance
    0.7,                      !- Solar Absorptance
    0.7;                      !- Visible Absorptance

MATERIAL,
    Wall Inertia,             !- Name
    Rough,                    !- Roughness
    0.2,                      !- Thickness
    0.9,                      !- Conductivity
    2300,                     !- Density
    1000,                     !- Specific Heat
    0.9,                      !- Thermal Absorptance
    0.7,                      !- Solar Absorptance
    0.7;                      !- Visible Absorptance

MATERIAL,
    Wall Insulation,          !- Name
    Rough,                    !- Roughness
    0.2,                      !- Thickness
    0.03,                     !- Conductivity
    150,                      !- Density
    1000,                     !- Specific Heat
    0.9,                      !- Thermal Absorptance
    0.7,                      !- Solar Absorptance
    0.7;                      !- Visible Absorptance

MATERIAL,
    HeatedZoneIntMass,        !- Name
    Rough,                    !- Roughness
    0.1,                      !- Thickness
    0.3,                      !- Conductivity
    600,                      !- Density
    1400,                     !- Specific Heat
    0.9,                      !- Thermal Absorptance
    0.7,                      !- Solar Absorptance
    0.7;                      !- Visible Absorptance

MATERIAL,
    NonHeatedZoneIntMass,     !- Name
    Rough,                    !- Roughness
    0.1,                      !- Thickness
    0.3,                      !- Conductivity
    600,                      !- Density
    1400,                     !- Specific Heat
    0.9,                      !- Thermal Absorptance
    0.7,                      !- Solar Absorptance
    0.7;                      !- Visible Absorptance

MATERIAL,
    AirWallMaterial,          !- Name
    MediumSmooth,             !- Roughness
    0.01,                     !- Thickness
    0.6,                      !- Conductivity
    800,                      !- Density
    1000,                     !- Specific Heat
    0.95,                     !- Thermal Absorptance
    0.7,                      !- Solar Absorptance
    0.7;                      !- Visible Absorptance

WINDOWMATERIAL:SIMPLEGLAZINGSYSTEM,
    DefaultGlazing,           !- Name
    2.7,                      !- UFactor
    0.763,                    !- Solar Heat Gain Coefficient
    0.8;                      !- Visible Transmittance

WINDOWMATERIAL:SIMPLEGLAZINGSYSTEM,
    Window,                   !- Name
    1.9,                      !- UFactor
    0.7,                      !- Solar Heat Gain Coefficient
    0.8;                      !- Visible Transmittance

CONSTRUCTION,
    Project Wall,             !- Name
    Wall Inertia,             !- Outside Layer
    Wall Insulation;          !- Layer 2

CONSTRUCTION,
    Project Basement Wall,    !- Name
    Wall Inertia;             !- Outside Layer

CONSTRUCTION,
    Project Basement Floor,    !- Name
    Basement Floor;           !- Outside Layer

CONSTRUCTION,
    Project Flat Roof,        !- Name
    Roof Insulation;          !- Outside Layer

CONSTRUCTION,
    Project External Window,    !- Name
    Window;                   !- Outside Layer

CONSTRUCTION,
    Project Heated1rstFloor,    !- Name
    Heated1rstFloor Inertia,    !- Outside Layer
    Heated1rstFloor Insulation;    !- Layer 2

CONSTRUCTION,
    Project Heated1rstFloor Rev,    !- Name
    Heated1rstFloor Insulation,    !- Outside Layer
    Heated1rstFloor Inertia;    !- Layer 2

CONSTRUCTION,
    HeatedZoneIntMassObj,     !- Name
    HeatedZoneIntMass;        !- Outside Layer

CONSTRUCTION,
    NonHeatedZoneIntMassObj,    !- Name
    NonHeatedZoneIntMass;     !- Outside Layer

GlobalGeometryRules,
    UpperLeftCorner,          !- Starting Vertex Position
    CounterClockWise,         !- Vertex Entry Direction
    World;                    !- Coordinate System

ZONE,
    Block Build0_Alt0 Storey -1,    !- Name
    0,                        !- Direction of Relative North
    0,                        !- X Origin
    0,                        !- Y Origin
    0,                        !- Z Origin
    1,                        !- Type
    1,                        !- Multiplier
    autocalculate,            !- Ceiling Height
    autocalculate,            !- Volume
    autocalculate,            !- Floor Area
    ,                         !- Zone Inside Convection Algorithm
    ,                         !- Zone Outside Convection Algorithm
    Yes;                      !- Part of Total Floor Area

ZONE,
    Block Build0_Alt0 Storey 0,    !- Name
    0,                        !- Direction of Relative North
    0,                        !- X Origin
    0,                        !- Y Origin
    0,                        !- Z Origin
    1,                        !- Type
    1,                        !- Multiplier
    autocalculate,            !- Ceiling Height
    autocalculate,            !- Volume
    autocalculate,            !- Floor Area
    ,                         !- Zone Inside Convection Algorithm
    ,                         !- Zone Outside Convection Algorithm
    Yes;                      !- Part of Total Floor Area

BUILDINGSURFACE:DETAILED,
    Block Build0_Alt0 Storey -1 Wall 0001,    !- Name
    wall,                     !- Surface Type
    Project Basement Wall,    !- Construction Name
    Block Build0_Alt0 Storey -1,    !- Zone Name
    ground,                   !- Outside Boundary Condition
    ,                         !- Outside Boundary Condition Object
    NoSun,                    !- Sun Exposure
    NoWind,                   !- Wind Exposure
    autocalculate,            !- View Factor to Ground
    autocalculate,            !- Number of Vertices
    -1.4144,                  !- Vertex 1 Xcoordinate
    23.4679,                  !- Vertex 1 Ycoordinate
    0,                        !- Vertex 1 Zcoordinate
    -1.4144,                  !- Vertex 2 Xcoordinate
    23.4679,                  !- Vertex 2 Ycoordinate
    -2.5,                     !- Vertex 2 Zcoordinate
    -6.7054,                  !- Vertex 3 Xcoordinate
    29.6519,                  !- Vertex 3 Ycoordinate
    -2.5,                     !- Vertex 3 Zcoordinate
    -6.7054,                  !- Vertex 4 Xcoordinate
    29.6519,                  !- Vertex 4 Ycoordinate
    0;                        !- Vertex 4 Zcoordinate

BUILDINGSURFACE:DETAILED,
    Block Build0_Alt0 Storey -1 Wall 0002,    !- Name
    wall,                     !- Surface Type
    Project Basement Wall,    !- Construction Name
    Block Build0_Alt0 Storey -1,    !- Zone Name
    ground,                   !- Outside Boundary Condition
    ,                         !- Outside Boundary Condition Object
    NoSun,                    !- Sun Exposure
    NoWind,                   !- Wind Exposure
    autocalculate,            !- View Factor to Ground
    autocalculate,            !- Number of Vertices
    -6.7054,                  !- Vertex 1 Xcoordinate
    29.6519,                  !- Vertex 1 Ycoordinate
    0,                        !- Vertex 1 Zcoordinate
    -6.7054,                  !- Vertex 2 Xcoordinate
    29.6519,                  !- Vertex 2 Ycoordinate
    -2.5,                     !- Vertex 2 Zcoordinate
    -12.6574,                 !- Vertex 3 Xcoordinate
    24.5429,                  !- Vertex 3 Ycoordinate
    -2.5,                     !- Vertex 3 Zcoordinate
    -12.6574,                 !- Vertex 4 Xcoordinate
    24.5429,                  !- Vertex 4 Ycoordinate
    0;                        !- Vertex 4 Zcoordinate

BUILDINGSURFACE:DETAILED,
    Block Build0_Alt0 Storey -1 Wall 0003,    !- Name
    wall,                     !- Surface Type
    Project Basement Wall,    !- Construction Name
    Block Build0_Alt0 Storey -1,    !- Zone Name
    ground,                   !- Outside Boundary Condition
    ,                         !- Outside Boundary Condition Object
    NoSun,                    !- Sun Exposure
    NoWind,                   !- Wind Exposure
    autocalculate,            !- View Factor to Ground
    autocalculate,            !- Number of Vertices
    -12.6574,                 !- Vertex 1 Xcoordinate
    24.5429,                  !- Vertex 1 Ycoordinate
    0,                        !- Vertex 1 Zcoordinate
    -12.6574,                 !- Vertex 2 Xcoordinate
    24.5429,                  !- Vertex 2 Ycoordinate
    -2.5,                     !- Vertex 2 Zcoordinate
    -16.3794,                 !- Vertex 3 Xcoordinate
    28.8849,                  !- Vertex 3 Ycoordinate
    -2.5,                     !- Vertex 3 Zcoordinate
    -16.3794,                 !- Vertex 4 Xcoordinate
    28.8849,                  !- Vertex 4 Ycoordinate
    0;                        !- Vertex 4 Zcoordinate

BUILDINGSURFACE:DETAILED,
    Block Build0_Alt0 Storey -1 Wall 0004,    !- Name
    wall,                     !- Surface Type
    Project Basement Wall,    !- Construction Name
    Block Build0_Alt0 Storey -1,    !- Zone Name
    ground,                   !- Outside Boundary Condition
    ,                         !- Outside Boundary Condition Object
    NoSun,                    !- Sun Exposure
    NoWind,                   !- Wind Exposure
    autocalculate,            !- View Factor to Ground
    autocalculate,            !- Number of Vertices
    -16.3794,                 !- Vertex 1 Xcoordinate
    28.8849,                  !- Vertex 1 Ycoordinate
    0,                        !- Vertex 1 Zcoordinate
    -16.3794,                 !- Vertex 2 Xcoordinate
    28.8849,                  !- Vertex 2 Ycoordinate
    -2.5,                     !- Vertex 2 Zcoordinate
    -23.8044,                 !- Vertex 3 Xcoordinate
    22.6929,                  !- Vertex 3 Ycoordinate
    -2.5,                     !- Vertex 3 Zcoordinate
    -23.8044,                 !- Vertex 4 Xcoordinate
    22.6929,                  !- Vertex 4 Ycoordinate
    0;                        !- Vertex 4 Zcoordinate

BUILDINGSURFACE:DETAILED,
    Block Build0_Alt0 Storey -1 Wall 0005,    !- Name
    wall,                     !- Surface Type
    Project Basement Wall,    !- Construction Name
    Block Build0_Alt0 Storey -1,    !- Zone Name
    ground,                   !- Outside Boundary Condition
    ,                         !- Outside Boundary Condition Object
    NoSun,                    !- Sun Exposure
    NoWind,                   !- Wind Exposure
    autocalculate,            !- View Factor to Ground
    autocalculate,            !- Number of Vertices
    -23.8044,                 !- Vertex 1 Xcoordinate
    22.6929,                  !- Vertex 1 Ycoordinate
    0,                        !- Vertex 1 Zcoordinate
    -23.8044,                 !- Vertex 2 Xcoordinate
    22.6929,                  !- Vertex 2 Ycoordinate
    -2.5,                     !- Vertex 2 Zcoordinate
    -1.4394,                  !- Vertex 3 Xcoordinate
    -3.4701,                  !- Vertex 3 Ycoordinate
    -2.5,                     !- Vertex 3 Zcoordinate
    -1.4394,                  !- Vertex 4 Xcoordinate
    -3.4701,                  !- Vertex 4 Ycoordinate
    0;                        !- Vertex 4 Zcoordinate

BUILDINGSURFACE:DETAILED,
    Block Build0_Alt0 Storey -1 Wall 0006,    !- Name
    wall,                     !- Surface Type
    Project Basement Wall,    !- Construction Name
    Block Build0_Alt0 Storey -1,    !- Zone Name
    ground,                   !- Outside Boundary Condition
    ,                         !- Outside Boundary Condition Object
    NoSun,                    !- Sun Exposure
    NoWind,                   !- Wind Exposure
    autocalculate,            !- View Factor to Ground
    autocalculate,            !- Number of Vertices
    -1.4394,                  !- Vertex 1 Xcoordinate
    -3.4701,                  !- Vertex 1 Ycoordinate
    0,                        !- Vertex 1 Zcoordinate
    -1.4394,                  !- Vertex 2 Xcoordinate
    -3.4701,                  !- Vertex 2 Ycoordinate
    -2.5,                     !- Vertex 2 Zcoordinate
    -4.4784,                  !- Vertex 3 Xcoordinate
    -6.0711,                  !- Vertex 3 Ycoordinate
    -2.5,                     !- Vertex 3 Zcoordinate
    -4.4784,                  !- Vertex 4 Xcoordinate
    -6.0711,                  !- Vertex 4 Ycoordinate
    0;                        !- Vertex 4 Zcoordinate

BUILDINGSURFACE:DETAILED,
    Block Build0_Alt0 Storey -1 Wall 0007,    !- Name
    wall,                     !- Surface Type
    Project Basement Wall,    !- Construction Name
    Block Build0_Alt0 Storey -1,    !- Zone Name
    ground,                   !- Outside Boundary Condition
    ,                         !- Outside Boundary Condition Object
    NoSun,                    !- Sun Exposure
    NoWind,                   !- Wind Exposure
    autocalculate,            !- View Factor to Ground
    autocalculate,            !- Number of Vertices
    -4.4784,                  !- Vertex 1 Xcoordinate
    -6.0711,                  !- Vertex 1 Ycoordinate
    0,                        !- Vertex 1 Zcoordinate
    -4.4784,                  !- Vertex 2 Xcoordinate
    -6.0711,                  !- Vertex 2 Ycoordinate
    -2.5,                     !- Vertex 2 Zcoordinate
    -0.6624,                  !- Vertex 3 Xcoordinate
    -10.5301,                 !- Vertex 3 Ycoordinate
    -2.5,                     !- Vertex 3 Zcoordinate
    -0.6624,                  !- Vertex 4 Xcoordinate
    -10.5301,                 !- Vertex 4 Ycoordinate
    0;                        !- Vertex 4 Zcoordinate

BUILDINGSURFACE:DETAILED,
    Block Build0_Alt0 Storey -1 Wall 0008,    !- Name
    wall,                     !- Surface Type
    Project Basement Wall,    !- Construction Name
    Block Build0_Alt0 Storey -1,    !- Zone Name
    ground,                   !- Outside Boundary Condition
    ,                         !- Outside Boundary Condition Object
    NoSun,                    !- Sun Exposure
    NoWind,                   !- Wind Exposure
    autocalculate,            !- View Factor to Ground
    autocalculate,            !- Number of Vertices
    -0.6624,                  !- Vertex 1 Xcoordinate
    -10.5301,                 !- Vertex 1 Ycoordinate
    0,                        !- Vertex 1 Zcoordinate
    -0.6624,                  !- Vertex 2 Xcoordinate
    -10.5301,                 !- Vertex 2 Ycoordinate
    -2.5,                     !- Vertex 2 Zcoordinate
    2.3776,                   !- Vertex 3 Xcoordinate
    -7.9301,                  !- Vertex 3 Ycoordinate
    -2.5,                     !- Vertex 3 Zcoordinate
    2.3776,                   !- Vertex 4 Xcoordinate
    -7.9301,                  !- Vertex 4 Ycoordinate
    0;                        !- Vertex 4 Zcoordinate

BUILDINGSURFACE:DETAILED,
    Block Build0_Alt0 Storey -1 Wall 0009,    !- Name
    wall,                     !- Surface Type
    Project Basement Wall,    !- Construction Name
    Block Build0_Alt0 Storey -1,    !- Zone Name
    ground,                   !- Outside Boundary Condition
    ,                         !- Outside Boundary Condition Object
    NoSun,                    !- Sun Exposure
    NoWind,                   !- Wind Exposure
    autocalculate,            !- View Factor to Ground
    autocalculate,            !- Number of Vertices
    2.3776,                   !- Vertex 1 Xcoordinate
    -7.9301,                  !- Vertex 1 Ycoordinate
    0,                        !- Vertex 1 Zcoordinate
    2.3776,                   !- Vertex 2 Xcoordinate
    -7.9301,                  !- Vertex 2 Ycoordinate
    -2.5,                     !- Vertex 2 Zcoordinate
    24.2326,                  !- Vertex 3 Xcoordinate
    -9.6281,                  !- Vertex 3 Ycoordinate
    -2.5,                     !- Vertex 3 Zcoordinate
    24.2326,                  !- Vertex 4 Xcoordinate
    -9.6281,                  !- Vertex 4 Ycoordinate
    0;                        !- Vertex 4 Zcoordinate

BUILDINGSURFACE:DETAILED,
    Block Build0_Alt0 Storey -1 Wall 0010,    !- Name
    wall,                     !- Surface Type
    Project Basement Wall,    !- Construction Name
    Block Build0_Alt0 Storey -1,    !- Zone Name
    ground,                   !- Outside Boundary Condition
    ,                         !- Outside Boundary Condition Object
    NoSun,                    !- Sun Exposure
    NoWind,                   !- Wind Exposure
    autocalculate,            !- View Factor to Ground
    autocalculate,            !- Number of Vertices
    24.2326,                  !- Vertex 1 Xcoordinate
    -9.6281,                  !- Vertex 1 Ycoordinate
    0,                        !- Vertex 1 Zcoordinate
    24.2326,                  !- Vertex 2 Xcoordinate
    -9.6281,                  !- Vertex 2 Ycoordinate
    -2.5,                     !- Vertex 2 Zcoordinate
    27.8086,                  !- Vertex 3 Xcoordinate
    -13.8071,                 !- Vertex 3 Ycoordinate
    -2.5,                     !- Vertex 3 Zcoordinate
    27.8086,                  !- Vertex 4 Xcoordinate
    -13.8071,                 !- Vertex 4 Ycoordinate
    0;                        !- Vertex 4 Zcoordinate

BUILDINGSURFACE:DETAILED,
    Block Build0_Alt0 Storey -1 Wall 0011,    !- Name
    wall,                     !- Surface Type
    Project Basement Wall,    !- Construction Name
    Block Build0_Alt0 Storey -1,    !- Zone Name
    ground,                   !- Outside Boundary Condition
    ,                         !- Outside Boundary Condition Object
    NoSun,                    !- Sun Exposure
    NoWind,                   !- Wind Exposure
    autocalculate,            !- View Factor to Ground
    autocalculate,            !- Number of Vertices
    27.8086,                  !- Vertex 1 Xcoordinate
    -13.8071,                 !- Vertex 1 Ycoordinate
    0,                        !- Vertex 1 Zcoordinate
    27.8086,                  !- Vertex 2 Xcoordinate
    -13.8071,                 !- Vertex 2 Ycoordinate
    -2.5,                     !- Vertex 2 Zcoordinate
    35.4056,                  !- Vertex 3 Xcoordinate
    -7.3061,                  !- Vertex 3 Ycoordinate
    -2.5,                     !- Vertex 3 Zcoordinate
    35.4056,                  !- Vertex 4 Xcoordinate
    -7.3061,                  !- Vertex 4 Ycoordinate
    0;                        !- Vertex 4 Zcoordinate

BUILDINGSURFACE:DETAILED,
    Block Build0_Alt0 Storey -1 Wall 0012,    !- Name
    wall,                     !- Surface Type
    Project Basement Wall,    !- Construction Name
    Block Build0_Alt0 Storey -1,    !- Zone Name
    ground,                   !- Outside Boundary Condition
    ,                         !- Outside Boundary Condition Object
    NoSun,                    !- Sun Exposure
    NoWind,                   !- Wind Exposure
    autocalculate,            !- View Factor to Ground
    autocalculate,            !- Number of Vertices
    35.4056,                  !- Vertex 1 Xcoordinate
    -7.3061,                  !- Vertex 1 Ycoordinate
    0,                        !- Vertex 1 Zcoordinate
    35.4056,                  !- Vertex 2 Xcoordinate
    -7.3061,                  !- Vertex 2 Ycoordinate
    -2.5,                     !- Vertex 2 Zcoordinate
    32.8066,                  !- Vertex 3 Xcoordinate
    -4.2671,                  !- Vertex 3 Ycoordinate
    -2.5,                     !- Vertex 3 Zcoordinate
    32.8066,                  !- Vertex 4 Xcoordinate
    -4.2671,                  !- Vertex 4 Ycoordinate
    0;                        !- Vertex 4 Zcoordinate

BUILDINGSURFACE:DETAILED,
    Block Build0_Alt0 Storey -1 Wall 0013,    !- Name
    wall,                     !- Surface Type
    Project Basement Wall,    !- Construction Name
    Block Build0_Alt0 Storey -1,    !- Zone Name
    ground,                   !- Outside Boundary Condition
    ,                         !- Outside Boundary Condition Object
    NoSun,                    !- Sun Exposure
    NoWind,                   !- Wind Exposure
    autocalculate,            !- View Factor to Ground
    autocalculate,            !- Number of Vertices
    32.8066,                  !- Vertex 1 Xcoordinate
    -4.2671,                  !- Vertex 1 Ycoordinate
    0,                        !- Vertex 1 Zcoordinate
    32.8066,                  !- Vertex 2 Xcoordinate
    -4.2671,                  !- Vertex 2 Ycoordinate
    -2.5,                     !- Vertex 2 Zcoordinate
    35.8446,                  !- Vertex 3 Xcoordinate
    -1.6661,                  !- Vertex 3 Ycoordinate
    -2.5,                     !- Vertex 3 Zcoordinate
    35.8446,                  !- Vertex 4 Xcoordinate
    -1.6661,                  !- Vertex 4 Ycoordinate
    0;                        !- Vertex 4 Zcoordinate

BUILDINGSURFACE:DETAILED,
    Block Build0_Alt0 Storey -1 Wall 0014,    !- Name
    wall,                     !- Surface Type
    Project Basement Wall,    !- Construction Name
    Block Build0_Alt0 Storey -1,    !- Zone Name
    ground,                   !- Outside Boundary Condition
    ,                         !- Outside Boundary Condition Object
    NoSun,                    !- Sun Exposure
    NoWind,                   !- Wind Exposure
    autocalculate,            !- View Factor to Ground
    autocalculate,            !- Number of Vertices
    35.8446,                  !- Vertex 1 Xcoordinate
    -1.6661,                  !- Vertex 1 Ycoordinate
    0,                        !- Vertex 1 Zcoordinate
    35.8446,                  !- Vertex 2 Xcoordinate
    -1.6661,                  !- Vertex 2 Ycoordinate
    -2.5,                     !- Vertex 2 Zcoordinate
    29.2036,                  !- Vertex 3 Xcoordinate
    6.0939,                   !- Vertex 3 Ycoordinate
    -2.5,                     !- Vertex 3 Zcoordinate
    29.2036,                  !- Vertex 4 Xcoordinate
    6.0939,                   !- Vertex 4 Ycoordinate
    0;                        !- Vertex 4 Zcoordinate

BUILDINGSURFACE:DETAILED,
    Block Build0_Alt0 Storey -1 Wall 0015,    !- Name
    wall,                     !- Surface Type
    Project Basement Wall,    !- Construction Name
    Block Build0_Alt0 Storey -1,    !- Zone Name
    ground,                   !- Outside Boundary Condition
    ,                         !- Outside Boundary Condition Object
    NoSun,                    !- Sun Exposure
    NoWind,                   !- Wind Exposure
    autocalculate,            !- View Factor to Ground
    autocalculate,            !- Number of Vertices
    29.2036,                  !- Vertex 1 Xcoordinate
    6.0939,                   !- Vertex 1 Ycoordinate
    0,                        !- Vertex 1 Zcoordinate
    29.2036,                  !- Vertex 2 Xcoordinate
    6.0939,                   !- Vertex 2 Ycoordinate
    -2.5,                     !- Vertex 2 Zcoordinate
    23.9226,                  !- Vertex 3 Xcoordinate
    1.6249,                   !- Vertex 3 Ycoordinate
    -2.5,                     !- Vertex 3 Zcoordinate
    23.9226,                  !- Vertex 4 Xcoordinate
    1.6249,                   !- Vertex 4 Ycoordinate
    0;                        !- Vertex 4 Zcoordinate

BUILDINGSURFACE:DETAILED,
    Block Build0_Alt0 Storey -1 Wall 0016,    !- Name
    wall,                     !- Surface Type
    Project Basement Wall,    !- Construction Name
    Block Build0_Alt0 Storey -1,    !- Zone Name
    ground,                   !- Outside Boundary Condition
    ,                         !- Outside Boundary Condition Object
    NoSun,                    !- Sun Exposure
    NoWind,                   !- Wind Exposure
    autocalculate,            !- View Factor to Ground
    autocalculate,            !- Number of Vertices
    23.9226,                  !- Vertex 1 Xcoordinate
    1.6249,                   !- Vertex 1 Ycoordinate
    0,                        !- Vertex 1 Zcoordinate
    23.9226,                  !- Vertex 2 Xcoordinate
    1.6249,                   !- Vertex 2 Ycoordinate
    -2.5,                     !- Vertex 2 Zcoordinate
    5.9016,                   !- Vertex 3 Xcoordinate
    2.9889,                   !- Vertex 3 Ycoordinate
    -2.5,                     !- Vertex 3 Zcoordinate
    5.9016,                   !- Vertex 4 Xcoordinate
    2.9889,                   !- Vertex 4 Ycoordinate
    0;                        !- Vertex 4 Zcoordinate

BUILDINGSURFACE:DETAILED,
    Block Build0_Alt0 Storey -1 Wall 0017,    !- Name
    wall,                     !- Surface Type
    Project Basement Wall,    !- Construction Name
    Block Build0_Alt0 Storey -1,    !- Zone Name
    ground,                   !- Outside Boundary Condition
    ,                         !- Outside Boundary Condition Object
    NoSun,                    !- Sun Exposure
    NoWind,                   !- Wind Exposure
    autocalculate,            !- View Factor to Ground
    autocalculate,            !- Number of Vertices
    5.9016,                   !- Vertex 1 Xcoordinate
    2.9889,                   !- Vertex 1 Ycoordinate
    0,                        !- Vertex 1 Zcoordinate
    5.9016,                   !- Vertex 2 Xcoordinate
    2.9889,                   !- Vertex 2 Ycoordinate
    -2.5,                     !- Vertex 2 Zcoordinate
    -7.3104,                  !- Vertex 3 Xcoordinate
    18.3839,                  !- Vertex 3 Ycoordinate
    -2.5,                     !- Vertex 3 Zcoordinate
    -7.3104,                  !- Vertex 4 Xcoordinate
    18.3839,                  !- Vertex 4 Ycoordinate
    0;                        !- Vertex 4 Zcoordinate

BUILDINGSURFACE:DETAILED,
    Block Build0_Alt0 Storey -1 Wall 0018,    !- Name
    wall,                     !- Surface Type
    Project Basement Wall,    !- Construction Name
    Block Build0_Alt0 Storey -1,    !- Zone Name
    ground,                   !- Outside Boundary Condition
    ,                         !- Outside Boundary Condition Object
    NoSun,                    !- Sun Exposure
    NoWind,                   !- Wind Exposure
    autocalculate,            !- View Factor to Ground
    autocalculate,            !- Number of Vertices
    -7.3104,                  !- Vertex 1 Xcoordinate
    18.3839,                  !- Vertex 1 Ycoordinate
    0,                        !- Vertex 1 Zcoordinate
    -7.3104,                  !- Vertex 2 Xcoordinate
    18.3839,                  !- Vertex 2 Ycoordinate
    -2.5,                     !- Vertex 2 Zcoordinate
    -1.4144,                  !- Vertex 3 Xcoordinate
    23.4679,                  !- Vertex 3 Ycoordinate
    -2.5,                     !- Vertex 3 Zcoordinate
    -1.4144,                  !- Vertex 4 Xcoordinate
    23.4679,                  !- Vertex 4 Ycoordinate
    0;                        !- Vertex 4 Zcoordinate

BUILDINGSURFACE:DETAILED,
    Block Build0_Alt0 Storey -1 Floor 0001,    !- Name
    floor,                    !- Surface Type
    Project Basement Floor,    !- Construction Name
    Block Build0_Alt0 Storey -1,    !- Zone Name
    ground,                   !- Outside Boundary Condition
    ,                         !- Outside Boundary Condition Object
    NoSun,                    !- Sun Exposure
    NoWind,                   !- Wind Exposure
    autocalculate,            !- View Factor to Ground
    autocalculate,            !- Number of Vertices
    29.2036,                  !- Vertex 1 Xcoordinate
    6.0939,                   !- Vertex 1 Ycoordinate
    -2.5,                     !- Vertex 1 Zcoordinate
    35.8446,                  !- Vertex 2 Xcoordinate
    -1.6661,                  !- Vertex 2 Ycoordinate
    -2.5,                     !- Vertex 2 Zcoordinate
    32.8066,                  !- Vertex 3 Xcoordinate
    -4.2671,                  !- Vertex 3 Ycoordinate
    -2.5,                     !- Vertex 3 Zcoordinate
    35.4056,                  !- Vertex 4 Xcoordinate
    -7.3061,                  !- Vertex 4 Ycoordinate
    -2.5,                     !- Vertex 4 Zcoordinate
    27.8086,                  !- Vertex 5 Xcoordinate
    -13.8071,                 !- Vertex 5 Ycoordinate
    -2.5,                     !- Vertex 5 Zcoordinate
    24.2326,                  !- Vertex 6 Xcoordinate
    -9.6281,                  !- Vertex 6 Ycoordinate
    -2.5,                     !- Vertex 6 Zcoordinate
    2.3776,                   !- Vertex 7 Xcoordinate
    -7.9301,                  !- Vertex 7 Ycoordinate
    -2.5,                     !- Vertex 7 Zcoordinate
    -0.6624,                  !- Vertex 8 Xcoordinate
    -10.5301,                 !- Vertex 8 Ycoordinate
    -2.5,                     !- Vertex 8 Zcoordinate
    -4.4784,                  !- Vertex 9 Xcoordinate
    -6.0711,                  !- Vertex 9 Ycoordinate
    -2.5,                     !- Vertex 9 Zcoordinate
    -1.4394,                  !- Vertex 10 Xcoordinate
    -3.4701,                  !- Vertex 10 Ycoordinate
    -2.5,                     !- Vertex 10 Zcoordinate
    -23.8044,                 !- Vertex 11 Xcoordinate
    22.6929,                  !- Vertex 11 Ycoordinate
    -2.5,                     !- Vertex 11 Zcoordinate
    -16.3794,                 !- Vertex 12 Xcoordinate
    28.8849,                  !- Vertex 12 Ycoordinate
    -2.5,                     !- Vertex 12 Zcoordinate
    -12.6574,                 !- Vertex 13 Xcoordinate
    24.5429,                  !- Vertex 13 Ycoordinate
    -2.5,                     !- Vertex 13 Zcoordinate
    -6.7054,                  !- Vertex 14 Xcoordinate
    29.6519,                  !- Vertex 14 Ycoordinate
    -2.5,                     !- Vertex 14 Zcoordinate
    -1.4144,                  !- Vertex 15 Xcoordinate
    23.4679,                  !- Vertex 15 Ycoordinate
    -2.5,                     !- Vertex 15 Zcoordinate
    -7.3104,                  !- Vertex 16 Xcoordinate
    18.3839,                  !- Vertex 16 Ycoordinate
    -2.5,                     !- Vertex 16 Zcoordinate
    5.9016,                   !- Vertex 17 Xcoordinate
    2.9889,                   !- Vertex 17 Ycoordinate
    -2.5,                     !- Vertex 17 Zcoordinate
    23.9226,                  !- Vertex 18 Xcoordinate
    1.6249,                   !- Vertex 18 Ycoordinate
    -2.5;                     !- Vertex 18 Zcoordinate

BUILDINGSURFACE:DETAILED,
    Block Build0_Alt0 Storey 0 Wall 0001,    !- Name
    wall,                     !- Surface Type
    Project Wall,             !- Construction Name
    Block Build0_Alt0 Storey 0,    !- Zone Name
    outdoors,                 !- Outside Boundary Condition
    ,                         !- Outside Boundary Condition Object
    SunExposed,               !- Sun Exposure
    WindExposed,              !- Wind Exposure
    autocalculate,            !- View Factor to Ground
    autocalculate,            !- Number of Vertices
    -1.4144,                  !- Vertex 1 Xcoordinate
    23.4679,                  !- Vertex 1 Ycoordinate
    15,                       !- Vertex 1 Zcoordinate
    -1.4144,                  !- Vertex 2 Xcoordinate
    23.4679,                  !- Vertex 2 Ycoordinate
    0,                        !- Vertex 2 Zcoordinate
    -6.7054,                  !- Vertex 3 Xcoordinate
    29.6519,                  !- Vertex 3 Ycoordinate
    0,                        !- Vertex 3 Zcoordinate
    -6.7054,                  !- Vertex 4 Xcoordinate
    29.6519,                  !- Vertex 4 Ycoordinate
    15;                       !- Vertex 4 Zcoordinate

BUILDINGSURFACE:DETAILED,
    Block Build0_Alt0 Storey 0 Wall 0002,    !- Name
    wall,                     !- Surface Type
    Project Wall,             !- Construction Name
    Block Build0_Alt0 Storey 0,    !- Zone Name
    outdoors,                 !- Outside Boundary Condition
    ,                         !- Outside Boundary Condition Object
    SunExposed,               !- Sun Exposure
    WindExposed,              !- Wind Exposure
    autocalculate,            !- View Factor to Ground
    autocalculate,            !- Number of Vertices
    -6.7054,                  !- Vertex 1 Xcoordinate
    29.6519,                  !- Vertex 1 Ycoordinate
    15,                       !- Vertex 1 Zcoordinate
    -6.7054,                  !- Vertex 2 Xcoordinate
    29.6519,                  !- Vertex 2 Ycoordinate
    0,                        !- Vertex 2 Zcoordinate
    -12.6574,                 !- Vertex 3 Xcoordinate
    24.5429,                  !- Vertex 3 Ycoordinate
    0,                        !- Vertex 3 Zcoordinate
    -12.6574,                 !- Vertex 4 Xcoordinate
    24.5429,                  !- Vertex 4 Ycoordinate
    15;                       !- Vertex 4 Zcoordinate

BUILDINGSURFACE:DETAILED,
    Block Build0_Alt0 Storey 0 Wall 0003,    !- Name
    wall,                     !- Surface Type
    Project Wall,             !- Construction Name
    Block Build0_Alt0 Storey 0,    !- Zone Name
    outdoors,                 !- Outside Boundary Condition
    ,                         !- Outside Boundary Condition Object
    SunExposed,               !- Sun Exposure
    WindExposed,              !- Wind Exposure
    autocalculate,            !- View Factor to Ground
    autocalculate,            !- Number of Vertices
    -12.6574,                 !- Vertex 1 Xcoordinate
    24.5429,                  !- Vertex 1 Ycoordinate
    15,                       !- Vertex 1 Zcoordinate
    -12.6574,                 !- Vertex 2 Xcoordinate
    24.5429,                  !- Vertex 2 Ycoordinate
    0,                        !- Vertex 2 Zcoordinate
    -16.3794,                 !- Vertex 3 Xcoordinate
    28.8849,                  !- Vertex 3 Ycoordinate
    0,                        !- Vertex 3 Zcoordinate
    -16.3794,                 !- Vertex 4 Xcoordinate
    28.8849,                  !- Vertex 4 Ycoordinate
    15;                       !- Vertex 4 Zcoordinate

BUILDINGSURFACE:DETAILED,
    Block Build0_Alt0 Storey 0 Wall 0004,    !- Name
    wall,                     !- Surface Type
    Project Wall,             !- Construction Name
    Block Build0_Alt0 Storey 0,    !- Zone Name
    outdoors,                 !- Outside Boundary Condition
    ,                         !- Outside Boundary Condition Object
    SunExposed,               !- Sun Exposure
    WindExposed,              !- Wind Exposure
    autocalculate,            !- View Factor to Ground
    autocalculate,            !- Number of Vertices
    -16.3794,                 !- Vertex 1 Xcoordinate
    28.8849,                  !- Vertex 1 Ycoordinate
    15,                       !- Vertex 1 Zcoordinate
    -16.3794,                 !- Vertex 2 Xcoordinate
    28.8849,                  !- Vertex 2 Ycoordinate
    0,                        !- Vertex 2 Zcoordinate
    -23.8044,                 !- Vertex 3 Xcoordinate
    22.6929,                  !- Vertex 3 Ycoordinate
    0,                        !- Vertex 3 Zcoordinate
    -23.8044,                 !- Vertex 4 Xcoordinate
    22.6929,                  !- Vertex 4 Ycoordinate
    15;                       !- Vertex 4 Zcoordinate

BUILDINGSURFACE:DETAILED,
    Block Build0_Alt0 Storey 0 Wall 0005,    !- Name
    wall,                     !- Surface Type
    Project Wall,             !- Construction Name
    Block Build0_Alt0 Storey 0,    !- Zone Name
    outdoors,                 !- Outside Boundary Condition
    ,                         !- Outside Boundary Condition Object
    SunExposed,               !- Sun Exposure
    WindExposed,              !- Wind Exposure
    autocalculate,            !- View Factor to Ground
    autocalculate,            !- Number of Vertices
    -23.8044,                 !- Vertex 1 Xcoordinate
    22.6929,                  !- Vertex 1 Ycoordinate
    15,                       !- Vertex 1 Zcoordinate
    -23.8044,                 !- Vertex 2 Xcoordinate
    22.6929,                  !- Vertex 2 Ycoordinate
    0,                        !- Vertex 2 Zcoordinate
    -1.4394,                  !- Vertex 3 Xcoordinate
    -3.4701,                  !- Vertex 3 Ycoordinate
    0,                        !- Vertex 3 Zcoordinate
    -1.4394,                  !- Vertex 4 Xcoordinate
    -3.4701,                  !- Vertex 4 Ycoordinate
    15;                       !- Vertex 4 Zcoordinate

BUILDINGSURFACE:DETAILED,
    Block Build0_Alt0 Storey 0 Wall 0006,    !- Name
    wall,                     !- Surface Type
    Project Wall,             !- Construction Name
    Block Build0_Alt0 Storey 0,    !- Zone Name
    outdoors,                 !- Outside Boundary Condition
    ,                         !- Outside Boundary Condition Object
    SunExposed,               !- Sun Exposure
    WindExposed,              !- Wind Exposure
    autocalculate,            !- View Factor to Ground
    autocalculate,            !- Number of Vertices
    -1.4394,                  !- Vertex 1 Xcoordinate
    -3.4701,                  !- Vertex 1 Ycoordinate
    15,                       !- Vertex 1 Zcoordinate
    -1.4394,                  !- Vertex 2 Xcoordinate
    -3.4701,                  !- Vertex 2 Ycoordinate
    0,                        !- Vertex 2 Zcoordinate
    -4.4784,                  !- Vertex 3 Xcoordinate
    -6.0711,                  !- Vertex 3 Ycoordinate
    0,                        !- Vertex 3 Zcoordinate
    -4.4784,                  !- Vertex 4 Xcoordinate
    -6.0711,                  !- Vertex 4 Ycoordinate
    15;                       !- Vertex 4 Zcoordinate

BUILDINGSURFACE:DETAILED,
    Block Build0_Alt0 Storey 0 Wall 0007,    !- Name
    wall,                     !- Surface Type
    Project Wall,             !- Construction Name
    Block Build0_Alt0 Storey 0,    !- Zone Name
    outdoors,                 !- Outside Boundary Condition
    ,                         !- Outside Boundary Condition Object
    SunExposed,               !- Sun Exposure
    WindExposed,              !- Wind Exposure
    autocalculate,            !- View Factor to Ground
    autocalculate,            !- Number of Vertices
    -4.4784,                  !- Vertex 1 Xcoordinate
    -6.0711,                  !- Vertex 1 Ycoordinate
    15,                       !- Vertex 1 Zcoordinate
    -4.4784,                  !- Vertex 2 Xcoordinate
    -6.0711,                  !- Vertex 2 Ycoordinate
    0,                        !- Vertex 2 Zcoordinate
    -0.6624,                  !- Vertex 3 Xcoordinate
    -10.5301,                 !- Vertex 3 Ycoordinate
    0,                        !- Vertex 3 Zcoordinate
    -0.6624,                  !- Vertex 4 Xcoordinate
    -10.5301,                 !- Vertex 4 Ycoordinate
    15;                       !- Vertex 4 Zcoordinate

BUILDINGSURFACE:DETAILED,
    Block Build0_Alt0 Storey 0 Wall 0008,    !- Name
    wall,                     !- Surface Type
    Project Wall,             !- Construction Name
    Block Build0_Alt0 Storey 0,    !- Zone Name
    outdoors,                 !- Outside Boundary Condition
    ,                         !- Outside Boundary Condition Object
    SunExposed,               !- Sun Exposure
    WindExposed,              !- Wind Exposure
    autocalculate,            !- View Factor to Ground
    autocalculate,            !- Number of Vertices
    -0.6624,                  !- Vertex 1 Xcoordinate
    -10.5301,                 !- Vertex 1 Ycoordinate
    15,                       !- Vertex 1 Zcoordinate
    -0.6624,                  !- Vertex 2 Xcoordinate
    -10.5301,                 !- Vertex 2 Ycoordinate
    0,                        !- Vertex 2 Zcoordinate
    2.3776,                   !- Vertex 3 Xcoordinate
    -7.9301,                  !- Vertex 3 Ycoordinate
    0,                        !- Vertex 3 Zcoordinate
    2.3776,                   !- Vertex 4 Xcoordinate
    -7.9301,                  !- Vertex 4 Ycoordinate
    15;                       !- Vertex 4 Zcoordinate

BUILDINGSURFACE:DETAILED,
    Block Build0_Alt0 Storey 0 Wall 0009,    !- Name
    wall,                     !- Surface Type
    Project Wall,             !- Construction Name
    Block Build0_Alt0 Storey 0,    !- Zone Name
    outdoors,                 !- Outside Boundary Condition
    ,                         !- Outside Boundary Condition Object
    SunExposed,               !- Sun Exposure
    WindExposed,              !- Wind Exposure
    autocalculate,            !- View Factor to Ground
    autocalculate,            !- Number of Vertices
    2.3776,                   !- Vertex 1 Xcoordinate
    -7.9301,                  !- Vertex 1 Ycoordinate
    15,                       !- Vertex 1 Zcoordinate
    2.3776,                   !- Vertex 2 Xcoordinate
    -7.9301,                  !- Vertex 2 Ycoordinate
    0,                        !- Vertex 2 Zcoordinate
    24.2326,                  !- Vertex 3 Xcoordinate
    -9.6281,                  !- Vertex 3 Ycoordinate
    0,                        !- Vertex 3 Zcoordinate
    24.2326,                  !- Vertex 4 Xcoordinate
    -9.6281,                  !- Vertex 4 Ycoordinate
    15;                       !- Vertex 4 Zcoordinate

BUILDINGSURFACE:DETAILED,
    Block Build0_Alt0 Storey 0 Wall 0010,    !- Name
    wall,                     !- Surface Type
    Project Wall,             !- Construction Name
    Block Build0_Alt0 Storey 0,    !- Zone Name
    outdoors,                 !- Outside Boundary Condition
    ,                         !- Outside Boundary Condition Object
    SunExposed,               !- Sun Exposure
    WindExposed,              !- Wind Exposure
    autocalculate,            !- View Factor to Ground
    autocalculate,            !- Number of Vertices
    24.2326,                  !- Vertex 1 Xcoordinate
    -9.6281,                  !- Vertex 1 Ycoordinate
    15,                       !- Vertex 1 Zcoordinate
    24.2326,                  !- Vertex 2 Xcoordinate
    -9.6281,                  !- Vertex 2 Ycoordinate
    0,                        !- Vertex 2 Zcoordinate
    27.8086,                  !- Vertex 3 Xcoordinate
    -13.8071,                 !- Vertex 3 Ycoordinate
    0,                        !- Vertex 3 Zcoordinate
    27.8086,                  !- Vertex 4 Xcoordinate
    -13.8071,                 !- Vertex 4 Ycoordinate
    15;                       !- Vertex 4 Zcoordinate

BUILDINGSURFACE:DETAILED,
    Block Build0_Alt0 Storey 0 Wall 0011,    !- Name
    wall,                     !- Surface Type
    Project Wall,             !- Construction Name
    Block Build0_Alt0 Storey 0,    !- Zone Name
    outdoors,                 !- Outside Boundary Condition
    ,                         !- Outside Boundary Condition Object
    SunExposed,               !- Sun Exposure
    WindExposed,              !- Wind Exposure
    autocalculate,            !- View Factor to Ground
    autocalculate,            !- Number of Vertices
    27.8086,                  !- Vertex 1 Xcoordinate
    -13.8071,                 !- Vertex 1 Ycoordinate
    15,                       !- Vertex 1 Zcoordinate
    27.8086,                  !- Vertex 2 Xcoordinate
    -13.8071,                 !- Vertex 2 Ycoordinate
    0,                        !- Vertex 2 Zcoordinate
    35.4056,                  !- Vertex 3 Xcoordinate
    -7.3061,                  !- Vertex 3 Ycoordinate
    0,                        !- Vertex 3 Zcoordinate
    35.4056,                  !- Vertex 4 Xcoordinate
    -7.3061,                  !- Vertex 4 Ycoordinate
    15;                       !- Vertex 4 Zcoordinate

BUILDINGSURFACE:DETAILED,
    Block Build0_Alt0 Storey 0 Wall 0012,    !- Name
    wall,                     !- Surface Type
    Project Wall,             !- Construction Name
    Block Build0_Alt0 Storey 0,    !- Zone Name
    outdoors,                 !- Outside Boundary Condition
    ,                         !- Outside Boundary Condition Object
    SunExposed,               !- Sun Exposure
    WindExposed,              !- Wind Exposure
    autocalculate,            !- View Factor to Ground
    autocalculate,            !- Number of Vertices
    35.4056,                  !- Vertex 1 Xcoordinate
    -7.3061,                  !- Vertex 1 Ycoordinate
    15,                       !- Vertex 1 Zcoordinate
    35.4056,                  !- Vertex 2 Xcoordinate
    -7.3061,                  !- Vertex 2 Ycoordinate
    0,                        !- Vertex 2 Zcoordinate
    32.8066,                  !- Vertex 3 Xcoordinate
    -4.2671,                  !- Vertex 3 Ycoordinate
    0,                        !- Vertex 3 Zcoordinate
    32.8066,                  !- Vertex 4 Xcoordinate
    -4.2671,                  !- Vertex 4 Ycoordinate
    15;                       !- Vertex 4 Zcoordinate

BUILDINGSURFACE:DETAILED,
    Block Build0_Alt0 Storey 0 Wall 0013,    !- Name
    wall,                     !- Surface Type
    Project Wall,             !- Construction Name
    Block Build0_Alt0 Storey 0,    !- Zone Name
    outdoors,                 !- Outside Boundary Condition
    ,                         !- Outside Boundary Condition Object
    SunExposed,               !- Sun Exposure
    WindExposed,              !- Wind Exposure
    autocalculate,            !- View Factor to Ground
    autocalculate,            !- Number of Vertices
    32.8066,                  !- Vertex 1 Xcoordinate
    -4.2671,                  !- Vertex 1 Ycoordinate
    15,                       !- Vertex 1 Zcoordinate
    32.8066,                  !- Vertex 2 Xcoordinate
    -4.2671,                  !- Vertex 2 Ycoordinate
    0,                        !- Vertex 2 Zcoordinate
    35.8446,                  !- Vertex 3 Xcoordinate
    -1.6661,                  !- Vertex 3 Ycoordinate
    0,                        !- Vertex 3 Zcoordinate
    35.8446,                  !- Vertex 4 Xcoordinate
    -1.6661,                  !- Vertex 4 Ycoordinate
    15;                       !- Vertex 4 Zcoordinate

BUILDINGSURFACE:DETAILED,
    Block Build0_Alt0 Storey 0 Wall 0014,    !- Name
    wall,                     !- Surface Type
    Project Wall,             !- Construction Name
    Block Build0_Alt0 Storey 0,    !- Zone Name
    outdoors,                 !- Outside Boundary Condition
    ,                         !- Outside Boundary Condition Object
    SunExposed,               !- Sun Exposure
    WindExposed,              !- Wind Exposure
    autocalculate,            !- View Factor to Ground
    autocalculate,            !- Number of Vertices
    35.8446,                  !- Vertex 1 Xcoordinate
    -1.6661,                  !- Vertex 1 Ycoordinate
    15,                       !- Vertex 1 Zcoordinate
    35.8446,                  !- Vertex 2 Xcoordinate
    -1.6661,                  !- Vertex 2 Ycoordinate
    0,                        !- Vertex 2 Zcoordinate
    29.2036,                  !- Vertex 3 Xcoordinate
    6.0939,                   !- Vertex 3 Ycoordinate
    0,                        !- Vertex 3 Zcoordinate
    29.2036,                  !- Vertex 4 Xcoordinate
    6.0939,                   !- Vertex 4 Ycoordinate
    15;                       !- Vertex 4 Zcoordinate

BUILDINGSURFACE:DETAILED,
    Block Build0_Alt0 Storey 0 Wall 0015,    !- Name
    wall,                     !- Surface Type
    Project Wall,             !- Construction Name
    Block Build0_Alt0 Storey 0,    !- Zone Name
    outdoors,                 !- Outside Boundary Condition
    ,                         !- Outside Boundary Condition Object
    SunExposed,               !- Sun Exposure
    WindExposed,              !- Wind Exposure
    autocalculate,            !- View Factor to Ground
    autocalculate,            !- Number of Vertices
    29.2036,                  !- Vertex 1 Xcoordinate
    6.0939,                   !- Vertex 1 Ycoordinate
    15,                       !- Vertex 1 Zcoordinate
    29.2036,                  !- Vertex 2 Xcoordinate
    6.0939,                   !- Vertex 2 Ycoordinate
    0,                        !- Vertex 2 Zcoordinate
    23.9226,                  !- Vertex 3 Xcoordinate
    1.6249,                   !- Vertex 3 Ycoordinate
    0,                        !- Vertex 3 Zcoordinate
    23.9226,                  !- Vertex 4 Xcoordinate
    1.6249,                   !- Vertex 4 Ycoordinate
    15;                       !- Vertex 4 Zcoordinate

BUILDINGSURFACE:DETAILED,
    Block Build0_Alt0 Storey 0 Wall 0016,    !- Name
    wall,                     !- Surface Type
    Project Wall,             !- Construction Name
    Block Build0_Alt0 Storey 0,    !- Zone Name
    outdoors,                 !- Outside Boundary Condition
    ,                         !- Outside Boundary Condition Object
    SunExposed,               !- Sun Exposure
    WindExposed,              !- Wind Exposure
    autocalculate,            !- View Factor to Ground
    autocalculate,            !- Number of Vertices
    23.9226,                  !- Vertex 1 Xcoordinate
    1.6249,                   !- Vertex 1 Ycoordinate
    15,                       !- Vertex 1 Zcoordinate
    23.9226,                  !- Vertex 2 Xcoordinate
    1.6249,                   !- Vertex 2 Ycoordinate
    0,                        !- Vertex 2 Zcoordinate
    5.9016,                   !- Vertex 3 Xcoordinate
    2.9889,                   !- Vertex 3 Ycoordinate
    0,                        !- Vertex 3 Zcoordinate
    5.9016,                   !- Vertex 4 Xcoordinate
    2.9889,                   !- Vertex 4 Ycoordinate
    15;                       !- Vertex 4 Zcoordinate

BUILDINGSURFACE:DETAILED,
    Block Build0_Alt0 Storey 0 Wall 0017,    !- Name
    wall,                     !- Surface Type
    Project Wall,             !- Construction Name
    Block Build0_Alt0 Storey 0,    !- Zone Name
    outdoors,                 !- Outside Boundary Condition
    ,                         !- Outside Boundary Condition Object
    SunExposed,               !- Sun Exposure
    WindExposed,              !- Wind Exposure
    autocalculate,            !- View Factor to Ground
    autocalculate,            !- Number of Vertices
    5.9016,                   !- Vertex 1 Xcoordinate
    2.9889,                   !- Vertex 1 Ycoordinate
    15,                       !- Vertex 1 Zcoordinate
    5.9016,                   !- Vertex 2 Xcoordinate
    2.9889,                   !- Vertex 2 Ycoordinate
    0,                        !- Vertex 2 Zcoordinate
    -7.3104,                  !- Vertex 3 Xcoordinate
    18.3839,                  !- Vertex 3 Ycoordinate
    0,                        !- Vertex 3 Zcoordinate
    -7.3104,                  !- Vertex 4 Xcoordinate
    18.3839,                  !- Vertex 4 Ycoordinate
    15;                       !- Vertex 4 Zcoordinate

BUILDINGSURFACE:DETAILED,
    Block Build0_Alt0 Storey 0 Wall 0018,    !- Name
    wall,                     !- Surface Type
    Project Wall,             !- Construction Name
    Block Build0_Alt0 Storey 0,    !- Zone Name
    outdoors,                 !- Outside Boundary Condition
    ,                         !- Outside Boundary Condition Object
    SunExposed,               !- Sun Exposure
    WindExposed,              !- Wind Exposure
    autocalculate,            !- View Factor to Ground
    autocalculate,            !- Number of Vertices
    -7.3104,                  !- Vertex 1 Xcoordinate
    18.3839,                  !- Vertex 1 Ycoordinate
    15,                       !- Vertex 1 Zcoordinate
    -7.3104,                  !- Vertex 2 Xcoordinate
    18.3839,                  !- Vertex 2 Ycoordinate
    0,                        !- Vertex 2 Zcoordinate
    -1.4144,                  !- Vertex 3 Xcoordinate
    23.4679,                  !- Vertex 3 Ycoordinate
    0,                        !- Vertex 3 Zcoordinate
    -1.4144,                  !- Vertex 4 Xcoordinate
    23.4679,                  !- Vertex 4 Ycoordinate
    15;                       !- Vertex 4 Zcoordinate

BUILDINGSURFACE:DETAILED,
    Block Build0_Alt0 Storey -1 Ceiling 0001_1,    !- Name
    ceiling,                  !- Surface Type
    Project Heated1rstFloor Rev,    !- Construction Name
    Block Build0_Alt0 Storey -1,    !- Zone Name
    surface,                  !- Outside Boundary Condition
    Block Build0_Alt0 Storey 0 Floor 0001_1,    !- Outside Boundary Condition Object
    NoSun,                    !- Sun Exposure
    NoWind,                   !- Wind Exposure
    autocalculate,            !- View Factor to Ground
    autocalculate,            !- Number of Vertices
    35.40559999970719,        !- Vertex 1 Xcoordinate
    -7.306099999696016,       !- Vertex 1 Ycoordinate
    0,                        !- Vertex 1 Zcoordinate
    32.80659999977797,        !- Vertex 2 Xcoordinate
    -4.267099999822676,       !- Vertex 2 Ycoordinate
    0,                        !- Vertex 2 Zcoordinate
    35.84459999995306,        !- Vertex 3 Xcoordinate
    -1.666100e+00,            !- Vertex 3 Ycoordinate
    0,                        !- Vertex 3 Zcoordinate
    29.203599999658763,       !- Vertex 4 Xcoordinate
    6.09389999974519,         !- Vertex 4 Ycoordinate
    0,                        !- Vertex 4 Zcoordinate
    23.92259999969974,        !- Vertex 5 Xcoordinate
    1.624899999704212,        !- Vertex 5 Ycoordinate
    0,                        !- Vertex 5 Zcoordinate
    5.901599999982864,        !- Vertex 6 Xcoordinate
    2.9888999997638166,       !- Vertex 6 Ycoordinate
    0,                        !- Vertex 6 Zcoordinate
    -7.310399999842048,       !- Vertex 7 Xcoordinate
    18.383899999782443,       !- Vertex 7 Ycoordinate
    0,                        !- Vertex 7 Zcoordinate
    -1.414400e+00,            !- Vertex 8 Xcoordinate
    23.467899999581277,       !- Vertex 8 Ycoordinate
    0,                        !- Vertex 8 Zcoordinate
    -6.705399999860674,       !- Vertex 9 Xcoordinate
    29.651899999938905,       !- Vertex 9 Ycoordinate
    0,                        !- Vertex 9 Zcoordinate
    -1.265740e+01,            !- Vertex 10 Xcoordinate
    24.542899999767542,       !- Vertex 10 Ycoordinate
    0,                        !- Vertex 10 Zcoordinate
    -1.637940e+01,            !- Vertex 11 Xcoordinate
    28.884899999946356,       !- Vertex 11 Ycoordinate
    0,                        !- Vertex 11 Zcoordinate
    -2.380440e+01,            !- Vertex 12 Xcoordinate
    22.69289999967441,        !- Vertex 12 Ycoordinate
    0,                        !- Vertex 12 Zcoordinate
    -1.439400e+00,            !- Vertex 13 Xcoordinate
    -3.470100e+00,            !- Vertex 13 Ycoordinate
    0,                        !- Vertex 13 Zcoordinate
    -4.478399999905378,       !- Vertex 14 Xcoordinate
    -6.071100e+00,            !- Vertex 14 Ycoordinate
    0,                        !- Vertex 14 Zcoordinate
    -6.624000e-01,            !- Vertex 15 Xcoordinate
    -1.053010e+01,            !- Vertex 15 Ycoordinate
    0,                        !- Vertex 15 Zcoordinate
    2.3775999997742474,       !- Vertex 16 Xcoordinate
    -7.930099999997765,       !- Vertex 16 Ycoordinate
    0,                        !- Vertex 16 Zcoordinate
    24.23259999975562,        !- Vertex 17 Xcoordinate
    -9.628099999856204,       !- Vertex 17 Ycoordinate
    0,                        !- Vertex 17 Zcoordinate
    27.808599999640137,       !- Vertex 18 Xcoordinate
    -1.380710e+01,            !- Vertex 18 Ycoordinate
    0;                        !- Vertex 18 Zcoordinate

BUILDINGSURFACE:DETAILED,
    Block Build0_Alt0 Storey 0 Floor 0001_1,    !- Name
    floor,                    !- Surface Type
    Project Heated1rstFloor,    !- Construction Name
    Block Build0_Alt0 Storey 0,    !- Zone Name
    surface,                  !- Outside Boundary Condition
    Block Build0_Alt0 Storey -1 Ceiling 0001_1,    !- Outside Boundary Condition Object
    NoSun,                    !- Sun Exposure
    NoWind,                   !- Wind Exposure
    autocalculate,            !- View Factor to Ground
    autocalculate,            !- Number of Vertices
    29.203599999658763,       !- Vertex 1 Xcoordinate
    6.09389999974519,         !- Vertex 1 Ycoordinate
    0,                        !- Vertex 1 Zcoordinate
    35.84459999995306,        !- Vertex 2 Xcoordinate
    -1.666100e+00,            !- Vertex 2 Ycoordinate
    0,                        !- Vertex 2 Zcoordinate
    32.80659999977797,        !- Vertex 3 Xcoordinate
    -4.267099999822676,       !- Vertex 3 Ycoordinate
    0,                        !- Vertex 3 Zcoordinate
    35.40559999970719,        !- Vertex 4 Xcoordinate
    -7.306099999696016,       !- Vertex 4 Ycoordinate
    0,                        !- Vertex 4 Zcoordinate
    27.808599999640137,       !- Vertex 5 Xcoordinate
    -1.380710e+01,            !- Vertex 5 Ycoordinate
    0,                        !- Vertex 5 Zcoordinate
    24.23259999975562,        !- Vertex 6 Xcoordinate
    -9.628099999856204,       !- Vertex 6 Ycoordinate
    0,                        !- Vertex 6 Zcoordinate
    2.3775999997742474,       !- Vertex 7 Xcoordinate
    -7.930099999997765,       !- Vertex 7 Ycoordinate
    0,                        !- Vertex 7 Zcoordinate
    -6.624000e-01,            !- Vertex 8 Xcoordinate
    -1.053010e+01,            !- Vertex 8 Ycoordinate
    0,                        !- Vertex 8 Zcoordinate
    -4.478399999905378,       !- Vertex 9 Xcoordinate
    -6.071100e+00,            !- Vertex 9 Ycoordinate
    0,                        !- Vertex 9 Zcoordinate
    -1.439400e+00,            !- Vertex 10 Xcoordinate
    -3.470100e+00,            !- Vertex 10 Ycoordinate
    0,                        !- Vertex 10 Zcoordinate
    -2.380440e+01,            !- Vertex 11 Xcoordinate
    22.69289999967441,        !- Vertex 11 Ycoordinate
    0,                        !- Vertex 11 Zcoordinate
    -1.637940e+01,            !- Vertex 12 Xcoordinate
    28.884899999946356,       !- Vertex 12 Ycoordinate
    0,                        !- Vertex 12 Zcoordinate
    -1.265740e+01,            !- Vertex 13 Xcoordinate
    24.542899999767542,       !- Vertex 13 Ycoordinate
    0,                        !- Vertex 13 Zcoordinate
    -6.705399999860674,       !- Vertex 14 Xcoordinate
    29.651899999938905,       !- Vertex 14 Ycoordinate
    0,                        !- Vertex 14 Zcoordinate
    -1.414400e+00,            !- Vertex 15 Xcoordinate
    23.467899999581277,       !- Vertex 15 Ycoordinate
    0,                        !- Vertex 15 Zcoordinate
    -7.310399999842048,       !- Vertex 16 Xcoordinate
    18.383899999782443,       !- Vertex 16 Ycoordinate
    0,                        !- Vertex 16 Zcoordinate
    5.901599999982864,        !- Vertex 17 Xcoordinate
    2.9888999997638166,       !- Vertex 17 Ycoordinate
    0,                        !- Vertex 17 Zcoordinate
    23.92259999969974,        !- Vertex 18 Xcoordinate
    1.624899999704212,        !- Vertex 18 Ycoordinate
    0;                        !- Vertex 18 Zcoordinate

BUILDINGSURFACE:DETAILED,
    Block Build0_Alt0 Storey 0 Roof 0001_0,    !- Name
    roof,                     !- Surface Type
    Project Flat Roof,        !- Construction Name
    Block Build0_Alt0 Storey 0,    !- Zone Name
    outdoors,                 !- Outside Boundary Condition
    ,                         !- Outside Boundary Condition Object
    SunExposed,               !- Sun Exposure
    WindExposed,              !- Wind Exposure
    autocalculate,            !- View Factor to Ground
    autocalculate,            !- Number of Vertices
    5.9016,                   !- Vertex 1 Xcoordinate
    2.9889,                   !- Vertex 1 Ycoordinate
    15,                       !- Vertex 1 Zcoordinate
    -7.3104,                  !- Vertex 2 Xcoordinate
    18.3839,                  !- Vertex 2 Ycoordinate
    15,                       !- Vertex 2 Zcoordinate
    -12.6574,                 !- Vertex 3 Xcoordinate
    24.5429,                  !- Vertex 3 Ycoordinate
    15,                       !- Vertex 3 Zcoordinate
    -1.4394,                  !- Vertex 4 Xcoordinate
    -3.4701,                  !- Vertex 4 Ycoordinate
    15;                       !- Vertex 4 Zcoordinate

BUILDINGSURFACE:DETAILED,
    Block Build0_Alt0 Storey 0 Roof 0001_1,    !- Name
    roof,                     !- Surface Type
    Project Flat Roof,        !- Construction Name
    Block Build0_Alt0 Storey 0,    !- Zone Name
    outdoors,                 !- Outside Boundary Condition
    ,                         !- Outside Boundary Condition Object
    SunExposed,               !- Sun Exposure
    WindExposed,              !- Wind Exposure
    autocalculate,            !- View Factor to Ground
    autocalculate,            !- Number of Vertices
    2.3776,                   !- Vertex 1 Xcoordinate
    -7.9301,                  !- Vertex 1 Ycoordinate
    15,                       !- Vertex 1 Zcoordinate
    -1.4394,                  !- Vertex 2 Xcoordinate
    -3.4701,                  !- Vertex 2 Ycoordinate
    15,                       !- Vertex 2 Zcoordinate
    -4.4784,                  !- Vertex 3 Xcoordinate
    -6.0711,                  !- Vertex 3 Ycoordinate
    15,                       !- Vertex 3 Zcoordinate
    -0.6624,                  !- Vertex 4 Xcoordinate
    -10.5301,                 !- Vertex 4 Ycoordinate
    15;                       !- Vertex 4 Zcoordinate

BUILDINGSURFACE:DETAILED,
    Block Build0_Alt0 Storey 0 Roof 0001_2,    !- Name
    roof,                     !- Surface Type
    Project Flat Roof,        !- Construction Name
    Block Build0_Alt0 Storey 0,    !- Zone Name
    outdoors,                 !- Outside Boundary Condition
    ,                         !- Outside Boundary Condition Object
    SunExposed,               !- Sun Exposure
    WindExposed,              !- Wind Exposure
    autocalculate,            !- View Factor to Ground
    autocalculate,            !- Number of Vertices
    35.8446,                  !- Vertex 1 Xcoordinate
    -1.6661,                  !- Vertex 1 Ycoordinate
    15,                       !- Vertex 1 Zcoordinate
    29.2036,                  !- Vertex 2 Xcoordinate
    6.0939,                   !- Vertex 2 Ycoordinate
    15,                       !- Vertex 2 Zcoordinate
    23.9226,                  !- Vertex 3 Xcoordinate
    1.6249,                   !- Vertex 3 Ycoordinate
    15,                       !- Vertex 3 Zcoordinate
    32.8066,                  !- Vertex 4 Xcoordinate
    -4.2671,                  !- Vertex 4 Ycoordinate
    15;                       !- Vertex 4 Zcoordinate

BUILDINGSURFACE:DETAILED,
    Block Build0_Alt0 Storey 0 Roof 0001_3,    !- Name
    roof,                     !- Surface Type
    Project Flat Roof,        !- Construction Name
    Block Build0_Alt0 Storey 0,    !- Zone Name
    outdoors,                 !- Outside Boundary Condition
    ,                         !- Outside Boundary Condition Object
    SunExposed,               !- Sun Exposure
    WindExposed,              !- Wind Exposure
    autocalculate,            !- View Factor to Ground
    autocalculate,            !- Number of Vertices
    -1.4394,                  !- Vertex 1 Xcoordinate
    -3.4701,                  !- Vertex 1 Ycoordinate
    15,                       !- Vertex 1 Zcoordinate
    -12.6574,                 !- Vertex 2 Xcoordinate
    24.5429,                  !- Vertex 2 Ycoordinate
    15,                       !- Vertex 2 Zcoordinate
    -16.3794,                 !- Vertex 3 Xcoordinate
    28.8849,                  !- Vertex 3 Ycoordinate
    15,                       !- Vertex 3 Zcoordinate
    -23.8044,                 !- Vertex 4 Xcoordinate
    22.6929,                  !- Vertex 4 Ycoordinate
    15;                       !- Vertex 4 Zcoordinate

BUILDINGSURFACE:DETAILED,
    Block Build0_Alt0 Storey 0 Roof 0001_4,    !- Name
    roof,                     !- Surface Type
    Project Flat Roof,        !- Construction Name
    Block Build0_Alt0 Storey 0,    !- Zone Name
    outdoors,                 !- Outside Boundary Condition
    ,                         !- Outside Boundary Condition Object
    SunExposed,               !- Sun Exposure
    WindExposed,              !- Wind Exposure
    autocalculate,            !- View Factor to Ground
    autocalculate,            !- Number of Vertices
    -1.4144,                  !- Vertex 1 Xcoordinate
    23.4679,                  !- Vertex 1 Ycoordinate
    15,                       !- Vertex 1 Zcoordinate
    -6.7054,                  !- Vertex 2 Xcoordinate
    29.6519,                  !- Vertex 2 Ycoordinate
    15,                       !- Vertex 2 Zcoordinate
    -12.6574,                 !- Vertex 3 Xcoordinate
    24.5429,                  !- Vertex 3 Ycoordinate
    15,                       !- Vertex 3 Zcoordinate
    -7.3104,                  !- Vertex 4 Xcoordinate
    18.3839,                  !- Vertex 4 Ycoordinate
    15;                       !- Vertex 4 Zcoordinate

BUILDINGSURFACE:DETAILED,
    Block Build0_Alt0 Storey 0 Roof 0001_5,    !- Name
    roof,                     !- Surface Type
    Project Flat Roof,        !- Construction Name
    Block Build0_Alt0 Storey 0,    !- Zone Name
    outdoors,                 !- Outside Boundary Condition
    ,                         !- Outside Boundary Condition Object
    SunExposed,               !- Sun Exposure
    WindExposed,              !- Wind Exposure
    autocalculate,            !- View Factor to Ground
    autocalculate,            !- Number of Vertices
    35.4056,                  !- Vertex 1 Xcoordinate
    -7.3061,                  !- Vertex 1 Ycoordinate
    15,                       !- Vertex 1 Zcoordinate
    32.8066,                  !- Vertex 2 Xcoordinate
    -4.2671,                  !- Vertex 2 Ycoordinate
    15,                       !- Vertex 2 Zcoordinate
    23.9226,                  !- Vertex 3 Xcoordinate
    1.6249,                   !- Vertex 3 Ycoordinate
    15,                       !- Vertex 3 Zcoordinate
    24.2326,                  !- Vertex 4 Xcoordinate
    -9.6281,                  !- Vertex 4 Ycoordinate
    15,                       !- Vertex 4 Zcoordinate
    27.8086,                  !- Vertex 5 Xcoordinate
    -13.8071,                 !- Vertex 5 Ycoordinate
    15;                       !- Vertex 5 Zcoordinate

BUILDINGSURFACE:DETAILED,
    Block Build0_Alt0 Storey 0 Roof 0001_6,    !- Name
    roof,                     !- Surface Type
    Project Flat Roof,        !- Construction Name
    Block Build0_Alt0 Storey 0,    !- Zone Name
    outdoors,                 !- Outside Boundary Condition
    ,                         !- Outside Boundary Condition Object
    SunExposed,               !- Sun Exposure
    WindExposed,              !- Wind Exposure
    autocalculate,            !- View Factor to Ground
    autocalculate,            !- Number of Vertices
    24.2326,                  !- Vertex 1 Xcoordinate
    -9.6281,                  !- Vertex 1 Ycoordinate
    15,                       !- Vertex 1 Zcoordinate
    23.9226,                  !- Vertex 2 Xcoordinate
    1.6249,                   !- Vertex 2 Ycoordinate
    15,                       !- Vertex 2 Zcoordinate
    5.9016,                   !- Vertex 3 Xcoordinate
    2.9889,                   !- Vertex 3 Ycoordinate
    15,                       !- Vertex 3 Zcoordinate
    -1.4394,                  !- Vertex 4 Xcoordinate
    -3.4701,                  !- Vertex 4 Ycoordinate
    15,                       !- Vertex 4 Zcoordinate
    2.3776,                   !- Vertex 5 Xcoordinate
    -7.9301,                  !- Vertex 5 Ycoordinate
    15;                       !- Vertex 5 Zcoordinate

FENESTRATIONSURFACE:DETAILED,
    Block Build0_Alt0 Storey 0 Wall 0001 window,    !- Name
    Window,                   !- Surface Type
    Project External Window,    !- Construction Name
    Block Build0_Alt0 Storey 0 Wall 0001,    !- Building Surface Name
    ,                         !- Outside Boundary Condition Object
    autocalculate,            !- View Factor to Ground
    ,                         !- Frame and Divider Name
    1.0,                      !- Multiplier
    autocalculate,            !- Number of Vertices
    -1.4170455,               !- Vertex 1 Xcoordinate
    23.470992,                !- Vertex 1 Ycoordinate
    9.75,                     !- Vertex 1 Zcoordinate
    -1.4170455,               !- Vertex 2 Xcoordinate
    23.470992,                !- Vertex 2 Ycoordinate
    5.25,                     !- Vertex 2 Zcoordinate
    -6.7027545,               !- Vertex 3 Xcoordinate
    29.648808000000002,       !- Vertex 3 Ycoordinate
    5.25,                     !- Vertex 3 Zcoordinate
    -6.7027545,               !- Vertex 4 Xcoordinate
    29.648808000000002,       !- Vertex 4 Ycoordinate
    9.75;                     !- Vertex 4 Zcoordinate

FENESTRATIONSURFACE:DETAILED,
    Block Build0_Alt0 Storey 0 Wall 0002 window,    !- Name
    Window,                   !- Surface Type
    Project External Window,    !- Construction Name
    Block Build0_Alt0 Storey 0 Wall 0002,    !- Building Surface Name
    ,                         !- Outside Boundary Condition Object
    autocalculate,            !- View Factor to Ground
    ,                         !- Frame and Divider Name
    1.0,                      !- Multiplier
    autocalculate,            !- Number of Vertices
    -6.708376e+00,            !- Vertex 1 Xcoordinate
    29.649345500000003,       !- Vertex 1 Ycoordinate
    9.75,                     !- Vertex 1 Zcoordinate
    -6.708376e+00,            !- Vertex 2 Xcoordinate
    29.649345500000003,       !- Vertex 2 Ycoordinate
    5.25,                     !- Vertex 2 Zcoordinate
    -12.654424,               !- Vertex 3 Xcoordinate
    24.545454499999998,       !- Vertex 3 Ycoordinate
    5.25,                     !- Vertex 3 Zcoordinate
    -12.654424,               !- Vertex 4 Xcoordinate
    24.545454499999998,       !- Vertex 4 Ycoordinate
    9.75;                     !- Vertex 4 Zcoordinate

FENESTRATIONSURFACE:DETAILED,
    Block Build0_Alt0 Storey 0 Wall 0003 window,    !- Name
    Window,                   !- Surface Type
    Project External Window,    !- Construction Name
    Block Build0_Alt0 Storey 0 Wall 0003,    !- Building Surface Name
    ,                         !- Outside Boundary Condition Object
    autocalculate,            !- View Factor to Ground
    ,                         !- Frame and Divider Name
    1.0,                      !- Multiplier
    autocalculate,            !- Number of Vertices
    -12.659261,               !- Vertex 1 Xcoordinate
    24.545071,                !- Vertex 1 Ycoordinate
    9.75,                     !- Vertex 1 Zcoordinate
    -12.659261,               !- Vertex 2 Xcoordinate
    24.545071,                !- Vertex 2 Ycoordinate
    5.25,                     !- Vertex 2 Zcoordinate
    -16.377539,               !- Vertex 3 Xcoordinate
    28.882728999999998,       !- Vertex 3 Ycoordinate
    5.25,                     !- Vertex 3 Zcoordinate
    -16.377539,               !- Vertex 4 Xcoordinate
    28.882728999999998,       !- Vertex 4 Ycoordinate
    9.75;                     !- Vertex 4 Zcoordinate

FENESTRATIONSURFACE:DETAILED,
    Block Build0_Alt0 Storey 0 Wall 0004 window,    !- Name
    Window,                   !- Surface Type
    Project External Window,    !- Construction Name
    Block Build0_Alt0 Storey 0 Wall 0004,    !- Building Surface Name
    ,                         !- Outside Boundary Condition Object
    autocalculate,            !- View Factor to Ground
    ,                         !- Frame and Divider Name
    1.0,                      !- Multiplier
    autocalculate,            !- Number of Vertices
    -16.3831125,              !- Vertex 1 Xcoordinate
    28.881804,                !- Vertex 1 Ycoordinate
    9.75,                     !- Vertex 1 Zcoordinate
    -16.3831125,              !- Vertex 2 Xcoordinate
    28.881804,                !- Vertex 2 Ycoordinate
    5.25,                     !- Vertex 2 Zcoordinate
    -2.380069e+01,            !- Vertex 3 Xcoordinate
    22.695996,                !- Vertex 3 Ycoordinate
    5.25,                     !- Vertex 3 Zcoordinate
    -2.380069e+01,            !- Vertex 4 Xcoordinate
    22.695996,                !- Vertex 4 Ycoordinate
    9.75;                     !- Vertex 4 Zcoordinate

FENESTRATIONSURFACE:DETAILED,
    Block Build0_Alt0 Storey 0 Wall 0005 window,    !- Name
    Window,                   !- Surface Type
    Project External Window,    !- Construction Name
    Block Build0_Alt0 Storey 0 Wall 0005,    !- Building Surface Name
    ,                         !- Outside Boundary Condition Object
    autocalculate,            !- View Factor to Ground
    ,                         !- Frame and Divider Name
    1.0,                      !- Multiplier
    autocalculate,            !- Number of Vertices
    -23.7932175,              !- Vertex 1 Xcoordinate
    22.679818500000003,       !- Vertex 1 Ycoordinate
    9.75,                     !- Vertex 1 Zcoordinate
    -23.7932175,              !- Vertex 2 Xcoordinate
    22.679818500000003,       !- Vertex 2 Ycoordinate
    5.25,                     !- Vertex 2 Zcoordinate
    -1.450582e+00,            !- Vertex 3 Xcoordinate
    -3.4570185,               !- Vertex 3 Ycoordinate
    5.25,                     !- Vertex 3 Zcoordinate
    -1.450582e+00,            !- Vertex 4 Xcoordinate
    -3.4570185,               !- Vertex 4 Ycoordinate
    9.75;                     !- Vertex 4 Zcoordinate

FENESTRATIONSURFACE:DETAILED,
    Block Build0_Alt0 Storey 0 Wall 0006 window,    !- Name
    Window,                   !- Surface Type
    Project External Window,    !- Construction Name
    Block Build0_Alt0 Storey 0 Wall 0006,    !- Building Surface Name
    ,                         !- Outside Boundary Condition Object
    autocalculate,            !- View Factor to Ground
    ,                         !- Frame and Divider Name
    1.0,                      !- Multiplier
    autocalculate,            !- Number of Vertices
    -1.4409195,               !- Vertex 1 Xcoordinate
    -3.471400e+00,            !- Vertex 1 Ycoordinate
    9.75,                     !- Vertex 1 Zcoordinate
    -1.4409195,               !- Vertex 2 Xcoordinate
    -3.471400e+00,            !- Vertex 2 Ycoordinate
    5.25,                     !- Vertex 2 Zcoordinate
    -4.4768805,               !- Vertex 3 Xcoordinate
    -6.0697995,               !- Vertex 3 Ycoordinate
    5.25,                     !- Vertex 3 Zcoordinate
    -4.4768805,               !- Vertex 4 Xcoordinate
    -6.0697995,               !- Vertex 4 Ycoordinate
    9.75;                     !- Vertex 4 Zcoordinate

FENESTRATIONSURFACE:DETAILED,
    Block Build0_Alt0 Storey 0 Wall 0007 window,    !- Name
    Window,                   !- Surface Type
    Project External Window,    !- Construction Name
    Block Build0_Alt0 Storey 0 Wall 0007,    !- Building Surface Name
    ,                         !- Outside Boundary Condition Object
    autocalculate,            !- View Factor to Ground
    ,                         !- Frame and Divider Name
    1.0,                      !- Multiplier
    autocalculate,            !- Number of Vertices
    -4.476492e+00,            !- Vertex 1 Xcoordinate
    -6.0733295,               !- Vertex 1 Ycoordinate
    9.75,                     !- Vertex 1 Zcoordinate
    -4.476492e+00,            !- Vertex 2 Xcoordinate
    -6.0733295,               !- Vertex 2 Ycoordinate
    5.25,                     !- Vertex 2 Zcoordinate
    -6.643080e-01,            !- Vertex 3 Xcoordinate
    -1.052787e+01,            !- Vertex 3 Ycoordinate
    5.25,                     !- Vertex 3 Zcoordinate
    -6.643080e-01,            !- Vertex 4 Xcoordinate
    -1.052787e+01,            !- Vertex 4 Ycoordinate
    9.75;                     !- Vertex 4 Zcoordinate

FENESTRATIONSURFACE:DETAILED,
    Block Build0_Alt0 Storey 0 Wall 0008 window,    !- Name
    Window,                   !- Surface Type
    Project External Window,    !- Construction Name
    Block Build0_Alt0 Storey 0 Wall 0008,    !- Building Surface Name
    ,                         !- Outside Boundary Condition Object
    autocalculate,            !- View Factor to Ground
    ,                         !- Frame and Divider Name
    1.0,                      !- Multiplier
    autocalculate,            !- Number of Vertices
    -6.608800e-01,            !- Vertex 1 Xcoordinate
    -1.052880e+01,            !- Vertex 1 Ycoordinate
    9.75,                     !- Vertex 1 Zcoordinate
    -6.608800e-01,            !- Vertex 2 Xcoordinate
    -1.052880e+01,            !- Vertex 2 Ycoordinate
    5.25,                     !- Vertex 2 Zcoordinate
    2.37608,                  !- Vertex 3 Xcoordinate
    -7.9314,                  !- Vertex 3 Ycoordinate
    5.25,                     !- Vertex 3 Zcoordinate
    2.37608,                  !- Vertex 4 Xcoordinate
    -7.9314,                  !- Vertex 4 Ycoordinate
    9.75;                     !- Vertex 4 Zcoordinate

FENESTRATIONSURFACE:DETAILED,
    Block Build0_Alt0 Storey 0 Wall 0009 window,    !- Name
    Window,                   !- Surface Type
    Project External Window,    !- Construction Name
    Block Build0_Alt0 Storey 0 Wall 0009,    !- Building Surface Name
    ,                         !- Outside Boundary Condition Object
    autocalculate,            !- View Factor to Ground
    ,                         !- Frame and Divider Name
    1.0,                      !- Multiplier
    autocalculate,            !- Number of Vertices
    2.3885275000000004,       !- Vertex 1 Xcoordinate
    -7.930949,                !- Vertex 1 Ycoordinate
    9.75,                     !- Vertex 1 Zcoordinate
    2.3885275000000004,       !- Vertex 2 Xcoordinate
    -7.930949,                !- Vertex 2 Ycoordinate
    5.25,                     !- Vertex 2 Zcoordinate
    24.221672500000004,       !- Vertex 3 Xcoordinate
    -9.627251,                !- Vertex 3 Ycoordinate
    5.25,                     !- Vertex 3 Zcoordinate
    24.221672500000004,       !- Vertex 4 Xcoordinate
    -9.627251,                !- Vertex 4 Ycoordinate
    9.75;                     !- Vertex 4 Zcoordinate

FENESTRATIONSURFACE:DETAILED,
    Block Build0_Alt0 Storey 0 Wall 0010 window,    !- Name
    Window,                   !- Surface Type
    Project External Window,    !- Construction Name
    Block Build0_Alt0 Storey 0 Wall 0010,    !- Building Surface Name
    ,                         !- Outside Boundary Condition Object
    autocalculate,            !- View Factor to Ground
    ,                         !- Frame and Divider Name
    1.0,                      !- Multiplier
    autocalculate,            !- Number of Vertices
    24.234388000000003,       !- Vertex 1 Xcoordinate
    -9.6301895,               !- Vertex 1 Ycoordinate
    9.75,                     !- Vertex 1 Zcoordinate
    24.234388000000003,       !- Vertex 2 Xcoordinate
    -9.6301895,               !- Vertex 2 Ycoordinate
    5.25,                     !- Vertex 2 Zcoordinate
    27.806811999999997,       !- Vertex 3 Xcoordinate
    -13.8050105,              !- Vertex 3 Ycoordinate
    5.25,                     !- Vertex 3 Zcoordinate
    27.806811999999997,       !- Vertex 4 Xcoordinate
    -13.8050105,              !- Vertex 4 Ycoordinate
    9.75;                     !- Vertex 4 Zcoordinate

FENESTRATIONSURFACE:DETAILED,
    Block Build0_Alt0 Storey 0 Wall 0011 window,    !- Name
    Window,                   !- Surface Type
    Project External Window,    !- Construction Name
    Block Build0_Alt0 Storey 0 Wall 0011,    !- Building Surface Name
    ,                         !- Outside Boundary Condition Object
    autocalculate,            !- View Factor to Ground
    ,                         !- Frame and Divider Name
    1.0,                      !- Multiplier
    autocalculate,            !- Number of Vertices
    27.812398499999997,       !- Vertex 1 Xcoordinate
    -13.8038495,              !- Vertex 1 Ycoordinate
    9.75,                     !- Vertex 1 Zcoordinate
    27.812398499999997,       !- Vertex 2 Xcoordinate
    -13.8038495,              !- Vertex 2 Ycoordinate
    5.25,                     !- Vertex 2 Zcoordinate
    35.4018015,               !- Vertex 3 Xcoordinate
    -7.3093505,               !- Vertex 3 Ycoordinate
    5.25,                     !- Vertex 3 Zcoordinate
    35.4018015,               !- Vertex 4 Xcoordinate
    -7.3093505,               !- Vertex 4 Ycoordinate
    9.75;                     !- Vertex 4 Zcoordinate

FENESTRATIONSURFACE:DETAILED,
    Block Build0_Alt0 Storey 0 Wall 0012 window,    !- Name
    Window,                   !- Surface Type
    Project External Window,    !- Construction Name
    Block Build0_Alt0 Storey 0 Wall 0012,    !- Building Surface Name
    ,                         !- Outside Boundary Condition Object
    autocalculate,            !- View Factor to Ground
    ,                         !- Frame and Divider Name
    1.0,                      !- Multiplier
    autocalculate,            !- Number of Vertices
    35.4043005,               !- Vertex 1 Xcoordinate
    -7.3045805,               !- Vertex 1 Ycoordinate
    9.75,                     !- Vertex 1 Zcoordinate
    35.4043005,               !- Vertex 2 Xcoordinate
    -7.3045805,               !- Vertex 2 Ycoordinate
    5.25,                     !- Vertex 2 Zcoordinate
    32.807899500000005,       !- Vertex 3 Xcoordinate
    -4.2686195,               !- Vertex 3 Ycoordinate
    5.25,                     !- Vertex 3 Zcoordinate
    32.807899500000005,       !- Vertex 4 Xcoordinate
    -4.2686195,               !- Vertex 4 Ycoordinate
    9.75;                     !- Vertex 4 Zcoordinate

FENESTRATIONSURFACE:DETAILED,
    Block Build0_Alt0 Storey 0 Wall 0013 window,    !- Name
    Window,                   !- Surface Type
    Project External Window,    !- Construction Name
    Block Build0_Alt0 Storey 0 Wall 0013,    !- Building Surface Name
    ,                         !- Outside Boundary Condition Object
    autocalculate,            !- View Factor to Ground
    ,                         !- Frame and Divider Name
    1.0,                      !- Multiplier
    autocalculate,            !- Number of Vertices
    32.808119000000005,       !- Vertex 1 Xcoordinate
    -4.2657995,               !- Vertex 1 Ycoordinate
    9.75,                     !- Vertex 1 Zcoordinate
    32.808119000000005,       !- Vertex 2 Xcoordinate
    -4.2657995,               !- Vertex 2 Ycoordinate
    5.25,                     !- Vertex 2 Zcoordinate
    35.843081,                !- Vertex 3 Xcoordinate
    -1.667400e+00,            !- Vertex 3 Ycoordinate
    5.25,                     !- Vertex 3 Zcoordinate
    35.843081,                !- Vertex 4 Xcoordinate
    -1.667400e+00,            !- Vertex 4 Ycoordinate
    9.75;                     !- Vertex 4 Zcoordinate

FENESTRATIONSURFACE:DETAILED,
    Block Build0_Alt0 Storey 0 Wall 0014 window,    !- Name
    Window,                   !- Surface Type
    Project External Window,    !- Construction Name
    Block Build0_Alt0 Storey 0 Wall 0014,    !- Building Surface Name
    ,                         !- Outside Boundary Condition Object
    autocalculate,            !- View Factor to Ground
    ,                         !- Frame and Divider Name
    1.0,                      !- Multiplier
    autocalculate,            !- Number of Vertices
    35.8412795,               !- Vertex 1 Xcoordinate
    -1.66222,                 !- Vertex 1 Ycoordinate
    9.75,                     !- Vertex 1 Zcoordinate
    35.8412795,               !- Vertex 2 Xcoordinate
    -1.66222,                 !- Vertex 2 Ycoordinate
    5.25,                     !- Vertex 2 Zcoordinate
    29.206920500000003,       !- Vertex 3 Xcoordinate
    6.090019999999999,        !- Vertex 3 Ycoordinate
    5.25,                     !- Vertex 3 Zcoordinate
    29.206920500000003,       !- Vertex 4 Xcoordinate
    6.090019999999999,        !- Vertex 4 Ycoordinate
    9.75;                     !- Vertex 4 Zcoordinate

FENESTRATIONSURFACE:DETAILED,
    Block Build0_Alt0 Storey 0 Wall 0015 window,    !- Name
    Window,                   !- Surface Type
    Project External Window,    !- Construction Name
    Block Build0_Alt0 Storey 0 Wall 0015,    !- Building Surface Name
    ,                         !- Outside Boundary Condition Object
    autocalculate,            !- View Factor to Ground
    ,                         !- Frame and Divider Name
    1.0,                      !- Multiplier
    autocalculate,            !- Number of Vertices
    29.200959500000003,       !- Vertex 1 Xcoordinate
    6.0916654999999995,       !- Vertex 1 Ycoordinate
    9.75,                     !- Vertex 1 Zcoordinate
    29.200959500000003,       !- Vertex 2 Xcoordinate
    6.0916654999999995,       !- Vertex 2 Ycoordinate
    5.25,                     !- Vertex 2 Zcoordinate
    23.9252405,               !- Vertex 3 Xcoordinate
    1.6271345000000004,       !- Vertex 3 Ycoordinate
    5.25,                     !- Vertex 3 Zcoordinate
    23.9252405,               !- Vertex 4 Xcoordinate
    1.6271345000000004,       !- Vertex 4 Ycoordinate
    9.75;                     !- Vertex 4 Zcoordinate

FENESTRATIONSURFACE:DETAILED,
    Block Build0_Alt0 Storey 0 Wall 0016 window,    !- Name
    Window,                   !- Surface Type
    Project External Window,    !- Construction Name
    Block Build0_Alt0 Storey 0 Wall 0016,    !- Building Surface Name
    ,                         !- Outside Boundary Condition Object
    autocalculate,            !- View Factor to Ground
    ,                         !- Frame and Divider Name
    1.0,                      !- Multiplier
    autocalculate,            !- Number of Vertices
    23.9135895,               !- Vertex 1 Xcoordinate
    1.625582,                 !- Vertex 1 Ycoordinate
    9.75,                     !- Vertex 1 Zcoordinate
    23.9135895,               !- Vertex 2 Xcoordinate
    1.625582,                 !- Vertex 2 Ycoordinate
    5.25,                     !- Vertex 2 Zcoordinate
    5.910610500000001,        !- Vertex 3 Xcoordinate
    2.9882180000000003,       !- Vertex 3 Ycoordinate
    5.25,                     !- Vertex 3 Zcoordinate
    5.910610500000001,        !- Vertex 4 Xcoordinate
    2.9882180000000003,       !- Vertex 4 Ycoordinate
    9.75;                     !- Vertex 4 Zcoordinate

FENESTRATIONSURFACE:DETAILED,
    Block Build0_Alt0 Storey 0 Wall 0017 window,    !- Name
    Window,                   !- Surface Type
    Project External Window,    !- Construction Name
    Block Build0_Alt0 Storey 0 Wall 0017,    !- Building Surface Name
    ,                         !- Outside Boundary Condition Object
    autocalculate,            !- View Factor to Ground
    ,                         !- Frame and Divider Name
    1.0,                      !- Multiplier
    autocalculate,            !- Number of Vertices
    5.8949940000000005,       !- Vertex 1 Xcoordinate
    2.9965975,                !- Vertex 1 Ycoordinate
    9.75,                     !- Vertex 1 Zcoordinate
    5.8949940000000005,       !- Vertex 2 Xcoordinate
    2.9965975,                !- Vertex 2 Ycoordinate
    5.25,                     !- Vertex 2 Zcoordinate
    -7.303794,                !- Vertex 3 Xcoordinate
    18.3762025,               !- Vertex 3 Ycoordinate
    5.25,                     !- Vertex 3 Zcoordinate
    -7.303794,                !- Vertex 4 Xcoordinate
    18.3762025,               !- Vertex 4 Ycoordinate
    9.75;                     !- Vertex 4 Zcoordinate

FENESTRATIONSURFACE:DETAILED,
    Block Build0_Alt0 Storey 0 Wall 0018 window,    !- Name
    Window,                   !- Surface Type
    Project External Window,    !- Construction Name
    Block Build0_Alt0 Storey 0 Wall 0018,    !- Building Surface Name
    ,                         !- Outside Boundary Condition Object
    autocalculate,            !- View Factor to Ground
    ,                         !- Frame and Divider Name
    1.0,                      !- Multiplier
    autocalculate,            !- Number of Vertices
    -7.307452,                !- Vertex 1 Xcoordinate
    18.386442000000002,       !- Vertex 1 Ycoordinate
    9.75,                     !- Vertex 1 Zcoordinate
    -7.307452,                !- Vertex 2 Xcoordinate
    18.386442000000002,       !- Vertex 2 Ycoordinate
    5.25,                     !- Vertex 2 Zcoordinate
    -1.417348,                !- Vertex 3 Xcoordinate
    23.465358000000002,       !- Vertex 3 Ycoordinate
    5.25,                     !- Vertex 3 Zcoordinate
    -1.417348,                !- Vertex 4 Xcoordinate
    23.465358000000002,       !- Vertex 4 Ycoordinate
    9.75;                     !- Vertex 4 Zcoordinate

INTERNALMASS,
    Block Build0_Alt0 Storey -1IntMass,    !- Name
    NonHeatedZoneIntMassObj,    !- Construction Name
    Block Build0_Alt0 Storey -1,    !- Zone or ZoneList Name
    1651;                     !- Surface Area

INTERNALMASS,
    Block Build0_Alt0 Storey 0IntMass,    !- Name
    HeatedZoneIntMassObj,     !- Construction Name
    Block Build0_Alt0 Storey 0,    !- Zone or ZoneList Name
    8254;                     !- Surface Area

SHADING:SITE:DETAILED,
    Shading_V32_1,            !- Name
    ,                         !- Transmittance Schedule Name
    autocalculate,            !- Number of Vertices
    -19.7454,                 !- Vertex 1 Xcoordinate
    60.5969,                  !- Vertex 1 Ycoordinate
    12.4,                     !- Vertex 1 Zcoordinate
    -19.7454,                 !- Vertex 2 Xcoordinate
    60.5969,                  !- Vertex 2 Ycoordinate
    0,                        !- Vertex 2 Zcoordinate
    -15.3644,                 !- Vertex 3 Xcoordinate
    55.5379,                  !- Vertex 3 Ycoordinate
    0,                        !- Vertex 3 Zcoordinate
    -15.3644,                 !- Vertex 4 Xcoordinate
    55.5379,                  !- Vertex 4 Ycoordinate
    12.4;                     !- Vertex 4 Zcoordinate

SHADING:SITE:DETAILED,
    Shading_V33_1,            !- Name
    ,                         !- Transmittance Schedule Name
    autocalculate,            !- Number of Vertices
    -15.3644,                 !- Vertex 1 Xcoordinate
    55.5379,                  !- Vertex 1 Ycoordinate
    12.4,                     !- Vertex 1 Zcoordinate
    -15.3644,                 !- Vertex 2 Xcoordinate
    55.5379,                  !- Vertex 2 Ycoordinate
    0,                        !- Vertex 2 Zcoordinate
    -12.3404,                 !- Vertex 3 Xcoordinate
    58.1579,                  !- Vertex 3 Ycoordinate
    0,                        !- Vertex 3 Zcoordinate
    -12.3404,                 !- Vertex 4 Xcoordinate
    58.1579,                  !- Vertex 4 Ycoordinate
    12.4;                     !- Vertex 4 Zcoordinate

SHADING:SITE:DETAILED,
    Shading_V34_1,            !- Name
    ,                         !- Transmittance Schedule Name
    autocalculate,            !- Number of Vertices
    -12.3404,                 !- Vertex 1 Xcoordinate
    58.1579,                  !- Vertex 1 Ycoordinate
    12.4,                     !- Vertex 1 Zcoordinate
    -12.3404,                 !- Vertex 2 Xcoordinate
    58.1579,                  !- Vertex 2 Ycoordinate
    0,                        !- Vertex 2 Zcoordinate
    -7.7594,                  !- Vertex 3 Xcoordinate
    52.8669,                  !- Vertex 3 Ycoordinate
    0,                        !- Vertex 3 Zcoordinate
    -7.7594,                  !- Vertex 4 Xcoordinate
    52.8669,                  !- Vertex 4 Ycoordinate
    12.4;                     !- Vertex 4 Zcoordinate

SHADING:SITE:DETAILED,
    Shading_V35_1,            !- Name
    ,                         !- Transmittance Schedule Name
    autocalculate,            !- Number of Vertices
    -7.7594,                  !- Vertex 1 Xcoordinate
    52.8669,                  !- Vertex 1 Ycoordinate
    12.4,                     !- Vertex 1 Zcoordinate
    -7.7594,                  !- Vertex 2 Xcoordinate
    52.8669,                  !- Vertex 2 Ycoordinate
    0,                        !- Vertex 2 Zcoordinate
    -0.1514,                  !- Vertex 3 Xcoordinate
    59.4099,                  !- Vertex 3 Ycoordinate
    0,                        !- Vertex 3 Zcoordinate
    -0.1514,                  !- Vertex 4 Xcoordinate
    59.4099,                  !- Vertex 4 Ycoordinate
    12.4;                     !- Vertex 4 Zcoordinate

SHADING:SITE:DETAILED,
    Shading_V160_1,           !- Name
    ,                         !- Transmittance Schedule Name
    autocalculate,            !- Number of Vertices
    -1.9734,                  !- Vertex 1 Xcoordinate
    46.0519,                  !- Vertex 1 Ycoordinate
    12.6,                     !- Vertex 1 Zcoordinate
    -1.9734,                  !- Vertex 2 Xcoordinate
    46.0519,                  !- Vertex 2 Ycoordinate
    0,                        !- Vertex 2 Zcoordinate
    2.5896,                   !- Vertex 3 Xcoordinate
    40.7189,                  !- Vertex 3 Ycoordinate
    0,                        !- Vertex 3 Zcoordinate
    2.5896,                   !- Vertex 4 Xcoordinate
    40.7189,                  !- Vertex 4 Ycoordinate
    12.6;                     !- Vertex 4 Zcoordinate

SHADING:SITE:DETAILED,
    Shading_V162_1,           !- Name
    ,                         !- Transmittance Schedule Name
    autocalculate,            !- Number of Vertices
    -0.4574,                  !- Vertex 1 Xcoordinate
    38.1249,                  !- Vertex 1 Ycoordinate
    12.6,                     !- Vertex 1 Zcoordinate
    -0.4574,                  !- Vertex 2 Xcoordinate
    38.1249,                  !- Vertex 2 Ycoordinate
    0,                        !- Vertex 2 Zcoordinate
    3.8916,                   !- Vertex 3 Xcoordinate
    33.0429,                  !- Vertex 3 Ycoordinate
    0,                        !- Vertex 3 Zcoordinate
    3.8916,                   !- Vertex 4 Xcoordinate
    33.0429,                  !- Vertex 4 Ycoordinate
    12.6;                     !- Vertex 4 Zcoordinate

SHADING:SITE:DETAILED,
    Shading_V164_1,           !- Name
    ,                         !- Transmittance Schedule Name
    autocalculate,            !- Number of Vertices
    6.9626,                   !- Vertex 1 Xcoordinate
    35.6569,                  !- Vertex 1 Ycoordinate
    12.6,                     !- Vertex 1 Zcoordinate
    6.9626,                   !- Vertex 2 Xcoordinate
    35.6569,                  !- Vertex 2 Ycoordinate
    0,                        !- Vertex 2 Zcoordinate
    13.7816,                  !- Vertex 3 Xcoordinate
    27.7819,                  !- Vertex 3 Ycoordinate
    0,                        !- Vertex 3 Zcoordinate
    13.7816,                  !- Vertex 4 Xcoordinate
    27.7819,                  !- Vertex 4 Ycoordinate
    12.6;                     !- Vertex 4 Zcoordinate

SHADING:SITE:DETAILED,
    Shading_V250_1,           !- Name
    ,                         !- Transmittance Schedule Name
    autocalculate,            !- Number of Vertices
    35.8096,                  !- Vertex 1 Xcoordinate
    11.0249,                  !- Vertex 1 Ycoordinate
    16.1,                     !- Vertex 1 Zcoordinate
    35.8096,                  !- Vertex 2 Xcoordinate
    11.0249,                  !- Vertex 2 Ycoordinate
    0,                        !- Vertex 2 Zcoordinate
    41.9276,                  !- Vertex 3 Xcoordinate
    3.9559,                   !- Vertex 3 Ycoordinate
    0,                        !- Vertex 3 Zcoordinate
    41.9276,                  !- Vertex 4 Xcoordinate
    3.9559,                   !- Vertex 4 Ycoordinate
    16.1;                     !- Vertex 4 Zcoordinate

SHADING:SITE:DETAILED,
    Shading_V413_1,           !- Name
    ,                         !- Transmittance Schedule Name
    autocalculate,            !- Number of Vertices
    -46.0524,                 !- Vertex 1 Xcoordinate
    81.2429,                  !- Vertex 1 Ycoordinate
    15.9,                     !- Vertex 1 Zcoordinate
    -46.0524,                 !- Vertex 2 Xcoordinate
    81.2429,                  !- Vertex 2 Ycoordinate
    0,                        !- Vertex 2 Zcoordinate
    -36.6784,                 !- Vertex 3 Xcoordinate
    80.5199,                  !- Vertex 3 Ycoordinate
    0,                        !- Vertex 3 Zcoordinate
    -36.6784,                 !- Vertex 4 Xcoordinate
    80.5199,                  !- Vertex 4 Ycoordinate
    15.9;                     !- Vertex 4 Zcoordinate

SHADING:SITE:DETAILED,
    Shading_V414_1,           !- Name
    ,                         !- Transmittance Schedule Name
    autocalculate,            !- Number of Vertices
    -36.6784,                 !- Vertex 1 Xcoordinate
    80.5199,                  !- Vertex 1 Ycoordinate
    15.9,                     !- Vertex 1 Zcoordinate
    -36.6784,                 !- Vertex 2 Xcoordinate
    80.5199,                  !- Vertex 2 Ycoordinate
    0,                        !- Vertex 2 Zcoordinate
    -35.7044,                 !- Vertex 3 Xcoordinate
    93.2339,                  !- Vertex 3 Ycoordinate
    0,                        !- Vertex 3 Zcoordinate
    -35.7044,                 !- Vertex 4 Xcoordinate
    93.2339,                  !- Vertex 4 Ycoordinate
    15.9;                     !- Vertex 4 Zcoordinate

SHADING:SITE:DETAILED,
    Shading_V468_1,           !- Name
    ,                         !- Transmittance Schedule Name
    autocalculate,            !- Number of Vertices
    38.9636,                  !- Vertex 1 Xcoordinate
    26.7839,                  !- Vertex 1 Ycoordinate
    12,                       !- Vertex 1 Zcoordinate
    38.9636,                  !- Vertex 2 Xcoordinate
    26.7839,                  !- Vertex 2 Ycoordinate
    0,                        !- Vertex 2 Zcoordinate
    32.3686,                  !- Vertex 3 Xcoordinate
    21.1139,                  !- Vertex 3 Ycoordinate
    0,                        !- Vertex 3 Zcoordinate
    32.3686,                  !- Vertex 4 Xcoordinate
    21.1139,                  !- Vertex 4 Ycoordinate
    12;                       !- Vertex 4 Zcoordinate

SHADING:SITE:DETAILED,
    Shading_V469_1,           !- Name
    ,                         !- Transmittance Schedule Name
    autocalculate,            !- Number of Vertices
    32.3686,                  !- Vertex 1 Xcoordinate
    21.1139,                  !- Vertex 1 Ycoordinate
    12,                       !- Vertex 1 Zcoordinate
    32.3686,                  !- Vertex 2 Xcoordinate
    21.1139,                  !- Vertex 2 Ycoordinate
    0,                        !- Vertex 2 Zcoordinate
    38.8404,                  !- Vertex 3 Xcoordinate
    13.6351,                  !- Vertex 3 Ycoordinate
    0,                        !- Vertex 3 Zcoordinate
    38.8404,                  !- Vertex 4 Xcoordinate
    13.6351,                  !- Vertex 4 Ycoordinate
    12;                       !- Vertex 4 Zcoordinate

SHADING:SITE:DETAILED,
    Shading_V493_1,           !- Name
    ,                         !- Transmittance Schedule Name
    autocalculate,            !- Number of Vertices
    60.8246,                  !- Vertex 1 Xcoordinate
    -2.1101,                  !- Vertex 1 Ycoordinate
    16.4,                     !- Vertex 1 Zcoordinate
    60.8246,                  !- Vertex 2 Xcoordinate
    -2.1101,                  !- Vertex 2 Ycoordinate
    0,                        !- Vertex 2 Zcoordinate
    52.9106,                  !- Vertex 3 Xcoordinate
    -8.8591,                  !- Vertex 3 Ycoordinate
    0,                        !- Vertex 3 Zcoordinate
    52.9106,                  !- Vertex 4 Xcoordinate
    -8.8591,                  !- Vertex 4 Ycoordinate
    16.4;                     !- Vertex 4 Zcoordinate

SHADING:SITE:DETAILED,
    Shading_V6_1,             !- Name
    ,                         !- Transmittance Schedule Name
    autocalculate,            !- Number of Vertices
    -54.8254,                 !- Vertex 1 Xcoordinate
    -89.1241,                 !- Vertex 1 Ycoordinate
    15.8,                     !- Vertex 1 Zcoordinate
    -54.8254,                 !- Vertex 2 Xcoordinate
    -89.1241,                 !- Vertex 2 Ycoordinate
    0,                        !- Vertex 2 Zcoordinate
    -60.5984,                 !- Vertex 3 Xcoordinate
    -82.3751,                 !- Vertex 3 Ycoordinate
    0,                        !- Vertex 3 Zcoordinate
    -60.5984,                 !- Vertex 4 Xcoordinate
    -82.3751,                 !- Vertex 4 Ycoordinate
    15.8;                     !- Vertex 4 Zcoordinate

SHADING:SITE:DETAILED,
    Shading_V7_1,             !- Name
    ,                         !- Transmittance Schedule Name
    autocalculate,            !- Number of Vertices
    -60.5984,                 !- Vertex 1 Xcoordinate
    -82.3751,                 !- Vertex 1 Ycoordinate
    15.8,                     !- Vertex 1 Zcoordinate
    -60.5984,                 !- Vertex 2 Xcoordinate
    -82.3751,                 !- Vertex 2 Ycoordinate
    0,                        !- Vertex 2 Zcoordinate
    -59.886,                  !- Vertex 3 Xcoordinate
    -72.8288,                 !- Vertex 3 Ycoordinate
    0,                        !- Vertex 3 Zcoordinate
    -59.886,                  !- Vertex 4 Xcoordinate
    -72.8288,                 !- Vertex 4 Ycoordinate
    15.8;                     !- Vertex 4 Zcoordinate

SHADING:SITE:DETAILED,
    Shading_V8_1,             !- Name
    ,                         !- Transmittance Schedule Name
    autocalculate,            !- Number of Vertices
    -38.09,                   !- Vertex 1 Xcoordinate
    -96.9891,                 !- Vertex 1 Ycoordinate
    16.1,                     !- Vertex 1 Zcoordinate
    -38.09,                   !- Vertex 2 Xcoordinate
    -96.9891,                 !- Vertex 2 Ycoordinate
    0,                        !- Vertex 2 Zcoordinate
    -48.8054,                 !- Vertex 3 Xcoordinate
    -96.1561,                 !- Vertex 3 Ycoordinate
    0,                        !- Vertex 3 Zcoordinate
    -48.8054,                 !- Vertex 4 Xcoordinate
    -96.1561,                 !- Vertex 4 Ycoordinate
    16.1;                     !- Vertex 4 Zcoordinate

SHADING:SITE:DETAILED,
    Shading_V9_1,             !- Name
    ,                         !- Transmittance Schedule Name
    autocalculate,            !- Number of Vertices
    -48.8054,                 !- Vertex 1 Xcoordinate
    -96.1561,                 !- Vertex 1 Ycoordinate
    16.1,                     !- Vertex 1 Zcoordinate
    -48.8054,                 !- Vertex 2 Xcoordinate
    -96.1561,                 !- Vertex 2 Ycoordinate
    0,                        !- Vertex 2 Zcoordinate
    -52.2964,                 !- Vertex 3 Xcoordinate
    -92.0771,                 !- Vertex 3 Ycoordinate
    0,                        !- Vertex 3 Zcoordinate
    -52.2964,                 !- Vertex 4 Xcoordinate
    -92.0771,                 !- Vertex 4 Ycoordinate
    16.1;                     !- Vertex 4 Zcoordinate

SHADING:SITE:DETAILED,
    Shading_V10_1,            !- Name
    ,                         !- Transmittance Schedule Name
    autocalculate,            !- Number of Vertices
    -52.2964,                 !- Vertex 1 Xcoordinate
    -92.0771,                 !- Vertex 1 Ycoordinate
    16.1,                     !- Vertex 1 Zcoordinate
    -52.2964,                 !- Vertex 2 Xcoordinate
    -92.0771,                 !- Vertex 2 Ycoordinate
    0,                        !- Vertex 2 Zcoordinate
    -59.0494,                 !- Vertex 3 Xcoordinate
    -97.9391,                 !- Vertex 3 Ycoordinate
    0,                        !- Vertex 3 Zcoordinate
    -59.0494,                 !- Vertex 4 Xcoordinate
    -97.9391,                 !- Vertex 4 Ycoordinate
    16.1;                     !- Vertex 4 Zcoordinate

SHADING:SITE:DETAILED,
    Shading_V87_1,            !- Name
    ,                         !- Transmittance Schedule Name
    autocalculate,            !- Number of Vertices
    -59.886,                  !- Vertex 1 Xcoordinate
    -72.8288,                 !- Vertex 1 Ycoordinate
    12,                       !- Vertex 1 Zcoordinate
    -59.886,                  !- Vertex 2 Xcoordinate
    -72.8288,                 !- Vertex 2 Ycoordinate
    0,                        !- Vertex 2 Zcoordinate
    -59.1044,                 !- Vertex 3 Xcoordinate
    -62.3551,                 !- Vertex 3 Ycoordinate
    0,                        !- Vertex 3 Zcoordinate
    -59.1044,                 !- Vertex 4 Xcoordinate
    -62.3551,                 !- Vertex 4 Ycoordinate
    12;                       !- Vertex 4 Zcoordinate

SHADING:SITE:DETAILED,
    Shading_V88_1,            !- Name
    ,                         !- Transmittance Schedule Name
    autocalculate,            !- Number of Vertices
    -59.1044,                 !- Vertex 1 Xcoordinate
    -62.3551,                 !- Vertex 1 Ycoordinate
    12,                       !- Vertex 1 Zcoordinate
    -59.1044,                 !- Vertex 2 Xcoordinate
    -62.3551,                 !- Vertex 2 Ycoordinate
    0,                        !- Vertex 2 Zcoordinate
    -55.1164,                 !- Vertex 3 Xcoordinate
    -58.9631,                 !- Vertex 3 Ycoordinate
    0,                        !- Vertex 3 Zcoordinate
    -55.1164,                 !- Vertex 4 Xcoordinate
    -58.9631,                 !- Vertex 4 Ycoordinate
    12;                       !- Vertex 4 Zcoordinate

SHADING:SITE:DETAILED,
    Shading_V89_1,            !- Name
    ,                         !- Transmittance Schedule Name
    autocalculate,            !- Number of Vertices
    -55.1164,                 !- Vertex 1 Xcoordinate
    -58.9631,                 !- Vertex 1 Ycoordinate
    12,                       !- Vertex 1 Zcoordinate
    -55.1164,                 !- Vertex 2 Xcoordinate
    -58.9631,                 !- Vertex 2 Ycoordinate
    0,                        !- Vertex 2 Zcoordinate
    -59.7694,                 !- Vertex 3 Xcoordinate
    -53.5251,                 !- Vertex 3 Ycoordinate
    0,                        !- Vertex 3 Zcoordinate
    -59.7694,                 !- Vertex 4 Xcoordinate
    -53.5251,                 !- Vertex 4 Ycoordinate
    12;                       !- Vertex 4 Zcoordinate

SHADING:SITE:DETAILED,
    Shading_V90_1,            !- Name
    ,                         !- Transmittance Schedule Name
    autocalculate,            !- Number of Vertices
    -59.7694,                 !- Vertex 1 Xcoordinate
    -53.5251,                 !- Vertex 1 Ycoordinate
    12,                       !- Vertex 1 Zcoordinate
    -59.7694,                 !- Vertex 2 Xcoordinate
    -53.5251,                 !- Vertex 2 Ycoordinate
    0,                        !- Vertex 2 Zcoordinate
    -62.7094,                 !- Vertex 3 Xcoordinate
    -56.1281,                 !- Vertex 3 Ycoordinate
    0,                        !- Vertex 3 Zcoordinate
    -62.7094,                 !- Vertex 4 Xcoordinate
    -56.1281,                 !- Vertex 4 Ycoordinate
    12;                       !- Vertex 4 Zcoordinate

SHADING:SITE:DETAILED,
    Shading_V91_1,            !- Name
    ,                         !- Transmittance Schedule Name
    autocalculate,            !- Number of Vertices
    -62.7094,                 !- Vertex 1 Xcoordinate
    -56.1281,                 !- Vertex 1 Ycoordinate
    12,                       !- Vertex 1 Zcoordinate
    -62.7094,                 !- Vertex 2 Xcoordinate
    -56.1281,                 !- Vertex 2 Ycoordinate
    0,                        !- Vertex 2 Zcoordinate
    -66.7821,                 !- Vertex 3 Xcoordinate
    -51.4073,                 !- Vertex 3 Ycoordinate
    0,                        !- Vertex 3 Zcoordinate
    -66.7821,                 !- Vertex 4 Xcoordinate
    -51.4073,                 !- Vertex 4 Ycoordinate
    12;                       !- Vertex 4 Zcoordinate

SHADING:SITE:DETAILED,
    Shading_V139_1,           !- Name
    ,                         !- Transmittance Schedule Name
    autocalculate,            !- Number of Vertices
    13.1766,                  !- Vertex 1 Xcoordinate
    -85.9361,                 !- Vertex 1 Ycoordinate
    15.5,                     !- Vertex 1 Zcoordinate
    13.1766,                  !- Vertex 2 Xcoordinate
    -85.9361,                 !- Vertex 2 Ycoordinate
    0,                        !- Vertex 2 Zcoordinate
    5.6496,                   !- Vertex 3 Xcoordinate
    -92.5031,                 !- Vertex 3 Ycoordinate
    0,                        !- Vertex 3 Zcoordinate
    5.6496,                   !- Vertex 4 Xcoordinate
    -92.5031,                 !- Vertex 4 Ycoordinate
    15.5;                     !- Vertex 4 Zcoordinate

SHADING:SITE:DETAILED,
    Shading_V152_1,           !- Name
    ,                         !- Transmittance Schedule Name
    autocalculate,            !- Number of Vertices
    49.8486,                  !- Vertex 1 Xcoordinate
    -80.3221,                 !- Vertex 1 Ycoordinate
    15.5,                     !- Vertex 1 Zcoordinate
    49.8486,                  !- Vertex 2 Xcoordinate
    -80.3221,                 !- Vertex 2 Ycoordinate
    0,                        !- Vertex 2 Zcoordinate
    37.0856,                  !- Vertex 3 Xcoordinate
    -65.4061,                 !- Vertex 3 Ycoordinate
    0,                        !- Vertex 3 Zcoordinate
    37.0856,                  !- Vertex 4 Xcoordinate
    -65.4061,                 !- Vertex 4 Ycoordinate
    15.5;                     !- Vertex 4 Zcoordinate

SHADING:SITE:DETAILED,
    Shading_V153_1,           !- Name
    ,                         !- Transmittance Schedule Name
    autocalculate,            !- Number of Vertices
    37.0856,                  !- Vertex 1 Xcoordinate
    -65.4061,                 !- Vertex 1 Ycoordinate
    15.5,                     !- Vertex 1 Zcoordinate
    37.0856,                  !- Vertex 2 Xcoordinate
    -65.4061,                 !- Vertex 2 Ycoordinate
    0,                        !- Vertex 2 Zcoordinate
    27.7666,                  !- Vertex 3 Xcoordinate
    -73.3631,                 !- Vertex 3 Ycoordinate
    0,                        !- Vertex 3 Zcoordinate
    27.7666,                  !- Vertex 4 Xcoordinate
    -73.3631,                 !- Vertex 4 Ycoordinate
    15.5;                     !- Vertex 4 Zcoordinate

SHADING:SITE:DETAILED,
    Shading_V180_1,           !- Name
    ,                         !- Transmittance Schedule Name
    autocalculate,            !- Number of Vertices
    1.2356,                   !- Vertex 1 Xcoordinate
    -118.2131,                !- Vertex 1 Ycoordinate
    19.2,                     !- Vertex 1 Zcoordinate
    1.2356,                   !- Vertex 2 Xcoordinate
    -118.2131,                !- Vertex 2 Ycoordinate
    0,                        !- Vertex 2 Zcoordinate
    -5.3424,                  !- Vertex 3 Xcoordinate
    -110.5581,                !- Vertex 3 Ycoordinate
    0,                        !- Vertex 3 Zcoordinate
    -5.3424,                  !- Vertex 4 Xcoordinate
    -110.5581,                !- Vertex 4 Ycoordinate
    19.2;                     !- Vertex 4 Zcoordinate

SHADING:SITE:DETAILED,
    Shading_V181_1,           !- Name
    ,                         !- Transmittance Schedule Name
    autocalculate,            !- Number of Vertices
    -5.3424,                  !- Vertex 1 Xcoordinate
    -110.5581,                !- Vertex 1 Ycoordinate
    19.2,                     !- Vertex 1 Zcoordinate
    -5.3424,                  !- Vertex 2 Xcoordinate
    -110.5581,                !- Vertex 2 Ycoordinate
    0,                        !- Vertex 2 Zcoordinate
    -11.4014,                 !- Vertex 3 Xcoordinate
    -115.7831,                !- Vertex 3 Ycoordinate
    0,                        !- Vertex 3 Zcoordinate
    -11.4014,                 !- Vertex 4 Xcoordinate
    -115.7831,                !- Vertex 4 Ycoordinate
    19.2;                     !- Vertex 4 Zcoordinate

SHADING:SITE:DETAILED,
    Shading_V182_1,           !- Name
    ,                         !- Transmittance Schedule Name
    autocalculate,            !- Number of Vertices
    -11.4014,                 !- Vertex 1 Xcoordinate
    -115.7831,                !- Vertex 1 Ycoordinate
    19.2,                     !- Vertex 1 Zcoordinate
    -11.4014,                 !- Vertex 2 Xcoordinate
    -115.7831,                !- Vertex 2 Ycoordinate
    0,                        !- Vertex 2 Zcoordinate
    -17.5242,                 !- Vertex 3 Xcoordinate
    -108.6587,                !- Vertex 3 Ycoordinate
    0,                        !- Vertex 3 Zcoordinate
    -17.5242,                 !- Vertex 4 Xcoordinate
    -108.6587,                !- Vertex 4 Ycoordinate
    19.2;                     !- Vertex 4 Zcoordinate

SHADING:SITE:DETAILED,
    Shading_V349_1,           !- Name
    ,                         !- Transmittance Schedule Name
    autocalculate,            !- Number of Vertices
    -17.5242,                 !- Vertex 1 Xcoordinate
    -108.6587,                !- Vertex 1 Ycoordinate
    12.2,                     !- Vertex 1 Zcoordinate
    -17.5242,                 !- Vertex 2 Xcoordinate
    -108.6587,                !- Vertex 2 Ycoordinate
    0,                        !- Vertex 2 Zcoordinate
    -21.2504,                 !- Vertex 3 Xcoordinate
    -104.3231,                !- Vertex 3 Ycoordinate
    0,                        !- Vertex 3 Zcoordinate
    -21.2504,                 !- Vertex 4 Xcoordinate
    -104.3231,                !- Vertex 4 Ycoordinate
    12.2;                     !- Vertex 4 Zcoordinate

SHADING:SITE:DETAILED,
    Shading_V351_1,           !- Name
    ,                         !- Transmittance Schedule Name
    autocalculate,            !- Number of Vertices
    -18.3204,                 !- Vertex 1 Xcoordinate
    -101.8061,                !- Vertex 1 Ycoordinate
    12.2,                     !- Vertex 1 Zcoordinate
    -18.3204,                 !- Vertex 2 Xcoordinate
    -101.8061,                !- Vertex 2 Ycoordinate
    0,                        !- Vertex 2 Zcoordinate
    -24.6954,                 !- Vertex 3 Xcoordinate
    -94.2791,                 !- Vertex 3 Ycoordinate
    0,                        !- Vertex 3 Zcoordinate
    -24.6954,                 !- Vertex 4 Xcoordinate
    -94.2791,                 !- Vertex 4 Ycoordinate
    12.2;                     !- Vertex 4 Zcoordinate

SHADING:SITE:DETAILED,
    Shading_V352_1,           !- Name
    ,                         !- Transmittance Schedule Name
    autocalculate,            !- Number of Vertices
    -24.6954,                 !- Vertex 1 Xcoordinate
    -94.2791,                 !- Vertex 1 Ycoordinate
    12.2,                     !- Vertex 1 Zcoordinate
    -24.6954,                 !- Vertex 2 Xcoordinate
    -94.2791,                 !- Vertex 2 Ycoordinate
    0,                        !- Vertex 2 Zcoordinate
    -28.7134,                 !- Vertex 3 Xcoordinate
    -97.7181,                 !- Vertex 3 Ycoordinate
    0,                        !- Vertex 3 Zcoordinate
    -28.7134,                 !- Vertex 4 Xcoordinate
    -97.7181,                 !- Vertex 4 Ycoordinate
    12.2;                     !- Vertex 4 Zcoordinate

SHADING:SITE:DETAILED,
    Shading_V353_1,           !- Name
    ,                         !- Transmittance Schedule Name
    autocalculate,            !- Number of Vertices
    -28.7134,                 !- Vertex 1 Xcoordinate
    -97.7181,                 !- Vertex 1 Ycoordinate
    12.2,                     !- Vertex 1 Zcoordinate
    -28.7134,                 !- Vertex 2 Xcoordinate
    -97.7181,                 !- Vertex 2 Ycoordinate
    0,                        !- Vertex 2 Zcoordinate
    -38.09,                   !- Vertex 3 Xcoordinate
    -96.9891,                 !- Vertex 3 Ycoordinate
    0,                        !- Vertex 3 Zcoordinate
    -38.09,                   !- Vertex 4 Xcoordinate
    -96.9891,                 !- Vertex 4 Ycoordinate
    12.2;                     !- Vertex 4 Zcoordinate

SHADING:SITE:DETAILED,
    Shading_V355_1,           !- Name
    ,                         !- Transmittance Schedule Name
    autocalculate,            !- Number of Vertices
    -31.3304,                 !- Vertex 1 Xcoordinate
    -23.7851,                 !- Vertex 1 Ycoordinate
    3.7,                      !- Vertex 1 Zcoordinate
    -31.3304,                 !- Vertex 2 Xcoordinate
    -23.7851,                 !- Vertex 2 Ycoordinate
    0,                        !- Vertex 2 Zcoordinate
    -26.9204,                 !- Vertex 3 Xcoordinate
    -20.0111,                 !- Vertex 3 Ycoordinate
    0,                        !- Vertex 3 Zcoordinate
    -26.9204,                 !- Vertex 4 Xcoordinate
    -20.0111,                 !- Vertex 4 Ycoordinate
    3.7;                      !- Vertex 4 Zcoordinate

SHADING:SITE:DETAILED,
    Shading_V356_1,           !- Name
    ,                         !- Transmittance Schedule Name
    autocalculate,            !- Number of Vertices
    -26.9204,                 !- Vertex 1 Xcoordinate
    -20.0111,                 !- Vertex 1 Ycoordinate
    3.7,                      !- Vertex 1 Zcoordinate
    -26.9204,                 !- Vertex 2 Xcoordinate
    -20.0111,                 !- Vertex 2 Ycoordinate
    0,                        !- Vertex 2 Zcoordinate
    -26.3375,                 !- Vertex 3 Xcoordinate
    -11.8832,                 !- Vertex 3 Ycoordinate
    0,                        !- Vertex 3 Zcoordinate
    -26.3375,                 !- Vertex 4 Xcoordinate
    -11.8832,                 !- Vertex 4 Ycoordinate
    3.7;                      !- Vertex 4 Zcoordinate

SHADING:SITE:DETAILED,
    Shading_V372_1,           !- Name
    ,                         !- Transmittance Schedule Name
    autocalculate,            !- Number of Vertices
    32.3596,                  !- Vertex 1 Xcoordinate
    -19.1251,                 !- Vertex 1 Ycoordinate
    14.2,                     !- Vertex 1 Zcoordinate
    32.3596,                  !- Vertex 2 Xcoordinate
    -19.1251,                 !- Vertex 2 Ycoordinate
    0,                        !- Vertex 2 Zcoordinate
    39.6126,                  !- Vertex 3 Xcoordinate
    -27.6021,                 !- Vertex 3 Ycoordinate
    0,                        !- Vertex 3 Zcoordinate
    39.6126,                  !- Vertex 4 Xcoordinate
    -27.6021,                 !- Vertex 4 Ycoordinate
    14.2;                     !- Vertex 4 Zcoordinate

SHADING:SITE:DETAILED,
    Shading_V373_1,           !- Name
    ,                         !- Transmittance Schedule Name
    autocalculate,            !- Number of Vertices
    39.6126,                  !- Vertex 1 Xcoordinate
    -27.6021,                 !- Vertex 1 Ycoordinate
    14.2,                     !- Vertex 1 Zcoordinate
    39.6126,                  !- Vertex 2 Xcoordinate
    -27.6021,                 !- Vertex 2 Ycoordinate
    0,                        !- Vertex 2 Zcoordinate
    38.5686,                  !- Vertex 3 Xcoordinate
    -41.4541,                 !- Vertex 3 Ycoordinate
    0,                        !- Vertex 3 Zcoordinate
    38.5686,                  !- Vertex 4 Xcoordinate
    -41.4541,                 !- Vertex 4 Ycoordinate
    14.2;                     !- Vertex 4 Zcoordinate

SHADING:SITE:DETAILED,
    Shading_V374_1,           !- Name
    ,                         !- Transmittance Schedule Name
    autocalculate,            !- Number of Vertices
    38.5686,                  !- Vertex 1 Xcoordinate
    -41.4541,                 !- Vertex 1 Ycoordinate
    14.2,                     !- Vertex 1 Zcoordinate
    38.5686,                  !- Vertex 2 Xcoordinate
    -41.4541,                 !- Vertex 2 Ycoordinate
    0,                        !- Vertex 2 Zcoordinate
    32.0786,                  !- Vertex 3 Xcoordinate
    -47.0341,                 !- Vertex 3 Ycoordinate
    0,                        !- Vertex 3 Zcoordinate
    32.0786,                  !- Vertex 4 Xcoordinate
    -47.0341,                 !- Vertex 4 Ycoordinate
    14.2;                     !- Vertex 4 Zcoordinate

SHADING:SITE:DETAILED,
    Shading_V433_1,           !- Name
    ,                         !- Transmittance Schedule Name
    autocalculate,            !- Number of Vertices
    27.7666,                  !- Vertex 1 Xcoordinate
    -73.3631,                 !- Vertex 1 Ycoordinate
    3.6,                      !- Vertex 1 Zcoordinate
    27.7666,                  !- Vertex 2 Xcoordinate
    -73.3631,                 !- Vertex 2 Ycoordinate
    0,                        !- Vertex 2 Zcoordinate
    17.2376,                  !- Vertex 3 Xcoordinate
    -72.7281,                 !- Vertex 3 Ycoordinate
    0,                        !- Vertex 3 Zcoordinate
    17.2376,                  !- Vertex 4 Xcoordinate
    -72.7281,                 !- Vertex 4 Ycoordinate
    3.6;                      !- Vertex 4 Zcoordinate

SHADING:SITE:DETAILED,
    Shading_V434_1,           !- Name
    ,                         !- Transmittance Schedule Name
    autocalculate,            !- Number of Vertices
    17.2376,                  !- Vertex 1 Xcoordinate
    -72.7281,                 !- Vertex 1 Ycoordinate
    3.6,                      !- Vertex 1 Zcoordinate
    17.2376,                  !- Vertex 2 Xcoordinate
    -72.7281,                 !- Vertex 2 Ycoordinate
    0,                        !- Vertex 2 Zcoordinate
    14.1166,                  !- Vertex 3 Xcoordinate
    -75.3501,                 !- Vertex 3 Ycoordinate
    0,                        !- Vertex 3 Zcoordinate
    14.1166,                  !- Vertex 4 Xcoordinate
    -75.3501,                 !- Vertex 4 Ycoordinate
    3.6;                      !- Vertex 4 Zcoordinate

SHADING:SITE:DETAILED,
    Shading_V435_1,           !- Name
    ,                         !- Transmittance Schedule Name
    autocalculate,            !- Number of Vertices
    14.1166,                  !- Vertex 1 Xcoordinate
    -75.3501,                 !- Vertex 1 Ycoordinate
    3.6,                      !- Vertex 1 Zcoordinate
    14.1166,                  !- Vertex 2 Xcoordinate
    -75.3501,                 !- Vertex 2 Ycoordinate
    0,                        !- Vertex 2 Zcoordinate
    13.1766,                  !- Vertex 3 Xcoordinate
    -85.9361,                 !- Vertex 3 Ycoordinate
    0,                        !- Vertex 3 Zcoordinate
    13.1766,                  !- Vertex 4 Xcoordinate
    -85.9361,                 !- Vertex 4 Ycoordinate
    3.6;                      !- Vertex 4 Zcoordinate

SHADING:SITE:DETAILED,
    Shading_V506_1,           !- Name
    ,                         !- Transmittance Schedule Name
    autocalculate,            !- Number of Vertices
    -66.7821,                 !- Vertex 1 Xcoordinate
    -51.4073,                 !- Vertex 1 Ycoordinate
    19,                       !- Vertex 1 Zcoordinate
    -66.7821,                 !- Vertex 2 Xcoordinate
    -51.4073,                 !- Vertex 2 Ycoordinate
    0,                        !- Vertex 2 Zcoordinate
    -73.3244,                 !- Vertex 3 Xcoordinate
    -43.8241,                 !- Vertex 3 Ycoordinate
    0,                        !- Vertex 3 Zcoordinate
    -73.3244,                 !- Vertex 4 Xcoordinate
    -43.8241,                 !- Vertex 4 Ycoordinate
    19;                       !- Vertex 4 Zcoordinate

SHADING:SITE:DETAILED,
    Shading_V507_1,           !- Name
    ,                         !- Transmittance Schedule Name
    autocalculate,            !- Number of Vertices
    -73.3244,                 !- Vertex 1 Xcoordinate
    -43.8241,                 !- Vertex 1 Ycoordinate
    19,                       !- Vertex 1 Zcoordinate
    -73.3244,                 !- Vertex 2 Xcoordinate
    -43.8241,                 !- Vertex 2 Ycoordinate
    0,                        !- Vertex 2 Zcoordinate
    -67.2914,                 !- Vertex 3 Xcoordinate
    -38.5851,                 !- Vertex 3 Ycoordinate
    0,                        !- Vertex 3 Zcoordinate
    -67.2914,                 !- Vertex 4 Xcoordinate
    -38.5851,                 !- Vertex 4 Ycoordinate
    19;                       !- Vertex 4 Zcoordinate

SHADING:SITE:DETAILED,
    Shading_V171_1,           !- Name
    ,                         !- Transmittance Schedule Name
    autocalculate,            !- Number of Vertices
    -75.2304,                 !- Vertex 1 Xcoordinate
    -119.4171,                !- Vertex 1 Ycoordinate
    9,                        !- Vertex 1 Zcoordinate
    -75.2304,                 !- Vertex 2 Xcoordinate
    -119.4171,                !- Vertex 2 Ycoordinate
    0,                        !- Vertex 2 Zcoordinate
    -84.2914,                 !- Vertex 3 Xcoordinate
    -104.9741,                !- Vertex 3 Ycoordinate
    0,                        !- Vertex 3 Zcoordinate
    -84.2914,                 !- Vertex 4 Xcoordinate
    -104.9741,                !- Vertex 4 Ycoordinate
    9;                        !- Vertex 4 Zcoordinate

SHADING:SITE:DETAILED,
    Shading_V369_1,           !- Name
    ,                         !- Transmittance Schedule Name
    autocalculate,            !- Number of Vertices
    48.2566,                  !- Vertex 1 Xcoordinate
    -10.7861,                 !- Vertex 1 Ycoordinate
    14.2,                     !- Vertex 1 Zcoordinate
    48.2566,                  !- Vertex 2 Xcoordinate
    -10.7861,                 !- Vertex 2 Ycoordinate
    0,                        !- Vertex 2 Zcoordinate
    42.5576,                  !- Vertex 3 Xcoordinate
    -15.6641,                 !- Vertex 3 Ycoordinate
    0,                        !- Vertex 3 Zcoordinate
    42.5576,                  !- Vertex 4 Xcoordinate
    -15.6641,                 !- Vertex 4 Ycoordinate
    14.2;                     !- Vertex 4 Zcoordinate

SHADING:SITE:DETAILED,
    Shading_V371_1,           !- Name
    ,                         !- Transmittance Schedule Name
    autocalculate,            !- Number of Vertices
    39.9576,                  !- Vertex 1 Xcoordinate
    -12.6241,                 !- Vertex 1 Ycoordinate
    14.2,                     !- Vertex 1 Zcoordinate
    39.9576,                  !- Vertex 2 Xcoordinate
    -12.6241,                 !- Vertex 2 Ycoordinate
    0,                        !- Vertex 2 Zcoordinate
    32.3596,                  !- Vertex 3 Xcoordinate
    -19.1251,                 !- Vertex 3 Ycoordinate
    0,                        !- Vertex 3 Zcoordinate
    32.3596,                  !- Vertex 4 Xcoordinate
    -19.1251,                 !- Vertex 4 Ycoordinate
    14.2;                     !- Vertex 4 Zcoordinate

SHADING:SITE:DETAILED,
    Shading_V487_1,           !- Name
    ,                         !- Transmittance Schedule Name
    autocalculate,            !- Number of Vertices
    78.6236,                  !- Vertex 1 Xcoordinate
    18.4909,                  !- Vertex 1 Ycoordinate
    16.4,                     !- Vertex 1 Zcoordinate
    78.6236,                  !- Vertex 2 Xcoordinate
    18.4909,                  !- Vertex 2 Ycoordinate
    0,                        !- Vertex 2 Zcoordinate
    73.5156,                  !- Vertex 3 Xcoordinate
    14.1199,                  !- Vertex 3 Ycoordinate
    0,                        !- Vertex 3 Zcoordinate
    73.5156,                  !- Vertex 4 Xcoordinate
    14.1199,                  !- Vertex 4 Ycoordinate
    16.4;                     !- Vertex 4 Zcoordinate

SHADING:SITE:DETAILED,
    Shading_V488_1,           !- Name
    ,                         !- Transmittance Schedule Name
    autocalculate,            !- Number of Vertices
    73.5156,                  !- Vertex 1 Xcoordinate
    14.1199,                  !- Vertex 1 Ycoordinate
    16.4,                     !- Vertex 1 Zcoordinate
    73.5156,                  !- Vertex 2 Xcoordinate
    14.1199,                  !- Vertex 2 Ycoordinate
    0,                        !- Vertex 2 Zcoordinate
    76.1296,                  !- Vertex 3 Xcoordinate
    11.0909,                  !- Vertex 3 Ycoordinate
    0,                        !- Vertex 3 Zcoordinate
    76.1296,                  !- Vertex 4 Xcoordinate
    11.0909,                  !- Vertex 4 Ycoordinate
    16.4;                     !- Vertex 4 Zcoordinate

SHADING:SITE:DETAILED,
    Shading_V491_1,           !- Name
    ,                         !- Transmittance Schedule Name
    autocalculate,            !- Number of Vertices
    63.3106,                  !- Vertex 1 Xcoordinate
    5.2669,                   !- Vertex 1 Ycoordinate
    16.4,                     !- Vertex 1 Zcoordinate
    63.3106,                  !- Vertex 2 Xcoordinate
    5.2669,                   !- Vertex 2 Ycoordinate
    0,                        !- Vertex 2 Zcoordinate
    58.2236,                  !- Vertex 3 Xcoordinate
    0.9289,                   !- Vertex 3 Ycoordinate
    0,                        !- Vertex 3 Zcoordinate
    58.2236,                  !- Vertex 4 Xcoordinate
    0.9289,                   !- Vertex 4 Ycoordinate
    16.4;                     !- Vertex 4 Zcoordinate

SHADING:SITE:DETAILED,
    Shading_V492_1,           !- Name
    ,                         !- Transmittance Schedule Name
    autocalculate,            !- Number of Vertices
    58.2236,                  !- Vertex 1 Xcoordinate
    0.9289,                   !- Vertex 1 Ycoordinate
    16.4,                     !- Vertex 1 Zcoordinate
    58.2236,                  !- Vertex 2 Xcoordinate
    0.9289,                   !- Vertex 2 Ycoordinate
    0,                        !- Vertex 2 Zcoordinate
    60.8246,                  !- Vertex 3 Xcoordinate
    -2.1101,                  !- Vertex 3 Ycoordinate
    0,                        !- Vertex 3 Zcoordinate
    60.8246,                  !- Vertex 4 Xcoordinate
    -2.1101,                  !- Vertex 4 Ycoordinate
    16.4;                     !- Vertex 4 Zcoordinate

SHADING:SITE:DETAILED,
    Shading_V163_1,           !- Name
    ,                         !- Transmittance Schedule Name
    autocalculate,            !- Number of Vertices
    3.8916,                   !- Vertex 1 Xcoordinate
    33.0429,                  !- Vertex 1 Ycoordinate
    12.6,                     !- Vertex 1 Zcoordinate
    3.8916,                   !- Vertex 2 Xcoordinate
    33.0429,                  !- Vertex 2 Ycoordinate
    0,                        !- Vertex 2 Zcoordinate
    6.9626,                   !- Vertex 3 Xcoordinate
    35.6569,                  !- Vertex 3 Ycoordinate
    0,                        !- Vertex 3 Zcoordinate
    6.9626,                   !- Vertex 4 Xcoordinate
    35.6569,                  !- Vertex 4 Ycoordinate
    12.6;                     !- Vertex 4 Zcoordinate

SHADING:SITE:DETAILED,
    Shading_V165_1,           !- Name
    ,                         !- Transmittance Schedule Name
    autocalculate,            !- Number of Vertices
    13.7816,                  !- Vertex 1 Xcoordinate
    27.7819,                  !- Vertex 1 Ycoordinate
    12.6,                     !- Vertex 1 Zcoordinate
    13.7816,                  !- Vertex 2 Xcoordinate
    27.7819,                  !- Vertex 2 Ycoordinate
    0,                        !- Vertex 2 Zcoordinate
    21.4096,                  !- Vertex 3 Xcoordinate
    34.3639,                  !- Vertex 3 Ycoordinate
    0,                        !- Vertex 3 Zcoordinate
    21.4096,                  !- Vertex 4 Xcoordinate
    34.3639,                  !- Vertex 4 Ycoordinate
    12.6;                     !- Vertex 4 Zcoordinate

SHADING:SITE:DETAILED,
    Shading_V329_1,           !- Name
    ,                         !- Transmittance Schedule Name
    autocalculate,            !- Number of Vertices
    24.0661,                  !- Vertex 1 Xcoordinate
    41.9392,                  !- Vertex 1 Ycoordinate
    24.1,                     !- Vertex 1 Zcoordinate
    24.0661,                  !- Vertex 2 Xcoordinate
    41.9392,                  !- Vertex 2 Ycoordinate
    0,                        !- Vertex 2 Zcoordinate
    31.4646,                  !- Vertex 3 Xcoordinate
    48.3229,                  !- Vertex 3 Ycoordinate
    0,                        !- Vertex 3 Zcoordinate
    31.4646,                  !- Vertex 4 Xcoordinate
    48.3229,                  !- Vertex 4 Ycoordinate
    24.1;                     !- Vertex 4 Zcoordinate

SHADING:SITE:DETAILED,
    Shading_V330_1,           !- Name
    ,                         !- Transmittance Schedule Name
    autocalculate,            !- Number of Vertices
    31.4646,                  !- Vertex 1 Xcoordinate
    48.3229,                  !- Vertex 1 Ycoordinate
    24.1,                     !- Vertex 1 Zcoordinate
    31.4646,                  !- Vertex 2 Xcoordinate
    48.3229,                  !- Vertex 2 Ycoordinate
    0,                        !- Vertex 2 Zcoordinate
    37.6216,                  !- Vertex 3 Xcoordinate
    41.1909,                  !- Vertex 3 Ycoordinate
    0,                        !- Vertex 3 Zcoordinate
    37.6216,                  !- Vertex 4 Xcoordinate
    41.1909,                  !- Vertex 4 Ycoordinate
    24.1;                     !- Vertex 4 Zcoordinate

SHADING:SITE:DETAILED,
    Shading_V331_1,           !- Name
    ,                         !- Transmittance Schedule Name
    autocalculate,            !- Number of Vertices
    37.6216,                  !- Vertex 1 Xcoordinate
    41.1909,                  !- Vertex 1 Ycoordinate
    24.1,                     !- Vertex 1 Zcoordinate
    37.6216,                  !- Vertex 2 Xcoordinate
    41.1909,                  !- Vertex 2 Ycoordinate
    0,                        !- Vertex 2 Zcoordinate
    45.2596,                  !- Vertex 3 Xcoordinate
    47.7689,                  !- Vertex 3 Ycoordinate
    0,                        !- Vertex 3 Zcoordinate
    45.2596,                  !- Vertex 4 Xcoordinate
    47.7689,                  !- Vertex 4 Ycoordinate
    24.1;                     !- Vertex 4 Zcoordinate

SHADING:SITE:DETAILED,
    Shading_V77_1,            !- Name
    ,                         !- Transmittance Schedule Name
    autocalculate,            !- Number of Vertices
    -40.4624,                 !- Vertex 1 Xcoordinate
    28.7879,                  !- Vertex 1 Ycoordinate
    15,                       !- Vertex 1 Zcoordinate
    -40.4624,                 !- Vertex 2 Xcoordinate
    28.7879,                  !- Vertex 2 Ycoordinate
    0,                        !- Vertex 2 Zcoordinate
    -47.0224,                 !- Vertex 3 Xcoordinate
    36.4539,                  !- Vertex 3 Ycoordinate
    0,                        !- Vertex 3 Zcoordinate
    -47.0224,                 !- Vertex 4 Xcoordinate
    36.4539,                  !- Vertex 4 Ycoordinate
    15;                       !- Vertex 4 Zcoordinate

SHADING:SITE:DETAILED,
    Shading_V83_1,            !- Name
    ,                         !- Transmittance Schedule Name
    autocalculate,            !- Number of Vertices
    -86.8474,                 !- Vertex 1 Xcoordinate
    -150.9421,                !- Vertex 1 Ycoordinate
    8,                        !- Vertex 1 Zcoordinate
    -86.8474,                 !- Vertex 2 Xcoordinate
    -150.9421,                !- Vertex 2 Ycoordinate
    0,                        !- Vertex 2 Zcoordinate
    -93.6434,                 !- Vertex 3 Xcoordinate
    -141.6091,                !- Vertex 3 Ycoordinate
    0,                        !- Vertex 3 Zcoordinate
    -93.6434,                 !- Vertex 4 Xcoordinate
    -141.6091,                !- Vertex 4 Ycoordinate
    8;                        !- Vertex 4 Zcoordinate

SHADING:SITE:DETAILED,
    Shading_V94_1,            !- Name
    ,                         !- Transmittance Schedule Name
    autocalculate,            !- Number of Vertices
    -26.3375,                 !- Vertex 1 Xcoordinate
    -11.8832,                 !- Vertex 1 Ycoordinate
    15.5,                     !- Vertex 1 Zcoordinate
    -26.3375,                 !- Vertex 2 Xcoordinate
    -11.8832,                 !- Vertex 2 Ycoordinate
    0,                        !- Vertex 2 Zcoordinate
    -14.4264,                 !- Vertex 3 Xcoordinate
    -1.6371,                  !- Vertex 3 Ycoordinate
    0,                        !- Vertex 3 Zcoordinate
    -14.4264,                 !- Vertex 4 Xcoordinate
    -1.6371,                  !- Vertex 4 Ycoordinate
    15.5;                     !- Vertex 4 Zcoordinate

SHADING:SITE:DETAILED,
    Shading_V95_1,            !- Name
    ,                         !- Transmittance Schedule Name
    autocalculate,            !- Number of Vertices
    -14.4264,                 !- Vertex 1 Xcoordinate
    -1.6371,                  !- Vertex 1 Ycoordinate
    15.5,                     !- Vertex 1 Zcoordinate
    -14.4264,                 !- Vertex 2 Xcoordinate
    -1.6371,                  !- Vertex 2 Ycoordinate
    0,                        !- Vertex 2 Zcoordinate
    -27.3114,                 !- Vertex 3 Xcoordinate
    13.4219,                  !- Vertex 3 Ycoordinate
    0,                        !- Vertex 3 Zcoordinate
    -27.3114,                 !- Vertex 4 Xcoordinate
    13.4219,                  !- Vertex 4 Ycoordinate
    15.5;                     !- Vertex 4 Zcoordinate

SHADING:SITE:DETAILED,
    Shading_V122_1,           !- Name
    ,                         !- Transmittance Schedule Name
    autocalculate,            !- Number of Vertices
    71.2776,                  !- Vertex 1 Xcoordinate
    -101.9911,                !- Vertex 1 Ycoordinate
    15.5,                     !- Vertex 1 Zcoordinate
    71.2776,                  !- Vertex 2 Xcoordinate
    -101.9911,                !- Vertex 2 Ycoordinate
    0,                        !- Vertex 2 Zcoordinate
    65.4036,                  !- Vertex 3 Xcoordinate
    -95.0541,                 !- Vertex 3 Ycoordinate
    0,                        !- Vertex 3 Zcoordinate
    65.4036,                  !- Vertex 4 Xcoordinate
    -95.0541,                 !- Vertex 4 Ycoordinate
    15.5;                     !- Vertex 4 Zcoordinate

SHADING:SITE:DETAILED,
    Shading_V123_1,           !- Name
    ,                         !- Transmittance Schedule Name
    autocalculate,            !- Number of Vertices
    65.4036,                  !- Vertex 1 Xcoordinate
    -95.0541,                 !- Vertex 1 Ycoordinate
    15.5,                     !- Vertex 1 Zcoordinate
    65.4036,                  !- Vertex 2 Xcoordinate
    -95.0541,                 !- Vertex 2 Ycoordinate
    0,                        !- Vertex 2 Zcoordinate
    59.6726,                  !- Vertex 3 Xcoordinate
    -99.9721,                 !- Vertex 3 Ycoordinate
    0,                        !- Vertex 3 Zcoordinate
    59.6726,                  !- Vertex 4 Xcoordinate
    -99.9721,                 !- Vertex 4 Ycoordinate
    15.5;                     !- Vertex 4 Zcoordinate

SHADING:SITE:DETAILED,
    Shading_V306_1,           !- Name
    ,                         !- Transmittance Schedule Name
    autocalculate,            !- Number of Vertices
    12.7066,                  !- Vertex 1 Xcoordinate
    -143.7911,                !- Vertex 1 Ycoordinate
    18.8,                     !- Vertex 1 Zcoordinate
    12.7066,                  !- Vertex 2 Xcoordinate
    -143.7911,                !- Vertex 2 Ycoordinate
    0,                        !- Vertex 2 Zcoordinate
    6.8896,                   !- Vertex 3 Xcoordinate
    -136.9651,                !- Vertex 3 Ycoordinate
    0,                        !- Vertex 3 Zcoordinate
    6.8896,                   !- Vertex 4 Xcoordinate
    -136.9651,                !- Vertex 4 Ycoordinate
    18.8;                     !- Vertex 4 Zcoordinate

SHADING:SITE:DETAILED,
    Shading_V307_1,           !- Name
    ,                         !- Transmittance Schedule Name
    autocalculate,            !- Number of Vertices
    6.8896,                   !- Vertex 1 Xcoordinate
    -136.9651,                !- Vertex 1 Ycoordinate
    18.8,                     !- Vertex 1 Zcoordinate
    6.8896,                   !- Vertex 2 Xcoordinate
    -136.9651,                !- Vertex 2 Ycoordinate
    0,                        !- Vertex 2 Zcoordinate
    -0.7824,                  !- Vertex 3 Xcoordinate
    -143.5691,                !- Vertex 3 Ycoordinate
    0,                        !- Vertex 3 Zcoordinate
    -0.7824,                  !- Vertex 4 Xcoordinate
    -143.5691,                !- Vertex 4 Ycoordinate
    18.8;                     !- Vertex 4 Zcoordinate

SHADING:SITE:DETAILED,
    Shading_V75_1,            !- Name
    ,                         !- Transmittance Schedule Name
    autocalculate,            !- Number of Vertices
    -43.4554,                 !- Vertex 1 Xcoordinate
    19.8019,                  !- Vertex 1 Ycoordinate
    15,                       !- Vertex 1 Zcoordinate
    -43.4554,                 !- Vertex 2 Xcoordinate
    19.8019,                  !- Vertex 2 Ycoordinate
    0,                        !- Vertex 2 Zcoordinate
    -46.6544,                 !- Vertex 3 Xcoordinate
    23.5049,                  !- Vertex 3 Ycoordinate
    0,                        !- Vertex 3 Zcoordinate
    -46.6544,                 !- Vertex 4 Xcoordinate
    23.5049,                  !- Vertex 4 Ycoordinate
    15;                       !- Vertex 4 Zcoordinate

SHADING:SITE:DETAILED,
    Shading_V76_1,            !- Name
    ,                         !- Transmittance Schedule Name
    autocalculate,            !- Number of Vertices
    -46.6544,                 !- Vertex 1 Xcoordinate
    23.5049,                  !- Vertex 1 Ycoordinate
    15,                       !- Vertex 1 Zcoordinate
    -46.6544,                 !- Vertex 2 Xcoordinate
    23.5049,                  !- Vertex 2 Ycoordinate
    0,                        !- Vertex 2 Zcoordinate
    -40.4624,                 !- Vertex 3 Xcoordinate
    28.7879,                  !- Vertex 3 Ycoordinate
    0,                        !- Vertex 3 Zcoordinate
    -40.4624,                 !- Vertex 4 Xcoordinate
    28.7879,                  !- Vertex 4 Ycoordinate
    15;                       !- Vertex 4 Zcoordinate

SHADING:SITE:DETAILED,
    Shading_V425_1,           !- Name
    ,                         !- Transmittance Schedule Name
    autocalculate,            !- Number of Vertices
    -56.9294,                 !- Vertex 1 Xcoordinate
    54.4789,                  !- Vertex 1 Ycoordinate
    15.9,                     !- Vertex 1 Zcoordinate
    -56.9294,                 !- Vertex 2 Xcoordinate
    54.4789,                  !- Vertex 2 Ycoordinate
    0,                        !- Vertex 2 Zcoordinate
    -53.8854,                 !- Vertex 3 Xcoordinate
    57.0769,                  !- Vertex 3 Ycoordinate
    0,                        !- Vertex 3 Zcoordinate
    -53.8854,                 !- Vertex 4 Xcoordinate
    57.0769,                  !- Vertex 4 Ycoordinate
    15.9;                     !- Vertex 4 Zcoordinate

SHADING:SITE:DETAILED,
    Shading_V30_1,            !- Name
    ,                         !- Transmittance Schedule Name
    autocalculate,            !- Number of Vertices
    -23.5024,                 !- Vertex 1 Xcoordinate
    71.0449,                  !- Vertex 1 Ycoordinate
    12.4,                     !- Vertex 1 Zcoordinate
    -23.5024,                 !- Vertex 2 Xcoordinate
    71.0449,                  !- Vertex 2 Ycoordinate
    0,                        !- Vertex 2 Zcoordinate
    -16.7314,                 !- Vertex 3 Xcoordinate
    63.2049,                  !- Vertex 3 Ycoordinate
    0,                        !- Vertex 3 Zcoordinate
    -16.7314,                 !- Vertex 4 Xcoordinate
    63.2049,                  !- Vertex 4 Ycoordinate
    12.4;                     !- Vertex 4 Zcoordinate

SHADING:SITE:DETAILED,
    Shading_V70_1,            !- Name
    ,                         !- Transmittance Schedule Name
    autocalculate,            !- Number of Vertices
    -66.0054,                 !- Vertex 1 Xcoordinate
    0.5039,                   !- Vertex 1 Ycoordinate
    15,                       !- Vertex 1 Zcoordinate
    -66.0054,                 !- Vertex 2 Xcoordinate
    0.5039,                   !- Vertex 2 Ycoordinate
    0,                        !- Vertex 2 Zcoordinate
    -60.9774,                 !- Vertex 3 Xcoordinate
    4.8069,                   !- Vertex 3 Ycoordinate
    0,                        !- Vertex 3 Zcoordinate
    -60.9774,                 !- Vertex 4 Xcoordinate
    4.8069,                   !- Vertex 4 Ycoordinate
    15;                       !- Vertex 4 Zcoordinate

SHADING:SITE:DETAILED,
    Shading_V71_1,            !- Name
    ,                         !- Transmittance Schedule Name
    autocalculate,            !- Number of Vertices
    -60.9774,                 !- Vertex 1 Xcoordinate
    4.8069,                   !- Vertex 1 Ycoordinate
    15,                       !- Vertex 1 Zcoordinate
    -60.9774,                 !- Vertex 2 Xcoordinate
    4.8069,                   !- Vertex 2 Ycoordinate
    0,                        !- Vertex 2 Zcoordinate
    -64.1604,                 !- Vertex 3 Xcoordinate
    8.4239,                   !- Vertex 3 Ycoordinate
    0,                        !- Vertex 3 Zcoordinate
    -64.1604,                 !- Vertex 4 Xcoordinate
    8.4239,                   !- Vertex 4 Ycoordinate
    15;                       !- Vertex 4 Zcoordinate

SHADING:SITE:DETAILED,
    Shading_V74_1,            !- Name
    ,                         !- Transmittance Schedule Name
    autocalculate,            !- Number of Vertices
    -48.5374,                 !- Vertex 1 Xcoordinate
    15.4519,                  !- Vertex 1 Ycoordinate
    15,                       !- Vertex 1 Zcoordinate
    -48.5374,                 !- Vertex 2 Xcoordinate
    15.4519,                  !- Vertex 2 Ycoordinate
    0,                        !- Vertex 2 Zcoordinate
    -43.4554,                 !- Vertex 3 Xcoordinate
    19.8019,                  !- Vertex 3 Ycoordinate
    0,                        !- Vertex 3 Zcoordinate
    -43.4554,                 !- Vertex 4 Xcoordinate
    19.8019,                  !- Vertex 4 Ycoordinate
    15;                       !- Vertex 4 Zcoordinate

SHADING:SITE:DETAILED,
    Shading_V283_1,           !- Name
    ,                         !- Transmittance Schedule Name
    autocalculate,            !- Number of Vertices
    -99.2564,                 !- Vertex 1 Xcoordinate
    -29.1871,                 !- Vertex 1 Ycoordinate
    18.7,                     !- Vertex 1 Zcoordinate
    -99.2564,                 !- Vertex 2 Xcoordinate
    -29.1871,                 !- Vertex 2 Ycoordinate
    0,                        !- Vertex 2 Zcoordinate
    -91.6144,                 !- Vertex 3 Xcoordinate
    -22.5991,                 !- Vertex 3 Ycoordinate
    0,                        !- Vertex 3 Zcoordinate
    -91.6144,                 !- Vertex 4 Xcoordinate
    -22.5991,                 !- Vertex 4 Ycoordinate
    18.7;                     !- Vertex 4 Zcoordinate

SHADING:SITE:DETAILED,
    Shading_V284_1,           !- Name
    ,                         !- Transmittance Schedule Name
    autocalculate,            !- Number of Vertices
    -91.6144,                 !- Vertex 1 Xcoordinate
    -22.5991,                 !- Vertex 1 Ycoordinate
    18.7,                     !- Vertex 1 Zcoordinate
    -91.6144,                 !- Vertex 2 Xcoordinate
    -22.5991,                 !- Vertex 2 Ycoordinate
    0,                        !- Vertex 2 Zcoordinate
    -97.4414,                 !- Vertex 3 Xcoordinate
    -15.8331,                 !- Vertex 3 Ycoordinate
    0,                        !- Vertex 3 Zcoordinate
    -97.4414,                 !- Vertex 4 Xcoordinate
    -15.8331,                 !- Vertex 4 Ycoordinate
    18.7;                     !- Vertex 4 Zcoordinate

SHADING:SITE:DETAILED,
    Shading_V401_1,           !- Name
    ,                         !- Transmittance Schedule Name
    autocalculate,            !- Number of Vertices
    10.3806,                  !- Vertex 1 Xcoordinate
    72.8679,                  !- Vertex 1 Ycoordinate
    23.9,                     !- Vertex 1 Zcoordinate
    10.3806,                  !- Vertex 2 Xcoordinate
    72.8679,                  !- Vertex 2 Ycoordinate
    0,                        !- Vertex 2 Zcoordinate
    18.0606,                  !- Vertex 3 Xcoordinate
    79.4589,                  !- Vertex 3 Ycoordinate
    0,                        !- Vertex 3 Zcoordinate
    18.0606,                  !- Vertex 4 Xcoordinate
    79.4589,                  !- Vertex 4 Ycoordinate
    23.9;                     !- Vertex 4 Zcoordinate

SHADING:SITE:DETAILED,
    Shading_V408_1,           !- Name
    ,                         !- Transmittance Schedule Name
    autocalculate,            !- Number of Vertices
    -167.4084,                !- Vertex 1 Xcoordinate
    -95.3731,                 !- Vertex 1 Ycoordinate
    10.2,                     !- Vertex 1 Zcoordinate
    -167.4084,                !- Vertex 2 Xcoordinate
    -95.3731,                 !- Vertex 2 Ycoordinate
    0,                        !- Vertex 2 Zcoordinate
    -159.9334,                !- Vertex 3 Xcoordinate
    -88.4751,                 !- Vertex 3 Ycoordinate
    0,                        !- Vertex 3 Zcoordinate
    -159.9334,                !- Vertex 4 Xcoordinate
    -88.4751,                 !- Vertex 4 Ycoordinate
    10.2;                     !- Vertex 4 Zcoordinate

SHADING:SITE:DETAILED,
    Shading_V409_1,           !- Name
    ,                         !- Transmittance Schedule Name
    autocalculate,            !- Number of Vertices
    -159.9334,                !- Vertex 1 Xcoordinate
    -88.4751,                 !- Vertex 1 Ycoordinate
    10.2,                     !- Vertex 1 Zcoordinate
    -159.9334,                !- Vertex 2 Xcoordinate
    -88.4751,                 !- Vertex 2 Ycoordinate
    0,                        !- Vertex 2 Zcoordinate
    -175.3744,                !- Vertex 3 Xcoordinate
    -70.4931,                 !- Vertex 3 Ycoordinate
    0,                        !- Vertex 3 Zcoordinate
    -175.3744,                !- Vertex 4 Xcoordinate
    -70.4931,                 !- Vertex 4 Ycoordinate
    10.2;                     !- Vertex 4 Zcoordinate

SHADING:SITE:DETAILED,
    Shading_V427_1,           !- Name
    ,                         !- Transmittance Schedule Name
    autocalculate,            !- Number of Vertices
    -31.0224,                 !- Vertex 1 Xcoordinate
    30.4409,                  !- Vertex 1 Ycoordinate
    15.9,                     !- Vertex 1 Zcoordinate
    -31.0224,                 !- Vertex 2 Xcoordinate
    30.4409,                  !- Vertex 2 Ycoordinate
    0,                        !- Vertex 2 Zcoordinate
    -23.3374,                 !- Vertex 3 Xcoordinate
    37.0169,                  !- Vertex 3 Ycoordinate
    0,                        !- Vertex 3 Zcoordinate
    -23.3374,                 !- Vertex 4 Xcoordinate
    37.0169,                  !- Vertex 4 Ycoordinate
    15.9;                     !- Vertex 4 Zcoordinate

SHADING:SITE:DETAILED,
    Shading_V429_1,           !- Name
    ,                         !- Transmittance Schedule Name
    autocalculate,            !- Number of Vertices
    -27.4184,                 !- Vertex 1 Xcoordinate
    41.7589,                  !- Vertex 1 Ycoordinate
    15.9,                     !- Vertex 1 Zcoordinate
    -27.4184,                 !- Vertex 2 Xcoordinate
    41.7589,                  !- Vertex 2 Ycoordinate
    0,                        !- Vertex 2 Zcoordinate
    -21.4644,                 !- Vertex 3 Xcoordinate
    46.8969,                  !- Vertex 3 Ycoordinate
    0,                        !- Vertex 3 Zcoordinate
    -21.4644,                 !- Vertex 4 Xcoordinate
    46.8969,                  !- Vertex 4 Ycoordinate
    15.9;                     !- Vertex 4 Zcoordinate

SHADING:SITE:DETAILED,
    Shading_V108_1,           !- Name
    ,                         !- Transmittance Schedule Name
    autocalculate,            !- Number of Vertices
    -47.5994,                 !- Vertex 1 Xcoordinate
    -30.2781,                 !- Vertex 1 Ycoordinate
    15.5,                     !- Vertex 1 Zcoordinate
    -47.5994,                 !- Vertex 2 Xcoordinate
    -30.2781,                 !- Vertex 2 Ycoordinate
    0,                        !- Vertex 2 Zcoordinate
    -39.3454,                 !- Vertex 3 Xcoordinate
    -23.1971,                 !- Vertex 3 Ycoordinate
    0,                        !- Vertex 3 Zcoordinate
    -39.3454,                 !- Vertex 4 Xcoordinate
    -23.1971,                 !- Vertex 4 Ycoordinate
    15.5;                     !- Vertex 4 Zcoordinate

SHADING:SITE:DETAILED,
    Shading_V251_1,           !- Name
    ,                         !- Transmittance Schedule Name
    autocalculate,            !- Number of Vertices
    41.9276,                  !- Vertex 1 Xcoordinate
    3.9559,                   !- Vertex 1 Ycoordinate
    16.1,                     !- Vertex 1 Zcoordinate
    41.9276,                  !- Vertex 2 Xcoordinate
    3.9559,                   !- Vertex 2 Ycoordinate
    0,                        !- Vertex 2 Zcoordinate
    49.8386,                  !- Vertex 3 Xcoordinate
    10.7219,                  !- Vertex 3 Ycoordinate
    0,                        !- Vertex 3 Zcoordinate
    49.8386,                  !- Vertex 4 Xcoordinate
    10.7219,                  !- Vertex 4 Ycoordinate
    16.1;                     !- Vertex 4 Zcoordinate

SHADING:SITE:DETAILED,
    Shading_V252_1,           !- Name
    ,                         !- Transmittance Schedule Name
    autocalculate,            !- Number of Vertices
    49.8386,                  !- Vertex 1 Xcoordinate
    10.7219,                  !- Vertex 1 Ycoordinate
    16.1,                     !- Vertex 1 Zcoordinate
    49.8386,                  !- Vertex 2 Xcoordinate
    10.7219,                  !- Vertex 2 Ycoordinate
    0,                        !- Vertex 2 Zcoordinate
    52.3966,                  !- Vertex 3 Xcoordinate
    7.6449,                   !- Vertex 3 Ycoordinate
    0,                        !- Vertex 3 Zcoordinate
    52.3966,                  !- Vertex 4 Xcoordinate
    7.6449,                   !- Vertex 4 Ycoordinate
    16.1;                     !- Vertex 4 Zcoordinate

SHADING:SITE:DETAILED,
    Shading_V494_1,           !- Name
    ,                         !- Transmittance Schedule Name
    autocalculate,            !- Number of Vertices
    52.9106,                  !- Vertex 1 Xcoordinate
    -8.8591,                  !- Vertex 1 Ycoordinate
    16.4,                     !- Vertex 1 Zcoordinate
    52.9106,                  !- Vertex 2 Xcoordinate
    -8.8591,                  !- Vertex 2 Ycoordinate
    0,                        !- Vertex 2 Zcoordinate
    59.0936,                  !- Vertex 3 Xcoordinate
    -16.0081,                 !- Vertex 3 Ycoordinate
    0,                        !- Vertex 3 Zcoordinate
    59.0936,                  !- Vertex 4 Xcoordinate
    -16.0081,                 !- Vertex 4 Ycoordinate
    16.4;                     !- Vertex 4 Zcoordinate

SHADING:SITE:DETAILED,
    Shading_V167_1,           !- Name
    ,                         !- Transmittance Schedule Name
    autocalculate,            !- Number of Vertices
    18.7936,                  !- Vertex 1 Xcoordinate
    37.3899,                  !- Vertex 1 Ycoordinate
    12.6,                     !- Vertex 1 Zcoordinate
    18.7936,                  !- Vertex 2 Xcoordinate
    37.3899,                  !- Vertex 2 Ycoordinate
    0,                        !- Vertex 2 Zcoordinate
    24.0661,                  !- Vertex 3 Xcoordinate
    41.9392,                  !- Vertex 3 Ycoordinate
    0,                        !- Vertex 3 Zcoordinate
    24.0661,                  !- Vertex 4 Xcoordinate
    41.9392,                  !- Vertex 4 Ycoordinate
    12.6;                     !- Vertex 4 Zcoordinate

SHADING:SITE:DETAILED,
    Shading_V412_1,           !- Name
    ,                         !- Transmittance Schedule Name
    autocalculate,            !- Number of Vertices
    -47.3244,                 !- Vertex 1 Xcoordinate
    64.8429,                  !- Vertex 1 Ycoordinate
    15.9,                     !- Vertex 1 Zcoordinate
    -47.3244,                 !- Vertex 2 Xcoordinate
    64.8429,                  !- Vertex 2 Ycoordinate
    0,                        !- Vertex 2 Zcoordinate
    -46.0524,                 !- Vertex 3 Xcoordinate
    81.2429,                  !- Vertex 3 Ycoordinate
    0,                        !- Vertex 3 Zcoordinate
    -46.0524,                 !- Vertex 4 Xcoordinate
    81.2429,                  !- Vertex 4 Ycoordinate
    15.9;                     !- Vertex 4 Zcoordinate

SHADING:SITE:DETAILED,
    Shading_V430_1,           !- Name
    ,                         !- Transmittance Schedule Name
    autocalculate,            !- Number of Vertices
    -21.4644,                 !- Vertex 1 Xcoordinate
    46.8969,                  !- Vertex 1 Ycoordinate
    15.9,                     !- Vertex 1 Zcoordinate
    -21.4644,                 !- Vertex 2 Xcoordinate
    46.8969,                  !- Vertex 2 Ycoordinate
    0,                        !- Vertex 2 Zcoordinate
    -26.7074,                 !- Vertex 3 Xcoordinate
    53.0239,                  !- Vertex 3 Ycoordinate
    0,                        !- Vertex 3 Zcoordinate
    -26.7074,                 !- Vertex 4 Xcoordinate
    53.0239,                  !- Vertex 4 Ycoordinate
    15.9;                     !- Vertex 4 Zcoordinate

SHADING:SITE:DETAILED,
    Shading_V471_1,           !- Name
    ,                         !- Transmittance Schedule Name
    autocalculate,            !- Number of Vertices
    88.1082,                  !- Vertex 1 Xcoordinate
    -32.5409,                 !- Vertex 1 Ycoordinate
    12.8,                     !- Vertex 1 Zcoordinate
    88.1082,                  !- Vertex 2 Xcoordinate
    -32.5409,                 !- Vertex 2 Ycoordinate
    0,                        !- Vertex 2 Zcoordinate
    81.2606,                  !- Vertex 3 Xcoordinate
    -38.4181,                 !- Vertex 3 Ycoordinate
    0,                        !- Vertex 3 Zcoordinate
    81.2606,                  !- Vertex 4 Xcoordinate
    -38.4181,                 !- Vertex 4 Ycoordinate
    12.8;                     !- Vertex 4 Zcoordinate

SHADING:SITE:DETAILED,
    Shading_V489_1,           !- Name
    ,                         !- Transmittance Schedule Name
    autocalculate,            !- Number of Vertices
    76.1296,                  !- Vertex 1 Xcoordinate
    11.0909,                  !- Vertex 1 Ycoordinate
    16.4,                     !- Vertex 1 Zcoordinate
    76.1296,                  !- Vertex 2 Xcoordinate
    11.0909,                  !- Vertex 2 Ycoordinate
    0,                        !- Vertex 2 Zcoordinate
    65.9456,                  !- Vertex 3 Xcoordinate
    2.2569,                   !- Vertex 3 Ycoordinate
    0,                        !- Vertex 3 Zcoordinate
    65.9456,                  !- Vertex 4 Xcoordinate
    2.2569,                   !- Vertex 4 Ycoordinate
    16.4;                     !- Vertex 4 Zcoordinate

SHADING:SITE:DETAILED,
    Shading_V426_1,           !- Name
    ,                         !- Transmittance Schedule Name
    autocalculate,            !- Number of Vertices
    -53.8854,                 !- Vertex 1 Xcoordinate
    57.0769,                  !- Vertex 1 Ycoordinate
    15.9,                     !- Vertex 1 Zcoordinate
    -53.8854,                 !- Vertex 2 Xcoordinate
    57.0769,                  !- Vertex 2 Ycoordinate
    0,                        !- Vertex 2 Zcoordinate
    -31.0224,                 !- Vertex 3 Xcoordinate
    30.4409,                  !- Vertex 3 Ycoordinate
    0,                        !- Vertex 3 Zcoordinate
    -31.0224,                 !- Vertex 4 Xcoordinate
    30.4409,                  !- Vertex 4 Ycoordinate
    15.9;                     !- Vertex 4 Zcoordinate

SHADING:SITE:DETAILED,
    Shading_V263_1,           !- Name
    ,                         !- Transmittance Schedule Name
    autocalculate,            !- Number of Vertices
    63.3086,                  !- Vertex 1 Xcoordinate
    48.1589,                  !- Vertex 1 Ycoordinate
    16.1,                     !- Vertex 1 Zcoordinate
    63.3086,                  !- Vertex 2 Xcoordinate
    48.1589,                  !- Vertex 2 Ycoordinate
    0,                        !- Vertex 2 Zcoordinate
    55.6406,                  !- Vertex 3 Xcoordinate
    41.5989,                  !- Vertex 3 Ycoordinate
    0,                        !- Vertex 3 Zcoordinate
    55.6406,                  !- Vertex 4 Xcoordinate
    41.5989,                  !- Vertex 4 Ycoordinate
    16.1;                     !- Vertex 4 Zcoordinate

SHADING:SITE:DETAILED,
    Shading_V264_1,           !- Name
    ,                         !- Transmittance Schedule Name
    autocalculate,            !- Number of Vertices
    55.6406,                  !- Vertex 1 Xcoordinate
    41.5989,                  !- Vertex 1 Ycoordinate
    16.1,                     !- Vertex 1 Zcoordinate
    55.6406,                  !- Vertex 2 Xcoordinate
    41.5989,                  !- Vertex 2 Ycoordinate
    0,                        !- Vertex 2 Zcoordinate
    62.3416,                  !- Vertex 3 Xcoordinate
    33.8179,                  !- Vertex 3 Ycoordinate
    0,                        !- Vertex 3 Zcoordinate
    62.3416,                  !- Vertex 4 Xcoordinate
    33.8179,                  !- Vertex 4 Ycoordinate
    16.1;                     !- Vertex 4 Zcoordinate

SHADING:SITE:DETAILED,
    Shading_V370_1,           !- Name
    ,                         !- Transmittance Schedule Name
    autocalculate,            !- Number of Vertices
    42.5576,                  !- Vertex 1 Xcoordinate
    -15.6641,                 !- Vertex 1 Ycoordinate
    14.2,                     !- Vertex 1 Zcoordinate
    42.5576,                  !- Vertex 2 Xcoordinate
    -15.6641,                 !- Vertex 2 Ycoordinate
    0,                        !- Vertex 2 Zcoordinate
    39.9576,                  !- Vertex 3 Xcoordinate
    -12.6241,                 !- Vertex 3 Ycoordinate
    0,                        !- Vertex 3 Zcoordinate
    39.9576,                  !- Vertex 4 Xcoordinate
    -12.6241,                 !- Vertex 4 Ycoordinate
    14.2;                     !- Vertex 4 Zcoordinate

SHADING:SITE:DETAILED,
    Shading_V400_1,           !- Name
    ,                         !- Transmittance Schedule Name
    autocalculate,            !- Number of Vertices
    5.3946,                   !- Vertex 1 Xcoordinate
    78.6699,                  !- Vertex 1 Ycoordinate
    23.9,                     !- Vertex 1 Zcoordinate
    5.3946,                   !- Vertex 2 Xcoordinate
    78.6699,                  !- Vertex 2 Ycoordinate
    0,                        !- Vertex 2 Zcoordinate
    10.3806,                  !- Vertex 3 Xcoordinate
    72.8679,                  !- Vertex 3 Ycoordinate
    0,                        !- Vertex 3 Zcoordinate
    10.3806,                  !- Vertex 4 Xcoordinate
    72.8679,                  !- Vertex 4 Ycoordinate
    23.9;                     !- Vertex 4 Zcoordinate

SHADING:SITE:DETAILED,
    Shading_V428_1,           !- Name
    ,                         !- Transmittance Schedule Name
    autocalculate,            !- Number of Vertices
    -23.3374,                 !- Vertex 1 Xcoordinate
    37.0169,                  !- Vertex 1 Ycoordinate
    15.9,                     !- Vertex 1 Zcoordinate
    -23.3374,                 !- Vertex 2 Xcoordinate
    37.0169,                  !- Vertex 2 Ycoordinate
    0,                        !- Vertex 2 Zcoordinate
    -27.4184,                 !- Vertex 3 Xcoordinate
    41.7589,                  !- Vertex 3 Ycoordinate
    0,                        !- Vertex 3 Zcoordinate
    -27.4184,                 !- Vertex 4 Xcoordinate
    41.7589,                  !- Vertex 4 Ycoordinate
    15.9;                     !- Vertex 4 Zcoordinate

SHADING:SITE:DETAILED,
    Shading_V161_1,           !- Name
    ,                         !- Transmittance Schedule Name
    autocalculate,            !- Number of Vertices
    2.5896,                   !- Vertex 1 Xcoordinate
    40.7189,                  !- Vertex 1 Ycoordinate
    12.6,                     !- Vertex 1 Zcoordinate
    2.5896,                   !- Vertex 2 Xcoordinate
    40.7189,                  !- Vertex 2 Ycoordinate
    0,                        !- Vertex 2 Zcoordinate
    -0.4574,                  !- Vertex 3 Xcoordinate
    38.1249,                  !- Vertex 3 Ycoordinate
    0,                        !- Vertex 3 Zcoordinate
    -0.4574,                  !- Vertex 4 Xcoordinate
    38.1249,                  !- Vertex 4 Ycoordinate
    12.6;                     !- Vertex 4 Zcoordinate

ELECTRICEQUIPMENT,
    Block Build0_Alt0 Storey 0Load,    !- Name
    Block Build0_Alt0 Storey 0,    !- Zone or ZoneList Name
    LoadSchedule,             !- Schedule Name
    Watts/Area,               !- Design Level Calculation Method
    ,                         !- Design Level
    0.05,                     !- Watts per Zone Floor Area
    ,                         !- Watts per Person
    0,                        !- Fraction Latent
    0,                        !- Fraction Radiant
    0,                        !- Fraction Lost
    General;                  !- EndUse Subcategory

ZONEINFILTRATION:DESIGNFLOWRATE,
    Block Build0_Alt0 Storey -1Leak,    !- Name
    Block Build0_Alt0 Storey -1,    !- Zone or ZoneList Name
    AlwaysON,                 !- Schedule Name
    AirChanges/Hour,          !- Design Flow Rate Calculation Method
    ,                         !- Design Flow Rate
    ,                         !- Flow per Zone Floor Area
    ,                         !- Flow per Exterior Surface Area
    1,                        !- Air Changes per Hour
    1,                        !- Constant Term Coefficient
    0,                        !- Temperature Term Coefficient
    0,                        !- Velocity Term Coefficient
    0;                        !- Velocity Squared Term Coefficient

ZONEINFILTRATION:FLOWCOEFFICIENT,
    Block Build0_Alt0 Storey 0Leak,    !- Name
    Block Build0_Alt0 Storey 0,    !- Zone Name
    AlwaysON,                 !- Schedule Name
    2.686356e-01,             !- Flow Coefficient
    0.107,                    !- Stack Coefficient
    0.667,                    !- Pressure Exponent
    0.167,                    !- Wind Coefficient
    0.61;                     !- Shelter Factor

ZONEVENTILATION:DESIGNFLOWRATE,
    Block Build0_Alt0 Storey 0FreeCool,    !- Name
    Block Build0_Alt0 Storey 0,    !- Zone or ZoneList Name
    AlwaysON,                 !- Schedule Name
    AirChanges/Hour,          !- Design Flow Rate Calculation Method
    ,                         !- Design Flow Rate
    ,                         !- Flow Rate per Zone Floor Area
    ,                         !- Flow Rate per Person
    4,                        !- Air Changes per Hour
    Natural,                  !- Ventilation Type
    0,                        !- Fan Pressure Rise
    1,                        !- Fan Total Efficiency
    1,                        !- Constant Term Coefficient
    0,                        !- Temperature Term Coefficient
    0,                        !- Velocity Term Coefficient
    0,                        !- Velocity Squared Term Coefficient
    26,                       !- Minimum Indoor Temperature
    ,                         !- Minimum Indoor Temperature Schedule Name
    100,                      !- Maximum Indoor Temperature
    ,                         !- Maximum Indoor Temperature Schedule Name
    1,                        !- Delta Temperature
    ,                         !- Delta Temperature Schedule Name
    -100,                     !- Minimum Outdoor Temperature
    ,                         !- Minimum Outdoor Temperature Schedule Name
    100,                      !- Maximum Outdoor Temperature
    ,                         !- Maximum Outdoor Temperature Schedule Name
    40;                       !- Maximum Wind Speed

HVACTEMPLATE:THERMOSTAT,
    ResidZone,                !- Name
    ,                         !- Heating Setpoint Schedule Name
    21,                       !- Constant Heating Setpoint
    ,                         !- Cooling Setpoint Schedule Name
    50;                       !- Constant Cooling Setpoint

HVACTEMPLATE:ZONE:IDEALLOADSAIRSYSTEM,
    Block Build0_Alt0 Storey 0,    !- Zone Name
    ResidZone,                !- Template Thermostat Name
    ,                         !- System Availability Schedule Name
    50,                       !- Maximum Heating Supply Air Temperature
    13,                       !- Minimum Cooling Supply Air Temperature
    0.0156,                   !- Maximum Heating Supply Air Humidity Ratio
    0.0077,                   !- Minimum Cooling Supply Air Humidity Ratio
    NoLimit,                  !- Heating Limit
    ,                         !- Maximum Heating Air Flow Rate
    103176.11568428297,       !- Maximum Sensible Heating Capacity
    NoLimit,                  !- Cooling Limit
    ,                         !- Maximum Cooling Air Flow Rate
    ,                         !- Maximum Total Cooling Capacity
    ,                         !- Heating Availability Schedule Name
    ,                         !- Cooling Availability Schedule Name
    ConstantSensibleHeatRatio,    !- Dehumidification Control Type
    0.7,                      !- Cooling Sensible Heat Ratio
    60,                       !- Dehumidification Setpoint
    None,                     !- Humidification Control Type
    30,                       !- Humidification Setpoint
    Flow/Area,                !- Outdoor Air Method
    0.007,                    !- Outdoor Air Flow Rate per Person
    1.750000e-03,             !- Outdoor Air Flow Rate per Zone Floor Area
    0,                        !- Outdoor Air Flow Rate per Zone
    ,                         !- Design Specification Outdoor Air Object Name
    None,                     !- Demand Controlled Ventilation Type
    NoEconomizer,             !- Outdoor Air Economizer Type
    Sensible,                 !- Heat Recovery Type
    0.65,                     !- Sensible Heat Recovery Effectiveness
    0;                        !- Latent Heat Recovery Effectiveness

OUTDOORAIR:NODE,
    Block Build0_Alt0 Storey 0 IDEAL LOADS OUTDOOR AIR INLET,    !- Name
    -1,                       !- Height Above Ground
    ,                         !- Drybulb Temperature Schedule Name
    ,                         !- Wetbulb Temperature Schedule Name
    ,                         !- Wind Speed Schedule Name
    ,                         !- Wind Direction Schedule Name
    ,                         !- Wind Pressure Coefficient Curve Name
    No,                       !- Symmetric Wind Pressure Coefficient Curve
    Absolute;                 !- Wind Angle Type

ENERGYMANAGEMENTSYSTEM:SENSOR,
    T0,                       !- Name
    Block Build0_Alt0 Storey 0,    !- OutputVariable or OutputMeter Index Key Name
    Zone Mean Air Temperature;    !- OutputVariable or OutputMeter Name

ENERGYMANAGEMENTSYSTEM:SENSOR,
    Pow0,                     !- Name
    Block Build0_Alt0 Storey 0 IDEAL LOADS AIR SYSTEM,    !- OutputVariable or OutputMeter Index Key Name
    Zone Ideal Loads Supply Air Total Heating Rate;    !- OutputVariable or OutputMeter Name

ENERGYMANAGEMENTSYSTEM:SENSOR,
    DHWPow,                   !- Name
    DHW,                      !- OutputVariable or OutputMeter Index Key Name
    Water Use Equipment Heating Rate;    !- OutputVariable or OutputMeter Name

ENERGYMANAGEMENTSYSTEM:PROGRAMCALLINGMANAGER,
    Average Building Temperature,    !- Name
    EndOfZoneTimestepBeforeZoneReporting,    !- EnergyPlus Model Calling Point
    AverageZoneTemps;         !- Program Name 1

ENERGYMANAGEMENTSYSTEM:PROGRAMCALLINGMANAGER,
    Compute Total Building Heat Pow,    !- Name
    EndOfZoneTimestepBeforeZoneReporting,    !- EnergyPlus Model Calling Point
    TotZonePow;               !- Program Name 1

ENERGYMANAGEMENTSYSTEM:PROGRAMCALLINGMANAGER,
    Compute Total DHW Heat Pow,    !- Name
    EndOfZoneTimestepBeforeZoneReporting,    !- EnergyPlus Model Calling Point
    prgmDHWPow;               !- Program Name 1

ENERGYMANAGEMENTSYSTEM:PROGRAM,
    AverageZoneTemps,         !- Name
    SET SumNumerator = T0*Vol0,    !- Program Line 1
    SET SumDenominator  = Vol0,    !- Program Line 2
    SET AverageBuildingTemp  = SumNumerator / SumDenominator;    !- Program Line 3

ENERGYMANAGEMENTSYSTEM:PROGRAM,
    TotZonePow,               !- Name
    SET TotBuildPow = Pow0;    !- Program Line 1

ENERGYMANAGEMENTSYSTEM:PROGRAM,
    prgmDHWPow,               !- Name
    SET TotDHWPow = DHWPow;    !- Program Line 1

ENERGYMANAGEMENTSYSTEM:GLOBALVARIABLE,
    AverageBuildingTemp;      !- Erl Variable 1 Name

ENERGYMANAGEMENTSYSTEM:GLOBALVARIABLE,
    TotBuildPow;              !- Erl Variable 1 Name

ENERGYMANAGEMENTSYSTEM:GLOBALVARIABLE,
    TotDHWPow;                !- Erl Variable 1 Name

ENERGYMANAGEMENTSYSTEM:OUTPUTVARIABLE,
    Mean Heated Zones Air Temperature,    !- Name
    AverageBuildingTemp,      !- EMS Variable Name
    Averaged,                 !- Type of Data in Variable
    ZoneTimeStep;             !- Update Frequency

ENERGYMANAGEMENTSYSTEM:OUTPUTVARIABLE,
    Total Building Heating Power,    !- Name
    TotBuildPow,              !- EMS Variable Name
    Averaged,                 !- Type of Data in Variable
    ZoneTimeStep;             !- Update Frequency

ENERGYMANAGEMENTSYSTEM:OUTPUTVARIABLE,
    Total DHW Heating Power,    !- Name
    TotDHWPow,                !- EMS Variable Name
    Averaged,                 !- Type of Data in Variable
    ZoneTimeStep;             !- Update Frequency

ENERGYMANAGEMENTSYSTEM:INTERNALVARIABLE,
    Vol0,                     !- Name
    Block Build0_Alt0 Storey 0,    !- Internal Data Index Key Name
    Zone Air Volume;          !- Internal Data Type

WATERUSE:EQUIPMENT,
    DHW,                      !- Name
    General,                  !- EndUse Subcategory
    1.152387e-08,             !- Peak Flow Rate
    WaterTaps,                !- Flow Rate Fraction Schedule Name
    TargetWaterTemp,          !- Target Temperature Schedule Name
    HotWaterTemp,             !- Hot Water Supply Temperature Schedule Name
    ColdWaterTemp;            !- Cold Water Supply Temperature Schedule Name

Output:VariableDictionary,
    Regular;                  !- Key Field

OUTPUT:ENERGYMANAGEMENTSYSTEM,
    Verbose,                  !- Actuator Availability Dictionary Reporting
    Verbose,                  !- Internal Variable Availability Dictionary Reporting
    Verbose;                  !- EMS Runtime Language Debug Output Level

Output:Table:SummaryReports,
    AllSummary;               !- Report 1 Name

OutputControl:Table:Style,
    HTML;                     !- Column Separator

OUTPUT:VARIABLE,
    *,                        !- Key Value
    Site Outdoor Air Drybulb Temperature,    !- Variable Name
    Hourly;                   !- Reporting Frequency

OUTPUT:VARIABLE,
    *,                        !- Key Value
    Site Outdoor Air Relative Humidity,    !- Variable Name
    Hourly;                   !- Reporting Frequency

OUTPUT:VARIABLE,
    *,                        !- Key Value
    Site Outdoor Air Barometric Pressure,    !- Variable Name
    Hourly;                   !- Reporting Frequency

OUTPUT:VARIABLE,
    *,                        !- Key Value
    Site Wind Speed,          !- Variable Name
    Hourly;                   !- Reporting Frequency

OUTPUT:VARIABLE,
    *,                        !- Key Value
    Site Diffuse Solar Radiation Rate per Area,    !- Variable Name
    Hourly;                   !- Reporting Frequency

OUTPUT:VARIABLE,
    *,                        !- Key Value
    Site Direct Solar Radiation Rate per Area,    !- Variable Name
    Hourly;                   !- Reporting Frequency

OUTPUT:VARIABLE,
    *,                        !- Key Value
    Zone Electric Equipment Electric Power,    !- Variable Name
    Hourly;                   !- Reporting Frequency

OUTPUT:VARIABLE,
    *,                        !- Key Value
    Zone Electric Equipment Total Heating Rate,    !- Variable Name
    Hourly;                   !- Reporting Frequency

OUTPUT:VARIABLE,
    *,                        !- Key Value
    Surface Outside Face Incident Solar Radiation Rate per Area,    !- Variable Name
    Hourly;                   !- Reporting Frequency

OUTPUT:VARIABLE,
    *,                        !- Key Value
    Surface Outside Face Incident Beam Solar Radiation Rate per Area,    !- Variable Name
    Hourly;                   !- Reporting Frequency

OUTPUT:VARIABLE,
    *,                        !- Key Value
    Zone Ideal Loads Supply Air Total Heating Rate,    !- Variable Name
    Hourly;                   !- Reporting Frequency

OUTPUT:VARIABLE,
    *,                        !- Key Value
    Water Use Equipment Hot Water Mass Flow Rate,    !- Variable Name
    Hourly;                   !- Reporting Frequency

OUTPUT:VARIABLE,
    *,                        !- Key Value
    Water Use Equipment Cold Water Mass Flow Rate,    !- Variable Name
    Hourly;                   !- Reporting Frequency

OUTPUT:VARIABLE,
    *,                        !- Key Value
    Water Use Equipment Hot Water Temperature,    !- Variable Name
    Hourly;                   !- Reporting Frequency

OUTPUT:VARIABLE,
    *,                        !- Key Value
    Water Use Equipment Cold Water Temperature,    !- Variable Name
    Hourly;                   !- Reporting Frequency

OUTPUT:VARIABLE,
    *,                        !- Key Value
    Water Use Equipment Heating Rate,    !- Variable Name
    Hourly;                   !- Reporting Frequency

OUTPUT:VARIABLE,
    *,                        !- Key Value
    Mean Heated Zones Air Temperature,    !- Variable Name
    Hourly;                   !- Reporting Frequency

OUTPUT:VARIABLE,
    *,                        !- Key Value
    Total Building Heating Power,    !- Variable Name
    Hourly;                   !- Reporting Frequency

OUTPUT:VARIABLE,
    *,                        !- Key Value
    Total DHW Heating Power,    !- Variable Name
    Hourly;                   !- Reporting Frequency

OUTPUT:DIAGNOSTICS,
    DISPLAYEXTRAWARNINGS,     !- Key 1
    DisplayAdvancedReportVariables;    !- Key 2