!- Darwin Line endings 

Version,
    9.5;                      !- Version Identifier

SimulationControl,
    No,                       !- Do Zone Sizing Calculation
    No,                       !- Do System Sizing Calculation
    No,                       !- Do Plant Sizing Calculation
    No,                       !- Run Simulation for Sizing Periods
    Yes,                      !- Run Simulation for Weather File Run Periods
    No,                       !- Do HVAC Sizing Simulation for Sizing Periods
    1;                        !- Maximum Number of HVAC Sizing Simulation Passes

Building,
    None,                     !- Name
    0,                        !- North Axis
    Suburbs,                  !- Terrain
    0.04,                     !- Loads Convergence Tolerance Value
    0.4,                      !- Temperature Convergence Tolerance Value
    FullExterior,             !- Solar Distribution
    25,                       !- Maximum Number of Warmup Days
    6;                        !- Minimum Number of Warmup Days

SHADOWCALCULATION,
    PolygonClipping,          !- Shading Calculation Method
    Periodic,                 !- Shading Calculation Update Frequency Method
    20,                       !- Shading Calculation Update Frequency
    25000,                    !- Maximum Figures in Shadow Overlap Calculations
    SutherlandHodgman,        !- Polygon Clipping Algorithm
    512,                      !- Pixel Counting Resolution
    SimpleSkyDiffuseModeling,    !- Sky Diffuse Modeling Algorithm
    No,                       !- Output External Shading Calculation Results
    No,                       !- Disable SelfShading Within Shading Zone Groups
    No;                       !- Disable SelfShading From Shading Zone Groups to Other Zones

Timestep,
    4;                        !- Number of Timesteps per Hour

Site:Location,
    WeatherData/USA_CA_San.Francisco.Intl.AP.724940_TMY3.epw,    !- Name
    37.62,                    !- Latitude
    -122.4,                   !- Longitude
    -8,                       !- Time Zone
    2;                        !- Elevation

SizingPeriod:DesignDay,
    DENVER_STAPLETON Ann Htg 99.6% Condns DB,    !- Name
    12,                       !- Month
    21,                       !- Day of Month
    WinterDesignDay,          !- Day Type
    -20,                      !- Maximum DryBulb Temperature
    0,                        !- Daily DryBulb Temperature Range
    ,                         !- DryBulb Temperature Range Modifier Type
    ,                         !- DryBulb Temperature Range Modifier Day Schedule Name
    Wetbulb,                  !- Humidity Condition Type
    -20,                      !- Wetbulb or DewPoint at Maximum DryBulb
    ,                         !- Humidity Condition Day Schedule Name
    ,                         !- Humidity Ratio at Maximum DryBulb
    ,                         !- Enthalpy at Maximum DryBulb
    ,                         !- Daily WetBulb Temperature Range
    100594,                   !- Barometric Pressure
    2.3,                      !- Wind Speed
    180,                      !- Wind Direction
    No,                       !- Rain Indicator
    No,                       !- Snow Indicator
    No,                       !- Daylight Saving Time Indicator
    ASHRAEClearSky,           !- Solar Model Indicator
    ,                         !- Beam Solar Day Schedule Name
    ,                         !- Diffuse Solar Day Schedule Name
    ,                         !- ASHRAE Clear Sky Optical Depth for Beam Irradiance taub
    ,                         !- ASHRAE Clear Sky Optical Depth for Diffuse Irradiance taud
    0;                        !- Sky Clearness

SizingPeriod:DesignDay,
    DENVER_STAPLETON Ann Clg .4% Condns DB=>MWB,    !- Name
    7,                        !- Month
    21,                       !- Day of Month
    SummerDesignDay,          !- Day Type
    34.1,                     !- Maximum DryBulb Temperature
    15.2,                     !- Daily DryBulb Temperature Range
    ,                         !- DryBulb Temperature Range Modifier Type
    ,                         !- DryBulb Temperature Range Modifier Day Schedule Name
    Wetbulb,                  !- Humidity Condition Type
    15.8,                     !- Wetbulb or DewPoint at Maximum DryBulb
    ,                         !- Humidity Condition Day Schedule Name
    ,                         !- Humidity Ratio at Maximum DryBulb
    ,                         !- Enthalpy at Maximum DryBulb
    ,                         !- Daily WetBulb Temperature Range
    100594,                   !- Barometric Pressure
    4,                        !- Wind Speed
    120,                      !- Wind Direction
    No,                       !- Rain Indicator
    No,                       !- Snow Indicator
    No,                       !- Daylight Saving Time Indicator
    ASHRAEClearSky,           !- Solar Model Indicator
    ,                         !- Beam Solar Day Schedule Name
    ,                         !- Diffuse Solar Day Schedule Name
    ,                         !- ASHRAE Clear Sky Optical Depth for Beam Irradiance taub
    ,                         !- ASHRAE Clear Sky Optical Depth for Diffuse Irradiance taud
    1;                        !- Sky Clearness

RunPeriod,
    Run Period 1,             !- Name
    1,                        !- Begin Month
    1,                        !- Begin Day of Month
    ,                         !- Begin Year
    12,                       !- End Month
    31,                       !- End Day of Month
    ,                         !- End Year
    Tuesday,                  !- Day of Week for Start Day
    Yes,                      !- Use Weather File Holidays and Special Days
    Yes,                      !- Use Weather File Daylight Saving Period
    No,                       !- Apply Weekend Holiday Rule
    Yes,                      !- Use Weather File Rain Indicators
    Yes;                      !- Use Weather File Snow Indicators

SITE:GROUNDTEMPERATURE:BUILDINGSURFACE,
    15,                       !- January Ground Temperature
    15,                       !- February Ground Temperature
    15,                       !- March Ground Temperature
    15,                       !- April Ground Temperature
    15,                       !- May Ground Temperature
    15,                       !- June Ground Temperature
    15,                       !- July Ground Temperature
    15,                       !- August Ground Temperature
    15,                       !- September Ground Temperature
    15,                       !- October Ground Temperature
    15,                       !- November Ground Temperature
    15;                       !- December Ground Temperature

SCHEDULETYPELIMITS,
    Any Number,               !- Name
    ,                         !- Lower Limit Value
    ,                         !- Upper Limit Value
    ,                         !- Numeric Type
    Dimensionless;            !- Unit Type

SCHEDULE:COMPACT,
    AlwaysON,                 !- Name
    Any Number,               !- Schedule Type Limits Name
    Through: 12/31,           !- Field 1
    For: AllDays,             !- Field 2
    Until: 24:00,             !- Field 3
    1;                        !- Field 4

SCHEDULE:COMPACT,
    OccupActivity,            !- Name
    Any Number,               !- Schedule Type Limits Name
    Through: 12/31,           !- Field 1
    For: AllDays,             !- Field 2
    Until: 24:00,             !- Field 3
    70;                       !- Field 4

SCHEDULE:COMPACT,
    HotWaterTemp,             !- Name
    Any Number,               !- Schedule Type Limits Name
    Through: 12/31,           !- Field 1
    For: AllDays,             !- Field 2
    Until: 24:00,             !- Field 3
    55;                       !- Field 4

SCHEDULE:COMPACT,
    TargetWaterTemp,          !- Name
    Any Number,               !- Schedule Type Limits Name
    Through: 12/31,           !- Field 1
    For: AllDays,             !- Field 2
    Until: 24:00,             !- Field 3
    37;                       !- Field 4

SCHEDULE:FILE,
    LoadSchedule,             !- Name
    Any Number,               !- Schedule Type Limits Name
    /Users/alizad/PycharmProjects/mubes-ubem/examples/ForTest/InputFiles/Building15_winter.txt,    !- File Name
    1,                        !- Column Number
    0,                        !- Rows to Skip at Top
    8760,                     !- Number of Hours of Data
    Comma,                    !- Column Separator
    No;                       !- Interpolate to Timestep

SCHEDULE:FILE,
    Watertaps,                !- Name
    Any Number,               !- Schedule Type Limits Name
    /Users/alizad/PycharmProjects/mubes-ubem/examples/ForTest/InputFiles/domestic_hot_water_40_apartments.txt,    !- File Name
    1,                        !- Column Number
    0,                        !- Rows to Skip at Top
    8760,                     !- Number of Hours of Data
    Comma,                    !- Column Separator
    No;                       !- Interpolate to Timestep

SCHEDULE:FILE,
    ColdWaterTemp,            !- Name
    Any Number,               !- Schedule Type Limits Name
    /Users/alizad/PycharmProjects/mubes-ubem/examples/ForTest/InputFiles/cold_water_temperature_stockholm.txt,    !- File Name
    1,                        !- Column Number
    0,                        !- Rows to Skip at Top
    8760,                     !- Number of Hours of Data
    Comma,                    !- Column Separator
    No;                       !- Interpolate to Timestep

MATERIAL,
    DefaultMaterial,          !- Name
    Rough,                    !- Roughness
    0.1,                      !- Thickness
    0.1,                      !- Conductivity
    1000,                     !- Density
    1000,                     !- Specific Heat
    0.9,                      !- Thermal Absorptance
    0.7,                      !- Solar Absorptance
    0.7;                      !- Visible Absorptance

MATERIAL,
    Basement Floor,           !- Name
    Rough,                    !- Roughness
    0.1,                      !- Thickness
    0.9,                      !- Conductivity
    2300,                     !- Density
    1000,                     !- Specific Heat
    0.9,                      !- Thermal Absorptance
    0.7,                      !- Solar Absorptance
    0.7;                      !- Visible Absorptance

MATERIAL,
    Heated1rstFloor Inertia,    !- Name
    Rough,                    !- Roughness
    0.1,                      !- Thickness
    0.9,                      !- Conductivity
    2300,                     !- Density
    1000,                     !- Specific Heat
    0.9,                      !- Thermal Absorptance
    0.7,                      !- Solar Absorptance
    0.7;                      !- Visible Absorptance

MATERIAL,
    Heated1rstFloor Insulation,    !- Name
    Rough,                    !- Roughness
    0.15,                     !- Thickness
    0.035,                    !- Conductivity
    150,                      !- Density
    1000,                     !- Specific Heat
    0.9,                      !- Thermal Absorptance
    0.7,                      !- Solar Absorptance
    0.7;                      !- Visible Absorptance

MATERIAL,
    Roof Insulation,          !- Name
    Rough,                    !- Roughness
    0.3,                      !- Thickness
    0.03,                     !- Conductivity
    150,                      !- Density
    1000,                     !- Specific Heat
    0.9,                      !- Thermal Absorptance
    0.7,                      !- Solar Absorptance
    0.7;                      !- Visible Absorptance

MATERIAL,
    Wall Inertia,             !- Name
    Rough,                    !- Roughness
    0.2,                      !- Thickness
    0.9,                      !- Conductivity
    2300,                     !- Density
    1000,                     !- Specific Heat
    0.9,                      !- Thermal Absorptance
    0.7,                      !- Solar Absorptance
    0.7;                      !- Visible Absorptance

MATERIAL,
    Wall Insulation,          !- Name
    Rough,                    !- Roughness
    0.2,                      !- Thickness
    0.03,                     !- Conductivity
    150,                      !- Density
    1000,                     !- Specific Heat
    0.9,                      !- Thermal Absorptance
    0.7,                      !- Solar Absorptance
    0.7;                      !- Visible Absorptance

MATERIAL,
    HeatedZoneIntMass,        !- Name
    Rough,                    !- Roughness
    0.1,                      !- Thickness
    0.3,                      !- Conductivity
    600,                      !- Density
    1400,                     !- Specific Heat
    0.9,                      !- Thermal Absorptance
    0.7,                      !- Solar Absorptance
    0.7;                      !- Visible Absorptance

MATERIAL,
    AirWallMaterial,          !- Name
    MediumSmooth,             !- Roughness
    0.01,                     !- Thickness
    0.6,                      !- Conductivity
    800,                      !- Density
    1000,                     !- Specific Heat
    0.95,                     !- Thermal Absorptance
    0.7,                      !- Solar Absorptance
    0.7;                      !- Visible Absorptance

WINDOWMATERIAL:SIMPLEGLAZINGSYSTEM,
    DefaultGlazing,           !- Name
    2.7,                      !- UFactor
    0.763,                    !- Solar Heat Gain Coefficient
    0.8;                      !- Visible Transmittance

WINDOWMATERIAL:SIMPLEGLAZINGSYSTEM,
    Window,                   !- Name
    1.9,                      !- UFactor
    0.7,                      !- Solar Heat Gain Coefficient
    0.8;                      !- Visible Transmittance

CONSTRUCTION,
    Project Wall,             !- Name
    Wall Inertia,             !- Outside Layer
    Wall Insulation;          !- Layer 2

CONSTRUCTION,
    Project Flat Roof,        !- Name
    Roof Insulation;          !- Outside Layer

CONSTRUCTION,
    Project External Window,    !- Name
    Window;                   !- Outside Layer

CONSTRUCTION,
    Project Heated1rstFloor,    !- Name
    Heated1rstFloor Inertia,    !- Outside Layer
    Heated1rstFloor Insulation;    !- Layer 2

CONSTRUCTION,
    HeatedZoneIntMassObj,     !- Name
    HeatedZoneIntMass;        !- Outside Layer

GlobalGeometryRules,
    UpperLeftCorner,          !- Starting Vertex Position
    CounterClockWise,         !- Vertex Entry Direction
    World;                    !- Coordinate System

ZONE,
    Block Build0_Alt0 Storey 0,    !- Name
    0,                        !- Direction of Relative North
    0,                        !- X Origin
    0,                        !- Y Origin
    0,                        !- Z Origin
    1,                        !- Type
    1,                        !- Multiplier
    autocalculate,            !- Ceiling Height
    autocalculate,            !- Volume
    autocalculate,            !- Floor Area
    ,                         !- Zone Inside Convection Algorithm
    ,                         !- Zone Outside Convection Algorithm
    Yes;                      !- Part of Total Floor Area

BUILDINGSURFACE:DETAILED,
    Block Build0_Alt0 Storey 0 Wall 0001,    !- Name
    wall,                     !- Surface Type
    Project Wall,             !- Construction Name
    Block Build0_Alt0 Storey 0,    !- Zone Name
    outdoors,                 !- Outside Boundary Condition
    ,                         !- Outside Boundary Condition Object
    SunExposed,               !- Sun Exposure
    WindExposed,              !- Wind Exposure
    autocalculate,            !- View Factor to Ground
    autocalculate,            !- Number of Vertices
    -10.8212,                 !- Vertex 1 Xcoordinate
    4.3006,                   !- Vertex 1 Ycoordinate
    6,                        !- Vertex 1 Zcoordinate
    -10.8212,                 !- Vertex 2 Xcoordinate
    4.3006,                   !- Vertex 2 Ycoordinate
    0,                        !- Vertex 2 Zcoordinate
    11.8088,                  !- Vertex 3 Xcoordinate
    -7.6684,                  !- Vertex 3 Ycoordinate
    0,                        !- Vertex 3 Zcoordinate
    11.8088,                  !- Vertex 4 Xcoordinate
    -7.6684,                  !- Vertex 4 Ycoordinate
    6;                        !- Vertex 4 Zcoordinate

BUILDINGSURFACE:DETAILED,
    Block Build0_Alt0 Storey 0 Wall 0002,    !- Name
    wall,                     !- Surface Type
    Project Wall,             !- Construction Name
    Block Build0_Alt0 Storey 0,    !- Zone Name
    outdoors,                 !- Outside Boundary Condition
    ,                         !- Outside Boundary Condition Object
    SunExposed,               !- Sun Exposure
    WindExposed,              !- Wind Exposure
    autocalculate,            !- View Factor to Ground
    autocalculate,            !- Number of Vertices
    11.8088,                  !- Vertex 1 Xcoordinate
    -7.6684,                  !- Vertex 1 Ycoordinate
    6,                        !- Vertex 1 Zcoordinate
    11.8088,                  !- Vertex 2 Xcoordinate
    -7.6684,                  !- Vertex 2 Ycoordinate
    0,                        !- Vertex 2 Zcoordinate
    16.5898,                  !- Vertex 3 Xcoordinate
    1.3426,                   !- Vertex 3 Ycoordinate
    0,                        !- Vertex 3 Zcoordinate
    16.5898,                  !- Vertex 4 Xcoordinate
    1.3426,                   !- Vertex 4 Ycoordinate
    6;                        !- Vertex 4 Zcoordinate

BUILDINGSURFACE:DETAILED,
    Block Build0_Alt0 Storey 0 Wall 0003,    !- Name
    wall,                     !- Surface Type
    Project Wall,             !- Construction Name
    Block Build0_Alt0 Storey 0,    !- Zone Name
    outdoors,                 !- Outside Boundary Condition
    ,                         !- Outside Boundary Condition Object
    SunExposed,               !- Sun Exposure
    WindExposed,              !- Wind Exposure
    autocalculate,            !- View Factor to Ground
    autocalculate,            !- Number of Vertices
    16.5898,                  !- Vertex 1 Xcoordinate
    1.3426,                   !- Vertex 1 Ycoordinate
    6,                        !- Vertex 1 Zcoordinate
    16.5898,                  !- Vertex 2 Xcoordinate
    1.3426,                   !- Vertex 2 Ycoordinate
    0,                        !- Vertex 2 Zcoordinate
    -6.0292,                  !- Vertex 3 Xcoordinate
    13.4386,                  !- Vertex 3 Ycoordinate
    0,                        !- Vertex 3 Zcoordinate
    -6.0292,                  !- Vertex 4 Xcoordinate
    13.4386,                  !- Vertex 4 Ycoordinate
    6;                        !- Vertex 4 Zcoordinate

BUILDINGSURFACE:DETAILED,
    Block Build0_Alt0 Storey 0 Wall 0004,    !- Name
    wall,                     !- Surface Type
    Project Wall,             !- Construction Name
    Block Build0_Alt0 Storey 0,    !- Zone Name
    outdoors,                 !- Outside Boundary Condition
    ,                         !- Outside Boundary Condition Object
    SunExposed,               !- Sun Exposure
    WindExposed,              !- Wind Exposure
    autocalculate,            !- View Factor to Ground
    autocalculate,            !- Number of Vertices
    -6.0292,                  !- Vertex 1 Xcoordinate
    13.4386,                  !- Vertex 1 Ycoordinate
    6,                        !- Vertex 1 Zcoordinate
    -6.0292,                  !- Vertex 2 Xcoordinate
    13.4386,                  !- Vertex 2 Ycoordinate
    0,                        !- Vertex 2 Zcoordinate
    -10.8212,                 !- Vertex 3 Xcoordinate
    4.3006,                   !- Vertex 3 Ycoordinate
    0,                        !- Vertex 3 Zcoordinate
    -10.8212,                 !- Vertex 4 Xcoordinate
    4.3006,                   !- Vertex 4 Ycoordinate
    6;                        !- Vertex 4 Zcoordinate

BUILDINGSURFACE:DETAILED,
    Block Build0_Alt0 Storey 0 Floor 0001,    !- Name
    floor,                    !- Surface Type
    Project Heated1rstFloor,    !- Construction Name
    Block Build0_Alt0 Storey 0,    !- Zone Name
    ground,                   !- Outside Boundary Condition
    ,                         !- Outside Boundary Condition Object
    NoSun,                    !- Sun Exposure
    NoWind,                   !- Wind Exposure
    autocalculate,            !- View Factor to Ground
    autocalculate,            !- Number of Vertices
    16.5898,                  !- Vertex 1 Xcoordinate
    1.3426,                   !- Vertex 1 Ycoordinate
    0,                        !- Vertex 1 Zcoordinate
    11.8088,                  !- Vertex 2 Xcoordinate
    -7.6684,                  !- Vertex 2 Ycoordinate
    0,                        !- Vertex 2 Zcoordinate
    -10.8212,                 !- Vertex 3 Xcoordinate
    4.3006,                   !- Vertex 3 Ycoordinate
    0,                        !- Vertex 3 Zcoordinate
    -6.0292,                  !- Vertex 4 Xcoordinate
    13.4386,                  !- Vertex 4 Ycoordinate
    0;                        !- Vertex 4 Zcoordinate

BUILDINGSURFACE:DETAILED,
    Block Build0_Alt0 Storey 0 Roof 0001,    !- Name
    roof,                     !- Surface Type
    Project Flat Roof,        !- Construction Name
    Block Build0_Alt0 Storey 0,    !- Zone Name
    outdoors,                 !- Outside Boundary Condition
    ,                         !- Outside Boundary Condition Object
    SunExposed,               !- Sun Exposure
    WindExposed,              !- Wind Exposure
    autocalculate,            !- View Factor to Ground
    autocalculate,            !- Number of Vertices
    11.8088,                  !- Vertex 1 Xcoordinate
    -7.6684,                  !- Vertex 1 Ycoordinate
    6,                        !- Vertex 1 Zcoordinate
    16.5898,                  !- Vertex 2 Xcoordinate
    1.3426,                   !- Vertex 2 Ycoordinate
    6,                        !- Vertex 2 Zcoordinate
    -6.0292,                  !- Vertex 3 Xcoordinate
    13.4386,                  !- Vertex 3 Ycoordinate
    6,                        !- Vertex 3 Zcoordinate
    -10.8212,                 !- Vertex 4 Xcoordinate
    4.3006,                   !- Vertex 4 Ycoordinate
    6;                        !- Vertex 4 Zcoordinate

FENESTRATIONSURFACE:DETAILED,
    Block Build0_Alt0 Storey 0 Wall 0001 window,    !- Name
    Window,                   !- Surface Type
    Project External Window,    !- Construction Name
    Block Build0_Alt0 Storey 0 Wall 0001,    !- Building Surface Name
    ,                         !- Outside Boundary Condition Object
    autocalculate,            !- View Factor to Ground
    ,                         !- Frame and Divider Name
    1.0,                      !- Multiplier
    autocalculate,            !- Number of Vertices
    -10.809885,               !- Vertex 1 Xcoordinate
    4.294615500000001,        !- Vertex 1 Ycoordinate
    3.9,                      !- Vertex 1 Zcoordinate
    -10.809885,               !- Vertex 2 Xcoordinate
    4.294615500000001,        !- Vertex 2 Ycoordinate
    2.1,                      !- Vertex 2 Zcoordinate
    11.797485,                !- Vertex 3 Xcoordinate
    -7.6624155,               !- Vertex 3 Ycoordinate
    2.1,                      !- Vertex 3 Zcoordinate
    11.797485,                !- Vertex 4 Xcoordinate
    -7.6624155,               !- Vertex 4 Ycoordinate
    3.9;                      !- Vertex 4 Zcoordinate

FENESTRATIONSURFACE:DETAILED,
    Block Build0_Alt0 Storey 0 Wall 0002 window,    !- Name
    Window,                   !- Surface Type
    Project External Window,    !- Construction Name
    Block Build0_Alt0 Storey 0 Wall 0002,    !- Building Surface Name
    ,                         !- Outside Boundary Condition Object
    autocalculate,            !- View Factor to Ground
    ,                         !- Frame and Divider Name
    1.0,                      !- Multiplier
    autocalculate,            !- Number of Vertices
    11.8111905,               !- Vertex 1 Xcoordinate
    -7.663895e+00,            !- Vertex 1 Ycoordinate
    3.9,                      !- Vertex 1 Zcoordinate
    11.8111905,               !- Vertex 2 Xcoordinate
    -7.663895e+00,            !- Vertex 2 Ycoordinate
    2.1,                      !- Vertex 2 Zcoordinate
    16.5874095,               !- Vertex 3 Xcoordinate
    1.3380945000000004,       !- Vertex 3 Ycoordinate
    2.1,                      !- Vertex 3 Zcoordinate
    16.5874095,               !- Vertex 4 Xcoordinate
    1.3380945000000004,       !- Vertex 4 Ycoordinate
    3.9;                      !- Vertex 4 Zcoordinate

FENESTRATIONSURFACE:DETAILED,
    Block Build0_Alt0 Storey 0 Wall 0003 window,    !- Name
    Window,                   !- Surface Type
    Project External Window,    !- Construction Name
    Block Build0_Alt0 Storey 0 Wall 0003,    !- Building Surface Name
    ,                         !- Outside Boundary Condition Object
    autocalculate,            !- View Factor to Ground
    ,                         !- Frame and Divider Name
    1.0,                      !- Multiplier
    autocalculate,            !- Number of Vertices
    16.5784905,               !- Vertex 1 Xcoordinate
    1.3486479999999998,       !- Vertex 1 Ycoordinate
    3.9,                      !- Vertex 1 Zcoordinate
    16.5784905,               !- Vertex 2 Xcoordinate
    1.3486479999999998,       !- Vertex 2 Ycoordinate
    2.1,                      !- Vertex 2 Zcoordinate
    -6.0178905,               !- Vertex 3 Xcoordinate
    13.432552,                !- Vertex 3 Ycoordinate
    2.1,                      !- Vertex 3 Zcoordinate
    -6.0178905,               !- Vertex 4 Xcoordinate
    13.432552,                !- Vertex 4 Ycoordinate
    3.9;                      !- Vertex 4 Zcoordinate

FENESTRATIONSURFACE:DETAILED,
    Block Build0_Alt0 Storey 0 Wall 0004 window,    !- Name
    Window,                   !- Surface Type
    Project External Window,    !- Construction Name
    Block Build0_Alt0 Storey 0 Wall 0004,    !- Building Surface Name
    ,                         !- Outside Boundary Condition Object
    autocalculate,            !- View Factor to Ground
    ,                         !- Frame and Divider Name
    1.0,                      !- Multiplier
    autocalculate,            !- Number of Vertices
    -6.031596,                !- Vertex 1 Xcoordinate
    13.434031,                !- Vertex 1 Ycoordinate
    3.9,                      !- Vertex 1 Zcoordinate
    -6.031596,                !- Vertex 2 Xcoordinate
    13.434031,                !- Vertex 2 Ycoordinate
    2.1,                      !- Vertex 2 Zcoordinate
    -10.818804,               !- Vertex 3 Xcoordinate
    4.305169,                 !- Vertex 3 Ycoordinate
    2.1,                      !- Vertex 3 Zcoordinate
    -10.818804,               !- Vertex 4 Xcoordinate
    4.305169,                 !- Vertex 4 Ycoordinate
    3.9;                      !- Vertex 4 Zcoordinate

INTERNALMASS,
    Block Build0_Alt0 Storey 0IntMass,    !- Name
    HeatedZoneIntMassObj,     !- Construction Name
    Block Build0_Alt0 Storey 0,    !- Zone or ZoneList Name
    1052;                     !- Surface Area

SHADING:SITE:DETAILED,
    Shading_V289_1,           !- Name
    ,                         !- Transmittance Schedule Name
    autocalculate,            !- Number of Vertices
    86.7908,                  !- Vertex 1 Xcoordinate
    -45.7424,                 !- Vertex 1 Ycoordinate
    7.8,                      !- Vertex 1 Zcoordinate
    86.7908,                  !- Vertex 2 Xcoordinate
    -45.7424,                 !- Vertex 2 Ycoordinate
    0,                        !- Vertex 2 Zcoordinate
    78.2448,                  !- Vertex 3 Xcoordinate
    -47.7884,                 !- Vertex 3 Ycoordinate
    0,                        !- Vertex 3 Zcoordinate
    78.2448,                  !- Vertex 4 Xcoordinate
    -47.7884,                 !- Vertex 4 Ycoordinate
    7.8;                      !- Vertex 4 Zcoordinate

SHADING:SITE:DETAILED,
    Shading_V290_1,           !- Name
    ,                         !- Transmittance Schedule Name
    autocalculate,            !- Number of Vertices
    78.2448,                  !- Vertex 1 Xcoordinate
    -47.7884,                 !- Vertex 1 Ycoordinate
    7.8,                      !- Vertex 1 Zcoordinate
    78.2448,                  !- Vertex 2 Xcoordinate
    -47.7884,                 !- Vertex 2 Ycoordinate
    0,                        !- Vertex 2 Zcoordinate
    82.3148,                  !- Vertex 3 Xcoordinate
    -64.7774,                 !- Vertex 3 Ycoordinate
    0,                        !- Vertex 3 Zcoordinate
    82.3148,                  !- Vertex 4 Xcoordinate
    -64.7774,                 !- Vertex 4 Ycoordinate
    7.8;                      !- Vertex 4 Zcoordinate

SHADING:SITE:DETAILED,
    Shading_V449_1,           !- Name
    ,                         !- Transmittance Schedule Name
    autocalculate,            !- Number of Vertices
    46.9658,                  !- Vertex 1 Xcoordinate
    -40.2924,                 !- Vertex 1 Ycoordinate
    6.4,                      !- Vertex 1 Zcoordinate
    46.9658,                  !- Vertex 2 Xcoordinate
    -40.2924,                 !- Vertex 2 Ycoordinate
    0,                        !- Vertex 2 Zcoordinate
    36.9488,                  !- Vertex 3 Xcoordinate
    -42.6934,                 !- Vertex 3 Ycoordinate
    0,                        !- Vertex 3 Zcoordinate
    36.9488,                  !- Vertex 4 Xcoordinate
    -42.6934,                 !- Vertex 4 Ycoordinate
    6.4;                      !- Vertex 4 Zcoordinate

SHADING:SITE:DETAILED,
    Shading_V450_1,           !- Name
    ,                         !- Transmittance Schedule Name
    autocalculate,            !- Number of Vertices
    36.9488,                  !- Vertex 1 Xcoordinate
    -42.6934,                 !- Vertex 1 Ycoordinate
    6.4,                      !- Vertex 1 Zcoordinate
    36.9488,                  !- Vertex 2 Xcoordinate
    -42.6934,                 !- Vertex 2 Ycoordinate
    0,                        !- Vertex 2 Zcoordinate
    43.7578,                  !- Vertex 3 Xcoordinate
    -70.8774,                 !- Vertex 3 Ycoordinate
    0,                        !- Vertex 3 Zcoordinate
    43.7578,                  !- Vertex 4 Xcoordinate
    -70.8774,                 !- Vertex 4 Ycoordinate
    6.4;                      !- Vertex 4 Zcoordinate

SHADING:SITE:DETAILED,
    Shading_V13_1,            !- Name
    ,                         !- Transmittance Schedule Name
    autocalculate,            !- Number of Vertices
    91.3938,                  !- Vertex 1 Xcoordinate
    71.4556,                  !- Vertex 1 Ycoordinate
    16.1,                     !- Vertex 1 Zcoordinate
    91.3938,                  !- Vertex 2 Xcoordinate
    71.4556,                  !- Vertex 2 Ycoordinate
    0,                        !- Vertex 2 Zcoordinate
    98.1518,                  !- Vertex 3 Xcoordinate
    63.9106,                  !- Vertex 3 Ycoordinate
    0,                        !- Vertex 3 Zcoordinate
    98.1518,                  !- Vertex 4 Xcoordinate
    63.9106,                  !- Vertex 4 Ycoordinate
    16.1;                     !- Vertex 4 Zcoordinate

SHADING:SITE:DETAILED,
    Shading_V18_1,            !- Name
    ,                         !- Transmittance Schedule Name
    autocalculate,            !- Number of Vertices
    150.0588,                 !- Vertex 1 Xcoordinate
    -35.8534,                 !- Vertex 1 Ycoordinate
    6.6,                      !- Vertex 1 Zcoordinate
    150.0588,                 !- Vertex 2 Xcoordinate
    -35.8534,                 !- Vertex 2 Ycoordinate
    0,                        !- Vertex 2 Zcoordinate
    140.4408,                 !- Vertex 3 Xcoordinate
    -39.5344,                 !- Vertex 3 Ycoordinate
    0,                        !- Vertex 3 Zcoordinate
    140.4408,                 !- Vertex 4 Xcoordinate
    -39.5344,                 !- Vertex 4 Ycoordinate
    6.6;                      !- Vertex 4 Zcoordinate

SHADING:SITE:DETAILED,
    Shading_V19_1,            !- Name
    ,                         !- Transmittance Schedule Name
    autocalculate,            !- Number of Vertices
    140.4408,                 !- Vertex 1 Xcoordinate
    -39.5344,                 !- Vertex 1 Ycoordinate
    6.6,                      !- Vertex 1 Zcoordinate
    140.4408,                 !- Vertex 2 Xcoordinate
    -39.5344,                 !- Vertex 2 Ycoordinate
    0,                        !- Vertex 2 Zcoordinate
    149.5938,                 !- Vertex 3 Xcoordinate
    -63.4804,                 !- Vertex 3 Ycoordinate
    0,                        !- Vertex 3 Zcoordinate
    149.5938,                 !- Vertex 4 Xcoordinate
    -63.4804,                 !- Vertex 4 Ycoordinate
    6.6;                      !- Vertex 4 Zcoordinate

SHADING:SITE:DETAILED,
    Shading_V61_1,            !- Name
    ,                         !- Transmittance Schedule Name
    autocalculate,            !- Number of Vertices
    173.6922,                 !- Vertex 1 Xcoordinate
    13.0421,                  !- Vertex 1 Ycoordinate
    11.6,                     !- Vertex 1 Zcoordinate
    173.6922,                 !- Vertex 2 Xcoordinate
    13.0421,                  !- Vertex 2 Ycoordinate
    0,                        !- Vertex 2 Zcoordinate
    178.6758,                 !- Vertex 3 Xcoordinate
    7.2956,                   !- Vertex 3 Ycoordinate
    0,                        !- Vertex 3 Zcoordinate
    178.6758,                 !- Vertex 4 Xcoordinate
    7.2956,                   !- Vertex 4 Ycoordinate
    11.6;                     !- Vertex 4 Zcoordinate

SHADING:SITE:DETAILED,
    Shading_V62_1,            !- Name
    ,                         !- Transmittance Schedule Name
    autocalculate,            !- Number of Vertices
    178.6758,                 !- Vertex 1 Xcoordinate
    7.2956,                   !- Vertex 1 Ycoordinate
    11.6,                     !- Vertex 1 Zcoordinate
    178.6758,                 !- Vertex 2 Xcoordinate
    7.2956,                   !- Vertex 2 Ycoordinate
    0,                        !- Vertex 2 Zcoordinate
    177.859,                  !- Vertex 3 Xcoordinate
    -3.4165,                  !- Vertex 3 Ycoordinate
    0,                        !- Vertex 3 Zcoordinate
    177.859,                  !- Vertex 4 Xcoordinate
    -3.4165,                  !- Vertex 4 Ycoordinate
    11.6;                     !- Vertex 4 Zcoordinate

SHADING:SITE:DETAILED,
    Shading_V85_1,            !- Name
    ,                         !- Transmittance Schedule Name
    autocalculate,            !- Number of Vertices
    53.2888,                  !- Vertex 1 Xcoordinate
    30.9966,                  !- Vertex 1 Ycoordinate
    8,                        !- Vertex 1 Zcoordinate
    53.2888,                  !- Vertex 2 Xcoordinate
    30.9966,                  !- Vertex 2 Ycoordinate
    0,                        !- Vertex 2 Zcoordinate
    60.0308,                  !- Vertex 3 Xcoordinate
    21.6486,                  !- Vertex 3 Ycoordinate
    0,                        !- Vertex 3 Zcoordinate
    60.0308,                  !- Vertex 4 Xcoordinate
    21.6486,                  !- Vertex 4 Ycoordinate
    8;                        !- Vertex 4 Zcoordinate

SHADING:SITE:DETAILED,
    Shading_V92_1,            !- Name
    ,                         !- Transmittance Schedule Name
    autocalculate,            !- Number of Vertices
    81.2789,                  !- Vertex 1 Xcoordinate
    120.7128,                 !- Vertex 1 Ycoordinate
    12,                       !- Vertex 1 Zcoordinate
    81.2789,                  !- Vertex 2 Xcoordinate
    120.7128,                 !- Vertex 2 Ycoordinate
    0,                        !- Vertex 2 Zcoordinate
    86.1418,                  !- Vertex 3 Xcoordinate
    115.2476,                 !- Vertex 3 Ycoordinate
    0,                        !- Vertex 3 Zcoordinate
    86.1418,                  !- Vertex 4 Xcoordinate
    115.2476,                 !- Vertex 4 Ycoordinate
    12;                       !- Vertex 4 Zcoordinate

SHADING:SITE:DETAILED,
    Shading_V93_1,            !- Name
    ,                         !- Transmittance Schedule Name
    autocalculate,            !- Number of Vertices
    86.1418,                  !- Vertex 1 Xcoordinate
    115.2476,                 !- Vertex 1 Ycoordinate
    12,                       !- Vertex 1 Zcoordinate
    86.1418,                  !- Vertex 2 Xcoordinate
    115.2476,                 !- Vertex 2 Ycoordinate
    0,                        !- Vertex 2 Zcoordinate
    85.4965,                  !- Vertex 3 Xcoordinate
    106.492,                  !- Vertex 3 Ycoordinate
    0,                        !- Vertex 3 Zcoordinate
    85.4965,                  !- Vertex 4 Xcoordinate
    106.492,                  !- Vertex 4 Ycoordinate
    12;                       !- Vertex 4 Zcoordinate

SHADING:SITE:DETAILED,
    Shading_V169_1,           !- Name
    ,                         !- Transmittance Schedule Name
    autocalculate,            !- Number of Vertices
    62.6278,                  !- Vertex 1 Xcoordinate
    68.5536,                  !- Vertex 1 Ycoordinate
    9,                        !- Vertex 1 Zcoordinate
    62.6278,                  !- Vertex 2 Xcoordinate
    68.5536,                  !- Vertex 2 Ycoordinate
    0,                        !- Vertex 2 Zcoordinate
    71.7228,                  !- Vertex 3 Xcoordinate
    54.1176,                  !- Vertex 3 Ycoordinate
    0,                        !- Vertex 3 Zcoordinate
    71.7228,                  !- Vertex 4 Xcoordinate
    54.1176,                  !- Vertex 4 Ycoordinate
    9;                        !- Vertex 4 Zcoordinate

SHADING:SITE:DETAILED,
    Shading_V170_1,           !- Name
    ,                         !- Transmittance Schedule Name
    autocalculate,            !- Number of Vertices
    71.7228,                  !- Vertex 1 Xcoordinate
    54.1176,                  !- Vertex 1 Ycoordinate
    9,                        !- Vertex 1 Zcoordinate
    71.7228,                  !- Vertex 2 Xcoordinate
    54.1176,                  !- Vertex 2 Ycoordinate
    0,                        !- Vertex 2 Zcoordinate
    80.2288,                  !- Vertex 3 Xcoordinate
    59.3586,                  !- Vertex 3 Ycoordinate
    0,                        !- Vertex 3 Zcoordinate
    80.2288,                  !- Vertex 4 Xcoordinate
    59.3586,                  !- Vertex 4 Ycoordinate
    9;                        !- Vertex 4 Zcoordinate

SHADING:SITE:DETAILED,
    Shading_V172_1,           !- Name
    ,                         !- Transmittance Schedule Name
    autocalculate,            !- Number of Vertices
    130.4012,                 !- Vertex 1 Xcoordinate
    63.3872,                  !- Vertex 1 Ycoordinate
    19.2,                     !- Vertex 1 Zcoordinate
    130.4012,                 !- Vertex 2 Xcoordinate
    63.3872,                  !- Vertex 2 Ycoordinate
    0,                        !- Vertex 2 Zcoordinate
    135.5738,                 !- Vertex 3 Xcoordinate
    57.3666,                  !- Vertex 3 Ycoordinate
    0,                        !- Vertex 3 Zcoordinate
    135.5738,                 !- Vertex 4 Xcoordinate
    57.3666,                  !- Vertex 4 Ycoordinate
    19.2;                     !- Vertex 4 Zcoordinate

SHADING:SITE:DETAILED,
    Shading_V173_1,           !- Name
    ,                         !- Transmittance Schedule Name
    autocalculate,            !- Number of Vertices
    135.5738,                 !- Vertex 1 Xcoordinate
    57.3666,                  !- Vertex 1 Ycoordinate
    19.2,                     !- Vertex 1 Zcoordinate
    135.5738,                 !- Vertex 2 Xcoordinate
    57.3666,                  !- Vertex 2 Ycoordinate
    0,                        !- Vertex 2 Zcoordinate
    128.3988,                 !- Vertex 3 Xcoordinate
    51.2456,                  !- Vertex 3 Ycoordinate
    0,                        !- Vertex 3 Zcoordinate
    128.3988,                 !- Vertex 4 Xcoordinate
    51.2456,                  !- Vertex 4 Ycoordinate
    19.2;                     !- Vertex 4 Zcoordinate

SHADING:SITE:DETAILED,
    Shading_V174_1,           !- Name
    ,                         !- Transmittance Schedule Name
    autocalculate,            !- Number of Vertices
    128.3988,                 !- Vertex 1 Xcoordinate
    51.2456,                  !- Vertex 1 Ycoordinate
    19.2,                     !- Vertex 1 Zcoordinate
    128.3988,                 !- Vertex 2 Xcoordinate
    51.2456,                  !- Vertex 2 Ycoordinate
    0,                        !- Vertex 2 Zcoordinate
    136.7018,                 !- Vertex 3 Xcoordinate
    41.6186,                  !- Vertex 3 Ycoordinate
    0,                        !- Vertex 3 Zcoordinate
    136.7018,                 !- Vertex 4 Xcoordinate
    41.6186,                  !- Vertex 4 Ycoordinate
    19.2;                     !- Vertex 4 Zcoordinate

SHADING:SITE:DETAILED,
    Shading_V310_1,           !- Name
    ,                         !- Transmittance Schedule Name
    autocalculate,            !- Number of Vertices
    152.4608,                 !- Vertex 1 Xcoordinate
    23.2446,                  !- Vertex 1 Ycoordinate
    18.8,                     !- Vertex 1 Zcoordinate
    152.4608,                 !- Vertex 2 Xcoordinate
    23.2446,                  !- Vertex 2 Ycoordinate
    0,                        !- Vertex 2 Zcoordinate
    160.7758,                 !- Vertex 3 Xcoordinate
    13.5746,                  !- Vertex 3 Ycoordinate
    0,                        !- Vertex 3 Zcoordinate
    160.7758,                 !- Vertex 4 Xcoordinate
    13.5746,                  !- Vertex 4 Ycoordinate
    18.8;                     !- Vertex 4 Zcoordinate

SHADING:SITE:DETAILED,
    Shading_V453_1,           !- Name
    ,                         !- Transmittance Schedule Name
    autocalculate,            !- Number of Vertices
    177.859,                  !- Vertex 1 Xcoordinate
    -3.4165,                  !- Vertex 1 Ycoordinate
    18.8,                     !- Vertex 1 Zcoordinate
    177.859,                  !- Vertex 2 Xcoordinate
    -3.4165,                  !- Vertex 2 Ycoordinate
    0,                        !- Vertex 2 Zcoordinate
    177.2608,                 !- Vertex 3 Xcoordinate
    -11.2614,                 !- Vertex 3 Ycoordinate
    0,                        !- Vertex 3 Zcoordinate
    177.2608,                 !- Vertex 4 Xcoordinate
    -11.2614,                 !- Vertex 4 Ycoordinate
    18.8;                     !- Vertex 4 Zcoordinate

SHADING:SITE:DETAILED,
    Shading_V455_1,           !- Name
    ,                         !- Transmittance Schedule Name
    autocalculate,            !- Number of Vertices
    167.8428,                 !- Vertex 1 Xcoordinate
    -10.5604,                 !- Vertex 1 Ycoordinate
    18.8,                     !- Vertex 1 Zcoordinate
    167.8428,                 !- Vertex 2 Xcoordinate
    -10.5604,                 !- Vertex 2 Ycoordinate
    0,                        !- Vertex 2 Zcoordinate
    166.8978,                 !- Vertex 3 Xcoordinate
    -23.1854,                 !- Vertex 3 Ycoordinate
    0,                        !- Vertex 3 Zcoordinate
    166.8978,                 !- Vertex 4 Xcoordinate
    -23.1854,                 !- Vertex 4 Ycoordinate
    18.8;                     !- Vertex 4 Zcoordinate

SHADING:SITE:DETAILED,
    Shading_V457_1,           !- Name
    ,                         !- Transmittance Schedule Name
    autocalculate,            !- Number of Vertices
    176.2898,                 !- Vertex 1 Xcoordinate
    -23.8994,                 !- Vertex 1 Ycoordinate
    18.8,                     !- Vertex 1 Zcoordinate
    176.2898,                 !- Vertex 2 Xcoordinate
    -23.8994,                 !- Vertex 2 Ycoordinate
    0,                        !- Vertex 2 Zcoordinate
    175.7738,                 !- Vertex 3 Xcoordinate
    -31.5314,                 !- Vertex 3 Ycoordinate
    0,                        !- Vertex 3 Zcoordinate
    175.7738,                 !- Vertex 4 Xcoordinate
    -31.5314,                 !- Vertex 4 Ycoordinate
    18.8;                     !- Vertex 4 Zcoordinate

SHADING:SITE:DETAILED,
    Shading_V504_1,           !- Name
    ,                         !- Transmittance Schedule Name
    autocalculate,            !- Number of Vertices
    102.3968,                 !- Vertex 1 Xcoordinate
    29.8366,                  !- Vertex 1 Ycoordinate
    8.3,                      !- Vertex 1 Zcoordinate
    102.3968,                 !- Vertex 2 Xcoordinate
    29.8366,                  !- Vertex 2 Ycoordinate
    0,                        !- Vertex 2 Zcoordinate
    94.9848,                  !- Vertex 3 Xcoordinate
    22.3796,                  !- Vertex 3 Ycoordinate
    0,                        !- Vertex 3 Zcoordinate
    94.9848,                  !- Vertex 4 Xcoordinate
    22.3796,                  !- Vertex 4 Ycoordinate
    8.3;                      !- Vertex 4 Zcoordinate

SHADING:SITE:DETAILED,
    Shading_V505_1,           !- Name
    ,                         !- Transmittance Schedule Name
    autocalculate,            !- Number of Vertices
    94.9848,                  !- Vertex 1 Xcoordinate
    22.3796,                  !- Vertex 1 Ycoordinate
    8.3,                      !- Vertex 1 Zcoordinate
    94.9848,                  !- Vertex 2 Xcoordinate
    22.3796,                  !- Vertex 2 Ycoordinate
    0,                        !- Vertex 2 Zcoordinate
    103.1058,                 !- Vertex 3 Xcoordinate
    14.2056,                  !- Vertex 3 Ycoordinate
    0,                        !- Vertex 3 Zcoordinate
    103.1058,                 !- Vertex 4 Xcoordinate
    14.2056,                  !- Vertex 4 Ycoordinate
    8.3;                      !- Vertex 4 Zcoordinate

SHADING:SITE:DETAILED,
    Shading_V0_1,             !- Name
    ,                         !- Transmittance Schedule Name
    autocalculate,            !- Number of Vertices
    85.4965,                  !- Vertex 1 Xcoordinate
    106.492,                  !- Vertex 1 Ycoordinate
    15.8,                     !- Vertex 1 Zcoordinate
    85.4965,                  !- Vertex 2 Xcoordinate
    106.492,                  !- Vertex 2 Ycoordinate
    0,                        !- Vertex 2 Zcoordinate
    84.7848,                  !- Vertex 3 Xcoordinate
    96.8296,                  !- Vertex 3 Ycoordinate
    0,                        !- Vertex 3 Zcoordinate
    84.7848,                  !- Vertex 4 Xcoordinate
    96.8296,                  !- Vertex 4 Ycoordinate
    15.8;                     !- Vertex 4 Zcoordinate

SHADING:SITE:DETAILED,
    Shading_V15_1,            !- Name
    ,                         !- Transmittance Schedule Name
    autocalculate,            !- Number of Vertices
    106.7588,                 !- Vertex 1 Xcoordinate
    71.2776,                  !- Vertex 1 Ycoordinate
    16.1,                     !- Vertex 1 Zcoordinate
    106.7588,                 !- Vertex 2 Xcoordinate
    71.2776,                  !- Vertex 2 Ycoordinate
    0,                        !- Vertex 2 Zcoordinate
    116.5769,                 !- Vertex 3 Xcoordinate
    70.5387,                  !- Vertex 3 Ycoordinate
    0,                        !- Vertex 3 Zcoordinate
    116.5769,                 !- Vertex 4 Xcoordinate
    70.5387,                  !- Vertex 4 Ycoordinate
    16.1;                     !- Vertex 4 Zcoordinate

SHADING:SITE:DETAILED,
    Shading_V25_1,            !- Name
    ,                         !- Transmittance Schedule Name
    autocalculate,            !- Number of Vertices
    46.8318,                  !- Vertex 1 Xcoordinate
    68.7276,                  !- Vertex 1 Ycoordinate
    9,                        !- Vertex 1 Zcoordinate
    46.8318,                  !- Vertex 2 Xcoordinate
    68.7276,                  !- Vertex 2 Ycoordinate
    0,                        !- Vertex 2 Zcoordinate
    55.5648,                  !- Vertex 3 Xcoordinate
    74.1436,                  !- Vertex 3 Ycoordinate
    0,                        !- Vertex 3 Zcoordinate
    55.5648,                  !- Vertex 4 Xcoordinate
    74.1436,                  !- Vertex 4 Ycoordinate
    9;                        !- Vertex 4 Zcoordinate

SHADING:SITE:DETAILED,
    Shading_V28_1,            !- Name
    ,                         !- Transmittance Schedule Name
    autocalculate,            !- Number of Vertices
    37.6658,                  !- Vertex 1 Xcoordinate
    83.5436,                  !- Vertex 1 Ycoordinate
    9,                        !- Vertex 1 Zcoordinate
    37.6658,                  !- Vertex 2 Xcoordinate
    83.5436,                  !- Vertex 2 Ycoordinate
    0,                        !- Vertex 2 Zcoordinate
    46.8318,                  !- Vertex 3 Xcoordinate
    68.7276,                  !- Vertex 3 Ycoordinate
    0,                        !- Vertex 3 Zcoordinate
    46.8318,                  !- Vertex 4 Xcoordinate
    68.7276,                  !- Vertex 4 Ycoordinate
    9;                        !- Vertex 4 Zcoordinate

SHADING:SITE:DETAILED,
    Shading_V84_1,            !- Name
    ,                         !- Transmittance Schedule Name
    autocalculate,            !- Number of Vertices
    61.8158,                  !- Vertex 1 Xcoordinate
    37.1666,                  !- Vertex 1 Ycoordinate
    8,                        !- Vertex 1 Zcoordinate
    61.8158,                  !- Vertex 2 Xcoordinate
    37.1666,                  !- Vertex 2 Ycoordinate
    0,                        !- Vertex 2 Zcoordinate
    53.2888,                  !- Vertex 3 Xcoordinate
    30.9966,                  !- Vertex 3 Ycoordinate
    0,                        !- Vertex 3 Zcoordinate
    53.2888,                  !- Vertex 4 Xcoordinate
    30.9966,                  !- Vertex 4 Ycoordinate
    8;                        !- Vertex 4 Zcoordinate

SHADING:SITE:DETAILED,
    Shading_V345_1,           !- Name
    ,                         !- Transmittance Schedule Name
    autocalculate,            !- Number of Vertices
    -62.7062,                 !- Vertex 1 Xcoordinate
    124.0616,                 !- Vertex 1 Ycoordinate
    9.8,                      !- Vertex 1 Zcoordinate
    -62.7062,                 !- Vertex 2 Xcoordinate
    124.0616,                 !- Vertex 2 Ycoordinate
    0,                        !- Vertex 2 Zcoordinate
    -30.9872,                 !- Vertex 3 Xcoordinate
    105.8116,                 !- Vertex 3 Ycoordinate
    0,                        !- Vertex 3 Zcoordinate
    -30.9872,                 !- Vertex 4 Xcoordinate
    105.8116,                 !- Vertex 4 Ycoordinate
    9.8;                      !- Vertex 4 Zcoordinate

SHADING:SITE:DETAILED,
    Shading_V347_1,           !- Name
    ,                         !- Transmittance Schedule Name
    autocalculate,            !- Number of Vertices
    116.5769,                 !- Vertex 1 Xcoordinate
    70.5387,                  !- Vertex 1 Ycoordinate
    12.2,                     !- Vertex 1 Zcoordinate
    116.5769,                 !- Vertex 2 Xcoordinate
    70.5387,                  !- Vertex 2 Ycoordinate
    0,                        !- Vertex 2 Zcoordinate
    124.7878,                 !- Vertex 3 Xcoordinate
    69.9206,                  !- Vertex 3 Ycoordinate
    0,                        !- Vertex 3 Zcoordinate
    124.7878,                 !- Vertex 4 Xcoordinate
    69.9206,                  !- Vertex 4 Ycoordinate
    12.2;                     !- Vertex 4 Zcoordinate

SHADING:SITE:DETAILED,
    Shading_V379_1,           !- Name
    ,                         !- Transmittance Schedule Name
    autocalculate,            !- Number of Vertices
    -7.4032,                  !- Vertex 1 Xcoordinate
    40.8666,                  !- Vertex 1 Ycoordinate
    8.6,                      !- Vertex 1 Zcoordinate
    -7.4032,                  !- Vertex 2 Xcoordinate
    40.8666,                  !- Vertex 2 Ycoordinate
    0,                        !- Vertex 2 Zcoordinate
    6.5108,                   !- Vertex 3 Xcoordinate
    22.5976,                  !- Vertex 3 Ycoordinate
    0,                        !- Vertex 3 Zcoordinate
    6.5108,                   !- Vertex 4 Xcoordinate
    22.5976,                  !- Vertex 4 Ycoordinate
    8.6;                      !- Vertex 4 Zcoordinate

SHADING:SITE:DETAILED,
    Shading_V380_1,           !- Name
    ,                         !- Transmittance Schedule Name
    autocalculate,            !- Number of Vertices
    6.5108,                   !- Vertex 1 Xcoordinate
    22.5976,                  !- Vertex 1 Ycoordinate
    8.6,                      !- Vertex 1 Zcoordinate
    6.5108,                   !- Vertex 2 Xcoordinate
    22.5976,                  !- Vertex 2 Ycoordinate
    0,                        !- Vertex 2 Zcoordinate
    14.7038,                  !- Vertex 3 Xcoordinate
    28.8826,                  !- Vertex 3 Ycoordinate
    0,                        !- Vertex 3 Zcoordinate
    14.7038,                  !- Vertex 4 Xcoordinate
    28.8826,                  !- Vertex 4 Ycoordinate
    8.6;                      !- Vertex 4 Zcoordinate

SHADING:SITE:DETAILED,
    Shading_V387_1,           !- Name
    ,                         !- Transmittance Schedule Name
    autocalculate,            !- Number of Vertices
    -33.1842,                 !- Vertex 1 Xcoordinate
    34.9356,                  !- Vertex 1 Ycoordinate
    10.4,                     !- Vertex 1 Zcoordinate
    -33.1842,                 !- Vertex 2 Xcoordinate
    34.9356,                  !- Vertex 2 Ycoordinate
    0,                        !- Vertex 2 Zcoordinate
    -22.9842,                 !- Vertex 3 Xcoordinate
    36.6406,                  !- Vertex 3 Ycoordinate
    0,                        !- Vertex 3 Zcoordinate
    -22.9842,                 !- Vertex 4 Xcoordinate
    36.6406,                  !- Vertex 4 Ycoordinate
    10.4;                     !- Vertex 4 Zcoordinate

SHADING:SITE:DETAILED,
    Shading_V388_1,           !- Name
    ,                         !- Transmittance Schedule Name
    autocalculate,            !- Number of Vertices
    -22.9842,                 !- Vertex 1 Xcoordinate
    36.6406,                  !- Vertex 1 Ycoordinate
    10.4,                     !- Vertex 1 Zcoordinate
    -22.9842,                 !- Vertex 2 Xcoordinate
    36.6406,                  !- Vertex 2 Ycoordinate
    0,                        !- Vertex 2 Zcoordinate
    -26.4872,                 !- Vertex 3 Xcoordinate
    60.1126,                  !- Vertex 3 Ycoordinate
    0,                        !- Vertex 3 Zcoordinate
    -26.4872,                 !- Vertex 4 Xcoordinate
    60.1126,                  !- Vertex 4 Ycoordinate
    10.4;                     !- Vertex 4 Zcoordinate

SHADING:SITE:DETAILED,
    Shading_V454_1,           !- Name
    ,                         !- Transmittance Schedule Name
    autocalculate,            !- Number of Vertices
    177.2608,                 !- Vertex 1 Xcoordinate
    -11.2614,                 !- Vertex 1 Ycoordinate
    18.8,                     !- Vertex 1 Zcoordinate
    177.2608,                 !- Vertex 2 Xcoordinate
    -11.2614,                 !- Vertex 2 Ycoordinate
    0,                        !- Vertex 2 Zcoordinate
    167.8428,                 !- Vertex 3 Xcoordinate
    -10.5604,                 !- Vertex 3 Ycoordinate
    0,                        !- Vertex 3 Zcoordinate
    167.8428,                 !- Vertex 4 Xcoordinate
    -10.5604,                 !- Vertex 4 Ycoordinate
    18.8;                     !- Vertex 4 Zcoordinate

SHADING:SITE:DETAILED,
    Shading_V408_1,           !- Name
    ,                         !- Transmittance Schedule Name
    autocalculate,            !- Number of Vertices
    -11.9492,                 !- Vertex 1 Xcoordinate
    83.4026,                  !- Vertex 1 Ycoordinate
    10.2,                     !- Vertex 1 Zcoordinate
    -11.9492,                 !- Vertex 2 Xcoordinate
    83.4026,                  !- Vertex 2 Ycoordinate
    0,                        !- Vertex 2 Zcoordinate
    -4.4742,                  !- Vertex 3 Xcoordinate
    90.3006,                  !- Vertex 3 Ycoordinate
    0,                        !- Vertex 3 Zcoordinate
    -4.4742,                  !- Vertex 4 Xcoordinate
    90.3006,                  !- Vertex 4 Ycoordinate
    10.2;                     !- Vertex 4 Zcoordinate

SHADING:SITE:DETAILED,
    Shading_V411_1,           !- Name
    ,                         !- Transmittance Schedule Name
    autocalculate,            !- Number of Vertices
    -27.6402,                 !- Vertex 1 Xcoordinate
    101.6386,                 !- Vertex 1 Ycoordinate
    10.2,                     !- Vertex 1 Zcoordinate
    -27.6402,                 !- Vertex 2 Xcoordinate
    101.6386,                 !- Vertex 2 Ycoordinate
    0,                        !- Vertex 2 Zcoordinate
    -11.9492,                 !- Vertex 3 Xcoordinate
    83.4026,                  !- Vertex 3 Ycoordinate
    0,                        !- Vertex 3 Zcoordinate
    -11.9492,                 !- Vertex 4 Xcoordinate
    83.4026,                  !- Vertex 4 Ycoordinate
    10.2;                     !- Vertex 4 Zcoordinate

ELECTRICEQUIPMENT,
    Block Build0_Alt0 Storey 0Load,    !- Name
    Block Build0_Alt0 Storey 0,    !- Zone or ZoneList Name
    LoadSchedule,             !- Schedule Name
    Watts/Area,               !- Design Level Calculation Method
    ,                         !- Design Level
    0.02,                     !- Watts per Zone Floor Area
    ,                         !- Watts per Person
    0,                        !- Fraction Latent
    0,                        !- Fraction Radiant
    0,                        !- Fraction Lost
    General;                  !- EndUse Subcategory

ZONEINFILTRATION:FLOWCOEFFICIENT,
    Block Build0_Alt0 Storey 0Leak,    !- Name
    Block Build0_Alt0 Storey 0,    !- Zone Name
    AlwaysON,                 !- Schedule Name
    5.103215e-02,             !- Flow Coefficient
    0.078,                    !- Stack Coefficient
    0.667,                    !- Pressure Exponent
    0.17,                     !- Wind Coefficient
    0.5;                      !- Shelter Factor

ZONEVENTILATION:DESIGNFLOWRATE,
    Block Build0_Alt0 Storey 0FreeCool,    !- Name
    Block Build0_Alt0 Storey 0,    !- Zone or ZoneList Name
    AlwaysON,                 !- Schedule Name
    AirChanges/Hour,          !- Design Flow Rate Calculation Method
    ,                         !- Design Flow Rate
    ,                         !- Flow Rate per Zone Floor Area
    ,                         !- Flow Rate per Person
    4,                        !- Air Changes per Hour
    Natural,                  !- Ventilation Type
    0,                        !- Fan Pressure Rise
    1,                        !- Fan Total Efficiency
    1,                        !- Constant Term Coefficient
    0,                        !- Temperature Term Coefficient
    0,                        !- Velocity Term Coefficient
    0,                        !- Velocity Squared Term Coefficient
    26,                       !- Minimum Indoor Temperature
    ,                         !- Minimum Indoor Temperature Schedule Name
    100,                      !- Maximum Indoor Temperature
    ,                         !- Maximum Indoor Temperature Schedule Name
    1,                        !- Delta Temperature
    ,                         !- Delta Temperature Schedule Name
    -100,                     !- Minimum Outdoor Temperature
    ,                         !- Minimum Outdoor Temperature Schedule Name
    100,                      !- Maximum Outdoor Temperature
    ,                         !- Maximum Outdoor Temperature Schedule Name
    40;                       !- Maximum Wind Speed

HVACTEMPLATE:THERMOSTAT,
    ResidZone,                !- Name
    ,                         !- Heating Setpoint Schedule Name
    21,                       !- Constant Heating Setpoint
    ,                         !- Cooling Setpoint Schedule Name
    50;                       !- Constant Cooling Setpoint

HVACTEMPLATE:ZONE:IDEALLOADSAIRSYSTEM,
    Block Build0_Alt0 Storey 0,    !- Zone Name
    ResidZone,                !- Template Thermostat Name
    ,                         !- System Availability Schedule Name
    50,                       !- Maximum Heating Supply Air Temperature
    13,                       !- Minimum Cooling Supply Air Temperature
    0.0156,                   !- Maximum Heating Supply Air Humidity Ratio
    0.0077,                   !- Minimum Cooling Supply Air Humidity Ratio
    NoLimit,                  !- Heating Limit
    ,                         !- Maximum Heating Air Flow Rate
    13144.979325,             !- Maximum Sensible Heating Capacity
    NoLimit,                  !- Cooling Limit
    ,                         !- Maximum Cooling Air Flow Rate
    ,                         !- Maximum Total Cooling Capacity
    ,                         !- Heating Availability Schedule Name
    ,                         !- Cooling Availability Schedule Name
    ConstantSensibleHeatRatio,    !- Dehumidification Control Type
    0.7,                      !- Cooling Sensible Heat Ratio
    60,                       !- Dehumidification Setpoint
    None,                     !- Humidification Control Type
    30,                       !- Humidification Setpoint
    Flow/Area,                !- Outdoor Air Method
    0.007,                    !- Outdoor Air Flow Rate per Person
    0.0007,                   !- Outdoor Air Flow Rate per Zone Floor Area
    0,                        !- Outdoor Air Flow Rate per Zone
    ,                         !- Design Specification Outdoor Air Object Name
    None,                     !- Demand Controlled Ventilation Type
    NoEconomizer,             !- Outdoor Air Economizer Type
    None,                     !- Heat Recovery Type
    0,                        !- Sensible Heat Recovery Effectiveness
    0;                        !- Latent Heat Recovery Effectiveness

OUTDOORAIR:NODE,
    Block Build0_Alt0 Storey 0 IDEAL LOADS OUTDOOR AIR INLET,    !- Name
    -1,                       !- Height Above Ground
    ,                         !- Drybulb Temperature Schedule Name
    ,                         !- Wetbulb Temperature Schedule Name
    ,                         !- Wind Speed Schedule Name
    ,                         !- Wind Direction Schedule Name
    ,                         !- Wind Pressure Coefficient Curve Name
    No,                       !- Symmetric Wind Pressure Coefficient Curve
    Absolute;                 !- Wind Angle Type

ENERGYMANAGEMENTSYSTEM:SENSOR,
    T0,                       !- Name
    Block Build0_Alt0 Storey 0,    !- OutputVariable or OutputMeter Index Key Name
    Zone Mean Air Temperature;    !- OutputVariable or OutputMeter Name

ENERGYMANAGEMENTSYSTEM:SENSOR,
    Pow0,                     !- Name
    Block Build0_Alt0 Storey 0 IDEAL LOADS AIR SYSTEM,    !- OutputVariable or OutputMeter Index Key Name
    Zone Ideal Loads Supply Air Total Heating Rate;    !- OutputVariable or OutputMeter Name

ENERGYMANAGEMENTSYSTEM:SENSOR,
    DHWPow,                   !- Name
    DHW,                      !- OutputVariable or OutputMeter Index Key Name
    Water Use Equipment Heating Rate;    !- OutputVariable or OutputMeter Name

ENERGYMANAGEMENTSYSTEM:PROGRAMCALLINGMANAGER,
    Average Building Temperature,    !- Name
    EndOfZoneTimestepBeforeZoneReporting,    !- EnergyPlus Model Calling Point
    AverageZoneTemps;         !- Program Name 1

ENERGYMANAGEMENTSYSTEM:PROGRAMCALLINGMANAGER,
    Compute Total Building Heat Pow,    !- Name
    EndOfZoneTimestepBeforeZoneReporting,    !- EnergyPlus Model Calling Point
    TotZonePow;               !- Program Name 1

ENERGYMANAGEMENTSYSTEM:PROGRAMCALLINGMANAGER,
    Compute Total DHW Heat Pow,    !- Name
    EndOfZoneTimestepBeforeZoneReporting,    !- EnergyPlus Model Calling Point
    prgmDHWPow;               !- Program Name 1

ENERGYMANAGEMENTSYSTEM:PROGRAM,
    AverageZoneTemps,         !- Name
    SET SumNumerator = T0*Vol0,    !- Program Line 1
    SET SumDenominator  = Vol0,    !- Program Line 2
    SET AverageBuildingTemp  = SumNumerator / SumDenominator;    !- Program Line 3

ENERGYMANAGEMENTSYSTEM:PROGRAM,
    TotZonePow,               !- Name
    SET TotBuildPow = Pow0;    !- Program Line 1

ENERGYMANAGEMENTSYSTEM:PROGRAM,
    prgmDHWPow,               !- Name
    SET TotDHWPow = DHWPow;    !- Program Line 1

ENERGYMANAGEMENTSYSTEM:GLOBALVARIABLE,
    AverageBuildingTemp;      !- Erl Variable 1 Name

ENERGYMANAGEMENTSYSTEM:GLOBALVARIABLE,
    TotBuildPow;              !- Erl Variable 1 Name

ENERGYMANAGEMENTSYSTEM:GLOBALVARIABLE,
    TotDHWPow;                !- Erl Variable 1 Name

ENERGYMANAGEMENTSYSTEM:OUTPUTVARIABLE,
    Mean Heated Zones Air Temperature,    !- Name
    AverageBuildingTemp,      !- EMS Variable Name
    Averaged,                 !- Type of Data in Variable
    ZoneTimeStep;             !- Update Frequency

ENERGYMANAGEMENTSYSTEM:OUTPUTVARIABLE,
    Total Building Heating Power,    !- Name
    TotBuildPow,              !- EMS Variable Name
    Averaged,                 !- Type of Data in Variable
    ZoneTimeStep;             !- Update Frequency

ENERGYMANAGEMENTSYSTEM:OUTPUTVARIABLE,
    Total DHW Heating Power,    !- Name
    TotDHWPow,                !- EMS Variable Name
    Averaged,                 !- Type of Data in Variable
    ZoneTimeStep;             !- Update Frequency

ENERGYMANAGEMENTSYSTEM:INTERNALVARIABLE,
    Vol0,                     !- Name
    Block Build0_Alt0 Storey 0,    !- Internal Data Index Key Name
    Zone Air Volume;          !- Internal Data Type

WATERUSE:EQUIPMENT,
    DHW,                      !- Name
    General,                  !- EndUse Subcategory
    2.173303e-09,             !- Peak Flow Rate
    WaterTaps,                !- Flow Rate Fraction Schedule Name
    TargetWaterTemp,          !- Target Temperature Schedule Name
    HotWaterTemp,             !- Hot Water Supply Temperature Schedule Name
    ColdWaterTemp;            !- Cold Water Supply Temperature Schedule Name

Output:VariableDictionary,
    Regular;                  !- Key Field

OUTPUT:ENERGYMANAGEMENTSYSTEM,
    Verbose,                  !- Actuator Availability Dictionary Reporting
    Verbose,                  !- Internal Variable Availability Dictionary Reporting
    Verbose;                  !- EMS Runtime Language Debug Output Level

Output:Table:SummaryReports,
    AllSummary;               !- Report 1 Name

OutputControl:Table:Style,
    HTML;                     !- Column Separator

OUTPUT:VARIABLE,
    *,                        !- Key Value
    Site Outdoor Air Drybulb Temperature,    !- Variable Name
    Hourly;                   !- Reporting Frequency

OUTPUT:VARIABLE,
    *,                        !- Key Value
    Site Outdoor Air Relative Humidity,    !- Variable Name
    Hourly;                   !- Reporting Frequency

OUTPUT:VARIABLE,
    *,                        !- Key Value
    Site Outdoor Air Barometric Pressure,    !- Variable Name
    Hourly;                   !- Reporting Frequency

OUTPUT:VARIABLE,
    *,                        !- Key Value
    Site Wind Speed,          !- Variable Name
    Hourly;                   !- Reporting Frequency

OUTPUT:VARIABLE,
    *,                        !- Key Value
    Site Diffuse Solar Radiation Rate per Area,    !- Variable Name
    Hourly;                   !- Reporting Frequency

OUTPUT:VARIABLE,
    *,                        !- Key Value
    Site Direct Solar Radiation Rate per Area,    !- Variable Name
    Hourly;                   !- Reporting Frequency

OUTPUT:VARIABLE,
    *,                        !- Key Value
    Zone Electric Equipment Electric Power,    !- Variable Name
    Hourly;                   !- Reporting Frequency

OUTPUT:VARIABLE,
    *,                        !- Key Value
    Zone Electric Equipment Total Heating Rate,    !- Variable Name
    Hourly;                   !- Reporting Frequency

OUTPUT:VARIABLE,
    *,                        !- Key Value
    Surface Outside Face Incident Solar Radiation Rate per Area,    !- Variable Name
    Hourly;                   !- Reporting Frequency

OUTPUT:VARIABLE,
    *,                        !- Key Value
    Surface Outside Face Incident Beam Solar Radiation Rate per Area,    !- Variable Name
    Hourly;                   !- Reporting Frequency

OUTPUT:VARIABLE,
    *,                        !- Key Value
    Zone Ideal Loads Supply Air Total Heating Rate,    !- Variable Name
    Hourly;                   !- Reporting Frequency

OUTPUT:VARIABLE,
    *,                        !- Key Value
    Water Use Equipment Hot Water Mass Flow Rate,    !- Variable Name
    Hourly;                   !- Reporting Frequency

OUTPUT:VARIABLE,
    *,                        !- Key Value
    Water Use Equipment Cold Water Mass Flow Rate,    !- Variable Name
    Hourly;                   !- Reporting Frequency

OUTPUT:VARIABLE,
    *,                        !- Key Value
    Water Use Equipment Hot Water Temperature,    !- Variable Name
    Hourly;                   !- Reporting Frequency

OUTPUT:VARIABLE,
    *,                        !- Key Value
    Water Use Equipment Cold Water Temperature,    !- Variable Name
    Hourly;                   !- Reporting Frequency

OUTPUT:VARIABLE,
    *,                        !- Key Value
    Water Use Equipment Heating Rate,    !- Variable Name
    Hourly;                   !- Reporting Frequency

OUTPUT:VARIABLE,
    *,                        !- Key Value
    Mean Heated Zones Air Temperature,    !- Variable Name
    Hourly;                   !- Reporting Frequency

OUTPUT:VARIABLE,
    *,                        !- Key Value
    Total Building Heating Power,    !- Variable Name
    Hourly;                   !- Reporting Frequency

OUTPUT:VARIABLE,
    *,                        !- Key Value
    Total DHW Heating Power,    !- Variable Name
    Hourly;                   !- Reporting Frequency

OUTPUT:DIAGNOSTICS,
    DISPLAYEXTRAWARNINGS,     !- Key 1
    DisplayAdvancedReportVariables;    !- Key 2