!- Darwin Line endings 

Version,
    9.5;                      !- Version Identifier

SimulationControl,
    No,                       !- Do Zone Sizing Calculation
    No,                       !- Do System Sizing Calculation
    No,                       !- Do Plant Sizing Calculation
    No,                       !- Run Simulation for Sizing Periods
    Yes,                      !- Run Simulation for Weather File Run Periods
    No,                       !- Do HVAC Sizing Simulation for Sizing Periods
    1;                        !- Maximum Number of HVAC Sizing Simulation Passes

Building,
    None,                     !- Name
    0,                        !- North Axis
    Suburbs,                  !- Terrain
    0.04,                     !- Loads Convergence Tolerance Value
    0.4,                      !- Temperature Convergence Tolerance Value
    FullExterior,             !- Solar Distribution
    25,                       !- Maximum Number of Warmup Days
    6;                        !- Minimum Number of Warmup Days

SHADOWCALCULATION,
    PolygonClipping,          !- Shading Calculation Method
    Periodic,                 !- Shading Calculation Update Frequency Method
    20,                       !- Shading Calculation Update Frequency
    25000,                    !- Maximum Figures in Shadow Overlap Calculations
    SutherlandHodgman,        !- Polygon Clipping Algorithm
    512,                      !- Pixel Counting Resolution
    SimpleSkyDiffuseModeling,    !- Sky Diffuse Modeling Algorithm
    No,                       !- Output External Shading Calculation Results
    No,                       !- Disable SelfShading Within Shading Zone Groups
    No;                       !- Disable SelfShading From Shading Zone Groups to Other Zones

Timestep,
    4;                        !- Number of Timesteps per Hour

Site:Location,
    WeatherData/USA_CA_San.Francisco.Intl.AP.724940_TMY3.epw,    !- Name
    37.62,                    !- Latitude
    -122.4,                   !- Longitude
    -8,                       !- Time Zone
    2;                        !- Elevation

SizingPeriod:DesignDay,
    DENVER_STAPLETON Ann Htg 99.6% Condns DB,    !- Name
    12,                       !- Month
    21,                       !- Day of Month
    WinterDesignDay,          !- Day Type
    -20,                      !- Maximum DryBulb Temperature
    0,                        !- Daily DryBulb Temperature Range
    ,                         !- DryBulb Temperature Range Modifier Type
    ,                         !- DryBulb Temperature Range Modifier Day Schedule Name
    Wetbulb,                  !- Humidity Condition Type
    -20,                      !- Wetbulb or DewPoint at Maximum DryBulb
    ,                         !- Humidity Condition Day Schedule Name
    ,                         !- Humidity Ratio at Maximum DryBulb
    ,                         !- Enthalpy at Maximum DryBulb
    ,                         !- Daily WetBulb Temperature Range
    100594,                   !- Barometric Pressure
    2.3,                      !- Wind Speed
    180,                      !- Wind Direction
    No,                       !- Rain Indicator
    No,                       !- Snow Indicator
    No,                       !- Daylight Saving Time Indicator
    ASHRAEClearSky,           !- Solar Model Indicator
    ,                         !- Beam Solar Day Schedule Name
    ,                         !- Diffuse Solar Day Schedule Name
    ,                         !- ASHRAE Clear Sky Optical Depth for Beam Irradiance taub
    ,                         !- ASHRAE Clear Sky Optical Depth for Diffuse Irradiance taud
    0;                        !- Sky Clearness

SizingPeriod:DesignDay,
    DENVER_STAPLETON Ann Clg .4% Condns DB=>MWB,    !- Name
    7,                        !- Month
    21,                       !- Day of Month
    SummerDesignDay,          !- Day Type
    34.1,                     !- Maximum DryBulb Temperature
    15.2,                     !- Daily DryBulb Temperature Range
    ,                         !- DryBulb Temperature Range Modifier Type
    ,                         !- DryBulb Temperature Range Modifier Day Schedule Name
    Wetbulb,                  !- Humidity Condition Type
    15.8,                     !- Wetbulb or DewPoint at Maximum DryBulb
    ,                         !- Humidity Condition Day Schedule Name
    ,                         !- Humidity Ratio at Maximum DryBulb
    ,                         !- Enthalpy at Maximum DryBulb
    ,                         !- Daily WetBulb Temperature Range
    100594,                   !- Barometric Pressure
    4,                        !- Wind Speed
    120,                      !- Wind Direction
    No,                       !- Rain Indicator
    No,                       !- Snow Indicator
    No,                       !- Daylight Saving Time Indicator
    ASHRAEClearSky,           !- Solar Model Indicator
    ,                         !- Beam Solar Day Schedule Name
    ,                         !- Diffuse Solar Day Schedule Name
    ,                         !- ASHRAE Clear Sky Optical Depth for Beam Irradiance taub
    ,                         !- ASHRAE Clear Sky Optical Depth for Diffuse Irradiance taud
    1;                        !- Sky Clearness

RunPeriod,
    Run Period 1,             !- Name
    1,                        !- Begin Month
    1,                        !- Begin Day of Month
    ,                         !- Begin Year
    12,                       !- End Month
    31,                       !- End Day of Month
    ,                         !- End Year
    Tuesday,                  !- Day of Week for Start Day
    Yes,                      !- Use Weather File Holidays and Special Days
    Yes,                      !- Use Weather File Daylight Saving Period
    No,                       !- Apply Weekend Holiday Rule
    Yes,                      !- Use Weather File Rain Indicators
    Yes;                      !- Use Weather File Snow Indicators

SITE:GROUNDTEMPERATURE:BUILDINGSURFACE,
    15,                       !- January Ground Temperature
    15,                       !- February Ground Temperature
    15,                       !- March Ground Temperature
    15,                       !- April Ground Temperature
    15,                       !- May Ground Temperature
    15,                       !- June Ground Temperature
    15,                       !- July Ground Temperature
    15,                       !- August Ground Temperature
    15,                       !- September Ground Temperature
    15,                       !- October Ground Temperature
    15,                       !- November Ground Temperature
    15;                       !- December Ground Temperature

SCHEDULETYPELIMITS,
    Any Number,               !- Name
    ,                         !- Lower Limit Value
    ,                         !- Upper Limit Value
    ,                         !- Numeric Type
    Dimensionless;            !- Unit Type

SCHEDULE:COMPACT,
    AlwaysON,                 !- Name
    Any Number,               !- Schedule Type Limits Name
    Through: 12/31,           !- Field 1
    For: AllDays,             !- Field 2
    Until: 24:00,             !- Field 3
    1;                        !- Field 4

SCHEDULE:COMPACT,
    OccupActivity,            !- Name
    Any Number,               !- Schedule Type Limits Name
    Through: 12/31,           !- Field 1
    For: AllDays,             !- Field 2
    Until: 24:00,             !- Field 3
    70;                       !- Field 4

SCHEDULE:COMPACT,
    HotWaterTemp,             !- Name
    Any Number,               !- Schedule Type Limits Name
    Through: 12/31,           !- Field 1
    For: AllDays,             !- Field 2
    Until: 24:00,             !- Field 3
    55;                       !- Field 4

SCHEDULE:COMPACT,
    TargetWaterTemp,          !- Name
    Any Number,               !- Schedule Type Limits Name
    Through: 12/31,           !- Field 1
    For: AllDays,             !- Field 2
    Until: 24:00,             !- Field 3
    37;                       !- Field 4

SCHEDULE:FILE,
    LoadSchedule,             !- Name
    Any Number,               !- Schedule Type Limits Name
    /Users/alizad/PycharmProjects/mubes-ubem/examples/ForTest/InputFiles/Building25_winter.txt,    !- File Name
    1,                        !- Column Number
    0,                        !- Rows to Skip at Top
    8760,                     !- Number of Hours of Data
    Comma,                    !- Column Separator
    No;                       !- Interpolate to Timestep

SCHEDULE:FILE,
    Watertaps,                !- Name
    Any Number,               !- Schedule Type Limits Name
    /Users/alizad/PycharmProjects/mubes-ubem/examples/ForTest/InputFiles/domestic_hot_water_40_apartments.txt,    !- File Name
    1,                        !- Column Number
    0,                        !- Rows to Skip at Top
    8760,                     !- Number of Hours of Data
    Comma,                    !- Column Separator
    No;                       !- Interpolate to Timestep

SCHEDULE:FILE,
    ColdWaterTemp,            !- Name
    Any Number,               !- Schedule Type Limits Name
    /Users/alizad/PycharmProjects/mubes-ubem/examples/ForTest/InputFiles/cold_water_temperature_stockholm.txt,    !- File Name
    1,                        !- Column Number
    0,                        !- Rows to Skip at Top
    8760,                     !- Number of Hours of Data
    Comma,                    !- Column Separator
    No;                       !- Interpolate to Timestep

MATERIAL,
    DefaultMaterial,          !- Name
    Rough,                    !- Roughness
    0.1,                      !- Thickness
    0.1,                      !- Conductivity
    1000,                     !- Density
    1000,                     !- Specific Heat
    0.9,                      !- Thermal Absorptance
    0.7,                      !- Solar Absorptance
    0.7;                      !- Visible Absorptance

MATERIAL,
    Basement Floor,           !- Name
    Rough,                    !- Roughness
    0.1,                      !- Thickness
    0.9,                      !- Conductivity
    2300,                     !- Density
    1000,                     !- Specific Heat
    0.9,                      !- Thermal Absorptance
    0.7,                      !- Solar Absorptance
    0.7;                      !- Visible Absorptance

MATERIAL,
    Heated1rstFloor Inertia,    !- Name
    Rough,                    !- Roughness
    0.1,                      !- Thickness
    0.9,                      !- Conductivity
    2300,                     !- Density
    1000,                     !- Specific Heat
    0.9,                      !- Thermal Absorptance
    0.7,                      !- Solar Absorptance
    0.7;                      !- Visible Absorptance

MATERIAL,
    Heated1rstFloor Insulation,    !- Name
    Rough,                    !- Roughness
    0.15,                     !- Thickness
    0.035,                    !- Conductivity
    150,                      !- Density
    1000,                     !- Specific Heat
    0.9,                      !- Thermal Absorptance
    0.7,                      !- Solar Absorptance
    0.7;                      !- Visible Absorptance

MATERIAL,
    Roof Insulation,          !- Name
    Rough,                    !- Roughness
    0.3,                      !- Thickness
    0.03,                     !- Conductivity
    150,                      !- Density
    1000,                     !- Specific Heat
    0.9,                      !- Thermal Absorptance
    0.7,                      !- Solar Absorptance
    0.7;                      !- Visible Absorptance

MATERIAL,
    Wall Inertia,             !- Name
    Rough,                    !- Roughness
    0.2,                      !- Thickness
    0.9,                      !- Conductivity
    2300,                     !- Density
    1000,                     !- Specific Heat
    0.9,                      !- Thermal Absorptance
    0.7,                      !- Solar Absorptance
    0.7;                      !- Visible Absorptance

MATERIAL,
    Wall Insulation,          !- Name
    Rough,                    !- Roughness
    0.2,                      !- Thickness
    0.03,                     !- Conductivity
    150,                      !- Density
    1000,                     !- Specific Heat
    0.9,                      !- Thermal Absorptance
    0.7,                      !- Solar Absorptance
    0.7;                      !- Visible Absorptance

MATERIAL,
    HeatedZoneIntMass,        !- Name
    Rough,                    !- Roughness
    0.1,                      !- Thickness
    0.3,                      !- Conductivity
    600,                      !- Density
    1400,                     !- Specific Heat
    0.9,                      !- Thermal Absorptance
    0.7,                      !- Solar Absorptance
    0.7;                      !- Visible Absorptance

MATERIAL,
    AirWallMaterial,          !- Name
    MediumSmooth,             !- Roughness
    0.01,                     !- Thickness
    0.6,                      !- Conductivity
    800,                      !- Density
    1000,                     !- Specific Heat
    0.95,                     !- Thermal Absorptance
    0.7,                      !- Solar Absorptance
    0.7;                      !- Visible Absorptance

WINDOWMATERIAL:SIMPLEGLAZINGSYSTEM,
    DefaultGlazing,           !- Name
    2.7,                      !- UFactor
    0.763,                    !- Solar Heat Gain Coefficient
    0.8;                      !- Visible Transmittance

WINDOWMATERIAL:SIMPLEGLAZINGSYSTEM,
    Window,                   !- Name
    1.9,                      !- UFactor
    0.7,                      !- Solar Heat Gain Coefficient
    0.8;                      !- Visible Transmittance

CONSTRUCTION,
    Project Wall,             !- Name
    Wall Inertia,             !- Outside Layer
    Wall Insulation;          !- Layer 2

CONSTRUCTION,
    Project Flat Roof,        !- Name
    Roof Insulation;          !- Outside Layer

CONSTRUCTION,
    Project External Window,    !- Name
    Window;                   !- Outside Layer

CONSTRUCTION,
    Project Heated1rstFloor,    !- Name
    Heated1rstFloor Inertia,    !- Outside Layer
    Heated1rstFloor Insulation;    !- Layer 2

CONSTRUCTION,
    HeatedZoneIntMassObj,     !- Name
    HeatedZoneIntMass;        !- Outside Layer

GlobalGeometryRules,
    UpperLeftCorner,          !- Starting Vertex Position
    CounterClockWise,         !- Vertex Entry Direction
    World;                    !- Coordinate System

ZONE,
    Block Build0_Alt0 Storey 0,    !- Name
    0,                        !- Direction of Relative North
    0,                        !- X Origin
    0,                        !- Y Origin
    0,                        !- Z Origin
    1,                        !- Type
    1,                        !- Multiplier
    autocalculate,            !- Ceiling Height
    autocalculate,            !- Volume
    autocalculate,            !- Floor Area
    ,                         !- Zone Inside Convection Algorithm
    ,                         !- Zone Outside Convection Algorithm
    Yes;                      !- Part of Total Floor Area

BUILDINGSURFACE:DETAILED,
    Block Build0_Alt0 Storey 0 Wall 0001,    !- Name
    wall,                     !- Surface Type
    Project Wall,             !- Construction Name
    Block Build0_Alt0 Storey 0,    !- Zone Name
    outdoors,                 !- Outside Boundary Condition
    ,                         !- Outside Boundary Condition Object
    SunExposed,               !- Sun Exposure
    WindExposed,              !- Wind Exposure
    autocalculate,            !- View Factor to Ground
    autocalculate,            !- Number of Vertices
    1.0403,                   !- Vertex 1 Xcoordinate
    -5.8095,                  !- Vertex 1 Ycoordinate
    9,                        !- Vertex 1 Zcoordinate
    1.0403,                   !- Vertex 2 Xcoordinate
    -5.8095,                  !- Vertex 2 Ycoordinate
    0,                        !- Vertex 2 Zcoordinate
    9.6213,                   !- Vertex 3 Xcoordinate
    0.3755,                   !- Vertex 3 Ycoordinate
    0,                        !- Vertex 3 Zcoordinate
    9.6213,                   !- Vertex 4 Xcoordinate
    0.3755,                   !- Vertex 4 Ycoordinate
    9;                        !- Vertex 4 Zcoordinate

BUILDINGSURFACE:DETAILED,
    Block Build0_Alt0 Storey 0 Wall 0002,    !- Name
    wall,                     !- Surface Type
    Project Wall,             !- Construction Name
    Block Build0_Alt0 Storey 0,    !- Zone Name
    outdoors,                 !- Outside Boundary Condition
    ,                         !- Outside Boundary Condition Object
    SunExposed,               !- Sun Exposure
    WindExposed,              !- Wind Exposure
    autocalculate,            !- View Factor to Ground
    autocalculate,            !- Number of Vertices
    9.6213,                   !- Vertex 1 Xcoordinate
    0.3755,                   !- Vertex 1 Ycoordinate
    9,                        !- Vertex 1 Zcoordinate
    9.6213,                   !- Vertex 2 Xcoordinate
    0.3755,                   !- Vertex 2 Ycoordinate
    0,                        !- Vertex 2 Zcoordinate
    2.8253,                   !- Vertex 3 Xcoordinate
    9.7085,                   !- Vertex 3 Ycoordinate
    0,                        !- Vertex 3 Zcoordinate
    2.8253,                   !- Vertex 4 Xcoordinate
    9.7085,                   !- Vertex 4 Ycoordinate
    9;                        !- Vertex 4 Zcoordinate

BUILDINGSURFACE:DETAILED,
    Block Build0_Alt0 Storey 0 Wall 0003,    !- Name
    wall,                     !- Surface Type
    Project Wall,             !- Construction Name
    Block Build0_Alt0 Storey 0,    !- Zone Name
    outdoors,                 !- Outside Boundary Condition
    ,                         !- Outside Boundary Condition Object
    SunExposed,               !- Sun Exposure
    WindExposed,              !- Wind Exposure
    autocalculate,            !- View Factor to Ground
    autocalculate,            !- Number of Vertices
    2.8253,                   !- Vertex 1 Xcoordinate
    9.7085,                   !- Vertex 1 Ycoordinate
    9,                        !- Vertex 1 Zcoordinate
    2.8253,                   !- Vertex 2 Xcoordinate
    9.7085,                   !- Vertex 2 Ycoordinate
    0,                        !- Vertex 2 Zcoordinate
    -5.7017,                  !- Vertex 3 Xcoordinate
    3.5385,                   !- Vertex 3 Ycoordinate
    0,                        !- Vertex 3 Zcoordinate
    -5.7017,                  !- Vertex 4 Xcoordinate
    3.5385,                   !- Vertex 4 Ycoordinate
    9;                        !- Vertex 4 Zcoordinate

BUILDINGSURFACE:DETAILED,
    Block Build0_Alt0 Storey 0 Wall 0004,    !- Name
    wall,                     !- Surface Type
    Project Wall,             !- Construction Name
    Block Build0_Alt0 Storey 0,    !- Zone Name
    outdoors,                 !- Outside Boundary Condition
    ,                         !- Outside Boundary Condition Object
    SunExposed,               !- Sun Exposure
    WindExposed,              !- Wind Exposure
    autocalculate,            !- View Factor to Ground
    autocalculate,            !- Number of Vertices
    -5.7017,                  !- Vertex 1 Xcoordinate
    3.5385,                   !- Vertex 1 Ycoordinate
    9,                        !- Vertex 1 Zcoordinate
    -5.7017,                  !- Vertex 2 Xcoordinate
    3.5385,                   !- Vertex 2 Ycoordinate
    0,                        !- Vertex 2 Zcoordinate
    1.0403,                   !- Vertex 3 Xcoordinate
    -5.8095,                  !- Vertex 3 Ycoordinate
    0,                        !- Vertex 3 Zcoordinate
    1.0403,                   !- Vertex 4 Xcoordinate
    -5.8095,                  !- Vertex 4 Ycoordinate
    9;                        !- Vertex 4 Zcoordinate

BUILDINGSURFACE:DETAILED,
    Block Build0_Alt0 Storey 0 Floor 0001,    !- Name
    floor,                    !- Surface Type
    Project Heated1rstFloor,    !- Construction Name
    Block Build0_Alt0 Storey 0,    !- Zone Name
    ground,                   !- Outside Boundary Condition
    ,                         !- Outside Boundary Condition Object
    NoSun,                    !- Sun Exposure
    NoWind,                   !- Wind Exposure
    autocalculate,            !- View Factor to Ground
    autocalculate,            !- Number of Vertices
    2.8253,                   !- Vertex 1 Xcoordinate
    9.7085,                   !- Vertex 1 Ycoordinate
    0,                        !- Vertex 1 Zcoordinate
    9.6213,                   !- Vertex 2 Xcoordinate
    0.3755,                   !- Vertex 2 Ycoordinate
    0,                        !- Vertex 2 Zcoordinate
    1.0403,                   !- Vertex 3 Xcoordinate
    -5.8095,                  !- Vertex 3 Ycoordinate
    0,                        !- Vertex 3 Zcoordinate
    -5.7017,                  !- Vertex 4 Xcoordinate
    3.5385,                   !- Vertex 4 Ycoordinate
    0;                        !- Vertex 4 Zcoordinate

BUILDINGSURFACE:DETAILED,
    Block Build0_Alt0 Storey 0 Roof 0001,    !- Name
    roof,                     !- Surface Type
    Project Flat Roof,        !- Construction Name
    Block Build0_Alt0 Storey 0,    !- Zone Name
    outdoors,                 !- Outside Boundary Condition
    ,                         !- Outside Boundary Condition Object
    SunExposed,               !- Sun Exposure
    WindExposed,              !- Wind Exposure
    autocalculate,            !- View Factor to Ground
    autocalculate,            !- Number of Vertices
    9.6213,                   !- Vertex 1 Xcoordinate
    0.3755,                   !- Vertex 1 Ycoordinate
    9,                        !- Vertex 1 Zcoordinate
    2.8253,                   !- Vertex 2 Xcoordinate
    9.7085,                   !- Vertex 2 Ycoordinate
    9,                        !- Vertex 2 Zcoordinate
    -5.7017,                  !- Vertex 3 Xcoordinate
    3.5385,                   !- Vertex 3 Ycoordinate
    9,                        !- Vertex 3 Zcoordinate
    1.0403,                   !- Vertex 4 Xcoordinate
    -5.8095,                  !- Vertex 4 Ycoordinate
    9;                        !- Vertex 4 Zcoordinate

FENESTRATIONSURFACE:DETAILED,
    Block Build0_Alt0 Storey 0 Wall 0001 window,    !- Name
    Window,                   !- Surface Type
    Project External Window,    !- Construction Name
    Block Build0_Alt0 Storey 0 Wall 0001,    !- Building Surface Name
    ,                         !- Outside Boundary Condition Object
    autocalculate,            !- View Factor to Ground
    ,                         !- Frame and Divider Name
    1.0,                      !- Multiplier
    autocalculate,            !- Number of Vertices
    1.0445905,                !- Vertex 1 Xcoordinate
    -5.8064075,               !- Vertex 1 Ycoordinate
    5.85,                     !- Vertex 1 Zcoordinate
    1.0445905,                !- Vertex 2 Xcoordinate
    -5.8064075,               !- Vertex 2 Ycoordinate
    3.1500000000000004,       !- Vertex 2 Zcoordinate
    9.6170095,                !- Vertex 3 Xcoordinate
    0.3724075,                !- Vertex 3 Ycoordinate
    3.1500000000000004,       !- Vertex 3 Zcoordinate
    9.6170095,                !- Vertex 4 Xcoordinate
    0.3724075,                !- Vertex 4 Ycoordinate
    5.85;                     !- Vertex 4 Zcoordinate

FENESTRATIONSURFACE:DETAILED,
    Block Build0_Alt0 Storey 0 Wall 0002 window,    !- Name
    Window,                   !- Surface Type
    Project External Window,    !- Construction Name
    Block Build0_Alt0 Storey 0 Wall 0002,    !- Building Surface Name
    ,                         !- Outside Boundary Condition Object
    autocalculate,            !- View Factor to Ground
    ,                         !- Frame and Divider Name
    1.0,                      !- Multiplier
    autocalculate,            !- Number of Vertices
    9.617902,                 !- Vertex 1 Xcoordinate
    3.801665e-01,             !- Vertex 1 Ycoordinate
    5.85,                     !- Vertex 1 Zcoordinate
    9.617902,                 !- Vertex 2 Xcoordinate
    3.801665e-01,             !- Vertex 2 Ycoordinate
    3.1500000000000004,       !- Vertex 2 Zcoordinate
    2.8286979999999997,       !- Vertex 3 Xcoordinate
    9.703833500000002,        !- Vertex 3 Ycoordinate
    3.1500000000000004,       !- Vertex 3 Zcoordinate
    2.8286979999999997,       !- Vertex 4 Xcoordinate
    9.703833500000002,        !- Vertex 4 Ycoordinate
    5.85;                     !- Vertex 4 Zcoordinate

FENESTRATIONSURFACE:DETAILED,
    Block Build0_Alt0 Storey 0 Wall 0003 window,    !- Name
    Window,                   !- Surface Type
    Project External Window,    !- Construction Name
    Block Build0_Alt0 Storey 0 Wall 0003,    !- Building Surface Name
    ,                         !- Outside Boundary Condition Object
    autocalculate,            !- View Factor to Ground
    ,                         !- Frame and Divider Name
    1.0,                      !- Multiplier
    autocalculate,            !- Number of Vertices
    2.821036499999999,        !- Vertex 1 Xcoordinate
    9.705415,                 !- Vertex 1 Ycoordinate
    5.85,                     !- Vertex 1 Zcoordinate
    2.821036499999999,        !- Vertex 2 Xcoordinate
    9.705415,                 !- Vertex 2 Ycoordinate
    3.1500000000000004,       !- Vertex 2 Zcoordinate
    -5.697436499999999,       !- Vertex 3 Xcoordinate
    3.541585,                 !- Vertex 3 Ycoordinate
    3.1500000000000004,       !- Vertex 3 Zcoordinate
    -5.697436499999999,       !- Vertex 4 Xcoordinate
    3.541585,                 !- Vertex 4 Ycoordinate
    5.85;                     !- Vertex 4 Zcoordinate

FENESTRATIONSURFACE:DETAILED,
    Block Build0_Alt0 Storey 0 Wall 0004 window,    !- Name
    Window,                   !- Surface Type
    Project External Window,    !- Construction Name
    Block Build0_Alt0 Storey 0 Wall 0004,    !- Building Surface Name
    ,                         !- Outside Boundary Condition Object
    autocalculate,            !- View Factor to Ground
    ,                         !- Frame and Divider Name
    1.0,                      !- Multiplier
    autocalculate,            !- Number of Vertices
    -5.698328999999999,       !- Vertex 1 Xcoordinate
    3.533826,                 !- Vertex 1 Ycoordinate
    5.85,                     !- Vertex 1 Zcoordinate
    -5.698328999999999,       !- Vertex 2 Xcoordinate
    3.533826,                 !- Vertex 2 Ycoordinate
    3.1500000000000004,       !- Vertex 2 Zcoordinate
    1.0369289999999998,       !- Vertex 3 Xcoordinate
    -5.804826,                !- Vertex 3 Ycoordinate
    3.1500000000000004,       !- Vertex 3 Zcoordinate
    1.0369289999999998,       !- Vertex 4 Xcoordinate
    -5.804826,                !- Vertex 4 Ycoordinate
    5.85;                     !- Vertex 4 Zcoordinate

INTERNALMASS,
    Block Build0_Alt0 Storey 0IntMass,    !- Name
    HeatedZoneIntMassObj,     !- Construction Name
    Block Build0_Alt0 Storey 0,    !- Zone or ZoneList Name
    730;                      !- Surface Area

SHADING:SITE:DETAILED,
    Shading_V18_1,            !- Name
    ,                         !- Transmittance Schedule Name
    autocalculate,            !- Number of Vertices
    91.0683,                  !- Vertex 1 Xcoordinate
    -63.3115,                 !- Vertex 1 Ycoordinate
    6.6,                      !- Vertex 1 Zcoordinate
    91.0683,                  !- Vertex 2 Xcoordinate
    -63.3115,                 !- Vertex 2 Ycoordinate
    0,                        !- Vertex 2 Zcoordinate
    81.4503,                  !- Vertex 3 Xcoordinate
    -66.9925,                 !- Vertex 3 Ycoordinate
    0,                        !- Vertex 3 Zcoordinate
    81.4503,                  !- Vertex 4 Xcoordinate
    -66.9925,                 !- Vertex 4 Ycoordinate
    6.6;                      !- Vertex 4 Zcoordinate

SHADING:SITE:DETAILED,
    Shading_V19_1,            !- Name
    ,                         !- Transmittance Schedule Name
    autocalculate,            !- Number of Vertices
    81.4503,                  !- Vertex 1 Xcoordinate
    -66.9925,                 !- Vertex 1 Ycoordinate
    6.6,                      !- Vertex 1 Zcoordinate
    81.4503,                  !- Vertex 2 Xcoordinate
    -66.9925,                 !- Vertex 2 Ycoordinate
    0,                        !- Vertex 2 Zcoordinate
    90.6033,                  !- Vertex 3 Xcoordinate
    -90.9385,                 !- Vertex 3 Ycoordinate
    0,                        !- Vertex 3 Zcoordinate
    90.6033,                  !- Vertex 4 Xcoordinate
    -90.9385,                 !- Vertex 4 Ycoordinate
    6.6;                      !- Vertex 4 Zcoordinate

SHADING:SITE:DETAILED,
    Shading_V132_1,           !- Name
    ,                         !- Transmittance Schedule Name
    autocalculate,            !- Number of Vertices
    125.6093,                 !- Vertex 1 Xcoordinate
    25.1685,                  !- Vertex 1 Ycoordinate
    15.5,                     !- Vertex 1 Zcoordinate
    125.6093,                 !- Vertex 2 Xcoordinate
    25.1685,                  !- Vertex 2 Ycoordinate
    0,                        !- Vertex 2 Zcoordinate
    131.6913,                 !- Vertex 3 Xcoordinate
    18.0905,                  !- Vertex 3 Ycoordinate
    0,                        !- Vertex 3 Zcoordinate
    131.6913,                 !- Vertex 4 Xcoordinate
    18.0905,                  !- Vertex 4 Ycoordinate
    15.5;                     !- Vertex 4 Zcoordinate

SHADING:SITE:DETAILED,
    Shading_V172_1,           !- Name
    ,                         !- Transmittance Schedule Name
    autocalculate,            !- Number of Vertices
    71.4107,                  !- Vertex 1 Xcoordinate
    35.9291,                  !- Vertex 1 Ycoordinate
    19.2,                     !- Vertex 1 Zcoordinate
    71.4107,                  !- Vertex 2 Xcoordinate
    35.9291,                  !- Vertex 2 Ycoordinate
    0,                        !- Vertex 2 Zcoordinate
    76.5833,                  !- Vertex 3 Xcoordinate
    29.9085,                  !- Vertex 3 Ycoordinate
    0,                        !- Vertex 3 Zcoordinate
    76.5833,                  !- Vertex 4 Xcoordinate
    29.9085,                  !- Vertex 4 Ycoordinate
    19.2;                     !- Vertex 4 Zcoordinate

SHADING:SITE:DETAILED,
    Shading_V173_1,           !- Name
    ,                         !- Transmittance Schedule Name
    autocalculate,            !- Number of Vertices
    76.5833,                  !- Vertex 1 Xcoordinate
    29.9085,                  !- Vertex 1 Ycoordinate
    19.2,                     !- Vertex 1 Zcoordinate
    76.5833,                  !- Vertex 2 Xcoordinate
    29.9085,                  !- Vertex 2 Ycoordinate
    0,                        !- Vertex 2 Zcoordinate
    69.4083,                  !- Vertex 3 Xcoordinate
    23.7875,                  !- Vertex 3 Ycoordinate
    0,                        !- Vertex 3 Zcoordinate
    69.4083,                  !- Vertex 4 Xcoordinate
    23.7875,                  !- Vertex 4 Ycoordinate
    19.2;                     !- Vertex 4 Zcoordinate

SHADING:SITE:DETAILED,
    Shading_V174_1,           !- Name
    ,                         !- Transmittance Schedule Name
    autocalculate,            !- Number of Vertices
    69.4083,                  !- Vertex 1 Xcoordinate
    23.7875,                  !- Vertex 1 Ycoordinate
    19.2,                     !- Vertex 1 Zcoordinate
    69.4083,                  !- Vertex 2 Xcoordinate
    23.7875,                  !- Vertex 2 Ycoordinate
    0,                        !- Vertex 2 Zcoordinate
    77.7113,                  !- Vertex 3 Xcoordinate
    14.1605,                  !- Vertex 3 Ycoordinate
    0,                        !- Vertex 3 Zcoordinate
    77.7113,                  !- Vertex 4 Xcoordinate
    14.1605,                  !- Vertex 4 Ycoordinate
    19.2;                     !- Vertex 4 Zcoordinate

SHADING:SITE:DETAILED,
    Shading_V289_1,           !- Name
    ,                         !- Transmittance Schedule Name
    autocalculate,            !- Number of Vertices
    27.8003,                  !- Vertex 1 Xcoordinate
    -73.2005,                 !- Vertex 1 Ycoordinate
    7.8,                      !- Vertex 1 Zcoordinate
    27.8003,                  !- Vertex 2 Xcoordinate
    -73.2005,                 !- Vertex 2 Ycoordinate
    0,                        !- Vertex 2 Zcoordinate
    19.2543,                  !- Vertex 3 Xcoordinate
    -75.2465,                 !- Vertex 3 Ycoordinate
    0,                        !- Vertex 3 Zcoordinate
    19.2543,                  !- Vertex 4 Xcoordinate
    -75.2465,                 !- Vertex 4 Ycoordinate
    7.8;                      !- Vertex 4 Zcoordinate

SHADING:SITE:DETAILED,
    Shading_V307_1,           !- Name
    ,                         !- Transmittance Schedule Name
    autocalculate,            !- Number of Vertices
    103.3583,                 !- Vertex 1 Xcoordinate
    14.3525,                  !- Vertex 1 Ycoordinate
    18.8,                     !- Vertex 1 Zcoordinate
    103.3583,                 !- Vertex 2 Xcoordinate
    14.3525,                  !- Vertex 2 Ycoordinate
    0,                        !- Vertex 2 Zcoordinate
    95.6863,                  !- Vertex 3 Xcoordinate
    7.7485,                   !- Vertex 3 Ycoordinate
    0,                        !- Vertex 3 Zcoordinate
    95.6863,                  !- Vertex 4 Xcoordinate
    7.7485,                   !- Vertex 4 Ycoordinate
    18.8;                     !- Vertex 4 Zcoordinate

SHADING:SITE:DETAILED,
    Shading_V348_1,           !- Name
    ,                         !- Transmittance Schedule Name
    autocalculate,            !- Number of Vertices
    65.7973,                  !- Vertex 1 Xcoordinate
    42.4625,                  !- Vertex 1 Ycoordinate
    12.2,                     !- Vertex 1 Zcoordinate
    65.7973,                  !- Vertex 2 Xcoordinate
    42.4625,                  !- Vertex 2 Ycoordinate
    0,                        !- Vertex 2 Zcoordinate
    71.4107,                  !- Vertex 3 Xcoordinate
    35.9291,                  !- Vertex 3 Ycoordinate
    0,                        !- Vertex 3 Zcoordinate
    71.4107,                  !- Vertex 4 Xcoordinate
    35.9291,                  !- Vertex 4 Ycoordinate
    12.2;                     !- Vertex 4 Zcoordinate

SHADING:SITE:DETAILED,
    Shading_V449_1,           !- Name
    ,                         !- Transmittance Schedule Name
    autocalculate,            !- Number of Vertices
    -12.0247,                 !- Vertex 1 Xcoordinate
    -67.7505,                 !- Vertex 1 Ycoordinate
    6.4,                      !- Vertex 1 Zcoordinate
    -12.0247,                 !- Vertex 2 Xcoordinate
    -67.7505,                 !- Vertex 2 Ycoordinate
    0,                        !- Vertex 2 Zcoordinate
    -22.0417,                 !- Vertex 3 Xcoordinate
    -70.1515,                 !- Vertex 3 Ycoordinate
    0,                        !- Vertex 3 Zcoordinate
    -22.0417,                 !- Vertex 4 Xcoordinate
    -70.1515,                 !- Vertex 4 Ycoordinate
    6.4;                      !- Vertex 4 Zcoordinate

SHADING:SITE:DETAILED,
    Shading_V452_1,           !- Name
    ,                         !- Transmittance Schedule Name
    autocalculate,            !- Number of Vertices
    -5.1957,                  !- Vertex 1 Xcoordinate
    -95.8915,                 !- Vertex 1 Ycoordinate
    6.4,                      !- Vertex 1 Zcoordinate
    -5.1957,                  !- Vertex 2 Xcoordinate
    -95.8915,                 !- Vertex 2 Ycoordinate
    0,                        !- Vertex 2 Zcoordinate
    -12.0247,                 !- Vertex 3 Xcoordinate
    -67.7505,                 !- Vertex 3 Ycoordinate
    0,                        !- Vertex 3 Zcoordinate
    -12.0247,                 !- Vertex 4 Xcoordinate
    -67.7505,                 !- Vertex 4 Ycoordinate
    6.4;                      !- Vertex 4 Zcoordinate

SHADING:SITE:DETAILED,
    Shading_V453_1,           !- Name
    ,                         !- Transmittance Schedule Name
    autocalculate,            !- Number of Vertices
    118.8685,                 !- Vertex 1 Xcoordinate
    -30.8746,                 !- Vertex 1 Ycoordinate
    18.8,                     !- Vertex 1 Zcoordinate
    118.8685,                 !- Vertex 2 Xcoordinate
    -30.8746,                 !- Vertex 2 Ycoordinate
    0,                        !- Vertex 2 Zcoordinate
    118.2703,                 !- Vertex 3 Xcoordinate
    -38.7195,                 !- Vertex 3 Ycoordinate
    0,                        !- Vertex 3 Zcoordinate
    118.2703,                 !- Vertex 4 Xcoordinate
    -38.7195,                 !- Vertex 4 Ycoordinate
    18.8;                     !- Vertex 4 Zcoordinate

SHADING:SITE:DETAILED,
    Shading_V454_1,           !- Name
    ,                         !- Transmittance Schedule Name
    autocalculate,            !- Number of Vertices
    118.2703,                 !- Vertex 1 Xcoordinate
    -38.7195,                 !- Vertex 1 Ycoordinate
    18.8,                     !- Vertex 1 Zcoordinate
    118.2703,                 !- Vertex 2 Xcoordinate
    -38.7195,                 !- Vertex 2 Ycoordinate
    0,                        !- Vertex 2 Zcoordinate
    108.8523,                 !- Vertex 3 Xcoordinate
    -38.0185,                 !- Vertex 3 Ycoordinate
    0,                        !- Vertex 3 Zcoordinate
    108.8523,                 !- Vertex 4 Xcoordinate
    -38.0185,                 !- Vertex 4 Ycoordinate
    18.8;                     !- Vertex 4 Zcoordinate

SHADING:SITE:DETAILED,
    Shading_V455_1,           !- Name
    ,                         !- Transmittance Schedule Name
    autocalculate,            !- Number of Vertices
    108.8523,                 !- Vertex 1 Xcoordinate
    -38.0185,                 !- Vertex 1 Ycoordinate
    18.8,                     !- Vertex 1 Zcoordinate
    108.8523,                 !- Vertex 2 Xcoordinate
    -38.0185,                 !- Vertex 2 Ycoordinate
    0,                        !- Vertex 2 Zcoordinate
    107.9073,                 !- Vertex 3 Xcoordinate
    -50.6435,                 !- Vertex 3 Ycoordinate
    0,                        !- Vertex 3 Zcoordinate
    107.9073,                 !- Vertex 4 Xcoordinate
    -50.6435,                 !- Vertex 4 Ycoordinate
    18.8;                     !- Vertex 4 Zcoordinate

SHADING:SITE:DETAILED,
    Shading_V457_1,           !- Name
    ,                         !- Transmittance Schedule Name
    autocalculate,            !- Number of Vertices
    117.2993,                 !- Vertex 1 Xcoordinate
    -51.3575,                 !- Vertex 1 Ycoordinate
    18.8,                     !- Vertex 1 Zcoordinate
    117.2993,                 !- Vertex 2 Xcoordinate
    -51.3575,                 !- Vertex 2 Ycoordinate
    0,                        !- Vertex 2 Zcoordinate
    116.7833,                 !- Vertex 3 Xcoordinate
    -58.9895,                 !- Vertex 3 Ycoordinate
    0,                        !- Vertex 3 Zcoordinate
    116.7833,                 !- Vertex 4 Xcoordinate
    -58.9895,                 !- Vertex 4 Ycoordinate
    18.8;                     !- Vertex 4 Zcoordinate

SHADING:SITE:DETAILED,
    Shading_V504_1,           !- Name
    ,                         !- Transmittance Schedule Name
    autocalculate,            !- Number of Vertices
    43.4063,                  !- Vertex 1 Xcoordinate
    2.3785,                   !- Vertex 1 Ycoordinate
    8.3,                      !- Vertex 1 Zcoordinate
    43.4063,                  !- Vertex 2 Xcoordinate
    2.3785,                   !- Vertex 2 Ycoordinate
    0,                        !- Vertex 2 Zcoordinate
    35.9943,                  !- Vertex 3 Xcoordinate
    -5.0785,                  !- Vertex 3 Ycoordinate
    0,                        !- Vertex 3 Zcoordinate
    35.9943,                  !- Vertex 4 Xcoordinate
    -5.0785,                  !- Vertex 4 Ycoordinate
    8.3;                      !- Vertex 4 Zcoordinate

SHADING:SITE:DETAILED,
    Shading_V505_1,           !- Name
    ,                         !- Transmittance Schedule Name
    autocalculate,            !- Number of Vertices
    35.9943,                  !- Vertex 1 Xcoordinate
    -5.0785,                  !- Vertex 1 Ycoordinate
    8.3,                      !- Vertex 1 Zcoordinate
    35.9943,                  !- Vertex 2 Xcoordinate
    -5.0785,                  !- Vertex 2 Ycoordinate
    0,                        !- Vertex 2 Zcoordinate
    44.1153,                  !- Vertex 3 Xcoordinate
    -13.2525,                 !- Vertex 3 Ycoordinate
    0,                        !- Vertex 3 Zcoordinate
    44.1153,                  !- Vertex 4 Xcoordinate
    -13.2525,                 !- Vertex 4 Ycoordinate
    8.3;                      !- Vertex 4 Zcoordinate

SHADING:SITE:DETAILED,
    Shading_V5_1,             !- Name
    ,                         !- Transmittance Schedule Name
    autocalculate,            !- Number of Vertices
    34.8513,                  !- Vertex 1 Xcoordinate
    56.3805,                  !- Vertex 1 Ycoordinate
    15.8,                     !- Vertex 1 Zcoordinate
    34.8513,                  !- Vertex 2 Xcoordinate
    56.3805,                  !- Vertex 2 Ycoordinate
    0,                        !- Vertex 2 Zcoordinate
    41.6433,                  !- Vertex 3 Xcoordinate
    62.1935,                  !- Vertex 3 Ycoordinate
    0,                        !- Vertex 3 Zcoordinate
    41.6433,                  !- Vertex 4 Xcoordinate
    62.1935,                  !- Vertex 4 Ycoordinate
    15.8;                     !- Vertex 4 Zcoordinate

SHADING:SITE:DETAILED,
    Shading_V13_1,            !- Name
    ,                         !- Transmittance Schedule Name
    autocalculate,            !- Number of Vertices
    32.4033,                  !- Vertex 1 Xcoordinate
    43.9975,                  !- Vertex 1 Ycoordinate
    16.1,                     !- Vertex 1 Zcoordinate
    32.4033,                  !- Vertex 2 Xcoordinate
    43.9975,                  !- Vertex 2 Ycoordinate
    0,                        !- Vertex 2 Zcoordinate
    39.1613,                  !- Vertex 3 Xcoordinate
    36.4525,                  !- Vertex 3 Ycoordinate
    0,                        !- Vertex 3 Zcoordinate
    39.1613,                  !- Vertex 4 Xcoordinate
    36.4525,                  !- Vertex 4 Ycoordinate
    16.1;                     !- Vertex 4 Zcoordinate

SHADING:SITE:DETAILED,
    Shading_V14_1,            !- Name
    ,                         !- Transmittance Schedule Name
    autocalculate,            !- Number of Vertices
    39.1613,                  !- Vertex 1 Xcoordinate
    36.4525,                  !- Vertex 1 Ycoordinate
    16.1,                     !- Vertex 1 Zcoordinate
    39.1613,                  !- Vertex 2 Xcoordinate
    36.4525,                  !- Vertex 2 Ycoordinate
    0,                        !- Vertex 2 Zcoordinate
    47.7683,                  !- Vertex 3 Xcoordinate
    43.8195,                  !- Vertex 3 Ycoordinate
    0,                        !- Vertex 3 Zcoordinate
    47.7683,                  !- Vertex 4 Xcoordinate
    43.8195,                  !- Vertex 4 Ycoordinate
    16.1;                     !- Vertex 4 Zcoordinate

SHADING:SITE:DETAILED,
    Shading_V15_1,            !- Name
    ,                         !- Transmittance Schedule Name
    autocalculate,            !- Number of Vertices
    47.7683,                  !- Vertex 1 Xcoordinate
    43.8195,                  !- Vertex 1 Ycoordinate
    16.1,                     !- Vertex 1 Zcoordinate
    47.7683,                  !- Vertex 2 Xcoordinate
    43.8195,                  !- Vertex 2 Ycoordinate
    0,                        !- Vertex 2 Zcoordinate
    57.5864,                  !- Vertex 3 Xcoordinate
    43.0806,                  !- Vertex 3 Ycoordinate
    0,                        !- Vertex 3 Zcoordinate
    57.5864,                  !- Vertex 4 Xcoordinate
    43.0806,                  !- Vertex 4 Ycoordinate
    16.1;                     !- Vertex 4 Zcoordinate

SHADING:SITE:DETAILED,
    Shading_V25_1,            !- Name
    ,                         !- Transmittance Schedule Name
    autocalculate,            !- Number of Vertices
    -12.1587,                 !- Vertex 1 Xcoordinate
    41.2695,                  !- Vertex 1 Ycoordinate
    9,                        !- Vertex 1 Zcoordinate
    -12.1587,                 !- Vertex 2 Xcoordinate
    41.2695,                  !- Vertex 2 Ycoordinate
    0,                        !- Vertex 2 Zcoordinate
    -3.4257,                  !- Vertex 3 Xcoordinate
    46.6855,                  !- Vertex 3 Ycoordinate
    0,                        !- Vertex 3 Zcoordinate
    -3.4257,                  !- Vertex 4 Xcoordinate
    46.6855,                  !- Vertex 4 Ycoordinate
    9;                        !- Vertex 4 Zcoordinate

SHADING:SITE:DETAILED,
    Shading_V28_1,            !- Name
    ,                         !- Transmittance Schedule Name
    autocalculate,            !- Number of Vertices
    -21.3247,                 !- Vertex 1 Xcoordinate
    56.0855,                  !- Vertex 1 Ycoordinate
    9,                        !- Vertex 1 Zcoordinate
    -21.3247,                 !- Vertex 2 Xcoordinate
    56.0855,                  !- Vertex 2 Ycoordinate
    0,                        !- Vertex 2 Zcoordinate
    -12.1587,                 !- Vertex 3 Xcoordinate
    41.2695,                  !- Vertex 3 Ycoordinate
    0,                        !- Vertex 3 Zcoordinate
    -12.1587,                 !- Vertex 4 Xcoordinate
    41.2695,                  !- Vertex 4 Ycoordinate
    9;                        !- Vertex 4 Zcoordinate

SHADING:SITE:DETAILED,
    Shading_V169_1,           !- Name
    ,                         !- Transmittance Schedule Name
    autocalculate,            !- Number of Vertices
    3.6373,                   !- Vertex 1 Xcoordinate
    41.0955,                  !- Vertex 1 Ycoordinate
    9,                        !- Vertex 1 Zcoordinate
    3.6373,                   !- Vertex 2 Xcoordinate
    41.0955,                  !- Vertex 2 Ycoordinate
    0,                        !- Vertex 2 Zcoordinate
    12.7323,                  !- Vertex 3 Xcoordinate
    26.6595,                  !- Vertex 3 Ycoordinate
    0,                        !- Vertex 3 Zcoordinate
    12.7323,                  !- Vertex 4 Xcoordinate
    26.6595,                  !- Vertex 4 Ycoordinate
    9;                        !- Vertex 4 Zcoordinate

SHADING:SITE:DETAILED,
    Shading_V170_1,           !- Name
    ,                         !- Transmittance Schedule Name
    autocalculate,            !- Number of Vertices
    12.7323,                  !- Vertex 1 Xcoordinate
    26.6595,                  !- Vertex 1 Ycoordinate
    9,                        !- Vertex 1 Zcoordinate
    12.7323,                  !- Vertex 2 Xcoordinate
    26.6595,                  !- Vertex 2 Ycoordinate
    0,                        !- Vertex 2 Zcoordinate
    21.2383,                  !- Vertex 3 Xcoordinate
    31.9005,                  !- Vertex 3 Ycoordinate
    0,                        !- Vertex 3 Zcoordinate
    21.2383,                  !- Vertex 4 Xcoordinate
    31.9005,                  !- Vertex 4 Ycoordinate
    9;                        !- Vertex 4 Zcoordinate

SHADING:SITE:DETAILED,
    Shading_V190_1,           !- Name
    ,                         !- Transmittance Schedule Name
    autocalculate,            !- Number of Vertices
    -92.9977,                 !- Vertex 1 Xcoordinate
    138.8105,                 !- Vertex 1 Ycoordinate
    12.7,                     !- Vertex 1 Zcoordinate
    -92.9977,                 !- Vertex 2 Xcoordinate
    138.8105,                 !- Vertex 2 Ycoordinate
    0,                        !- Vertex 2 Zcoordinate
    -92.2407,                 !- Vertex 3 Xcoordinate
    148.8615,                 !- Vertex 3 Ycoordinate
    0,                        !- Vertex 3 Zcoordinate
    -92.2407,                 !- Vertex 4 Xcoordinate
    148.8615,                 !- Vertex 4 Ycoordinate
    12.7;                     !- Vertex 4 Zcoordinate

SHADING:SITE:DETAILED,
    Shading_V221_1,           !- Name
    ,                         !- Transmittance Schedule Name
    autocalculate,            !- Number of Vertices
    91.9903,                  !- Vertex 1 Xcoordinate
    145.2465,                 !- Vertex 1 Ycoordinate
    14.3,                     !- Vertex 1 Zcoordinate
    91.9903,                  !- Vertex 2 Xcoordinate
    145.2465,                 !- Vertex 2 Ycoordinate
    0,                        !- Vertex 2 Zcoordinate
    95.8063,                  !- Vertex 3 Xcoordinate
    140.7875,                 !- Vertex 3 Ycoordinate
    0,                        !- Vertex 3 Zcoordinate
    95.8063,                  !- Vertex 4 Xcoordinate
    140.7875,                 !- Vertex 4 Ycoordinate
    14.3;                     !- Vertex 4 Zcoordinate

SHADING:SITE:DETAILED,
    Shading_V274_1,           !- Name
    ,                         !- Transmittance Schedule Name
    autocalculate,            !- Number of Vertices
    -76.4917,                 !- Vertex 1 Xcoordinate
    128.1405,                 !- Vertex 1 Ycoordinate
    17.1,                     !- Vertex 1 Zcoordinate
    -76.4917,                 !- Vertex 2 Xcoordinate
    128.1405,                 !- Vertex 2 Ycoordinate
    0,                        !- Vertex 2 Zcoordinate
    -63.8497,                 !- Vertex 3 Xcoordinate
    127.1535,                 !- Vertex 3 Ycoordinate
    0,                        !- Vertex 3 Zcoordinate
    -63.8497,                 !- Vertex 4 Xcoordinate
    127.1535,                 !- Vertex 4 Ycoordinate
    17.1;                     !- Vertex 4 Zcoordinate

SHADING:SITE:DETAILED,
    Shading_V275_1,           !- Name
    ,                         !- Transmittance Schedule Name
    autocalculate,            !- Number of Vertices
    -63.8497,                 !- Vertex 1 Xcoordinate
    127.1535,                 !- Vertex 1 Ycoordinate
    17.1,                     !- Vertex 1 Zcoordinate
    -63.8497,                 !- Vertex 2 Xcoordinate
    127.1535,                 !- Vertex 2 Ycoordinate
    0,                        !- Vertex 2 Zcoordinate
    -63.1157,                 !- Vertex 3 Xcoordinate
    136.5435,                 !- Vertex 3 Ycoordinate
    0,                        !- Vertex 3 Zcoordinate
    -63.1157,                 !- Vertex 4 Xcoordinate
    136.5435,                 !- Vertex 4 Ycoordinate
    17.1;                     !- Vertex 4 Zcoordinate

SHADING:SITE:DETAILED,
    Shading_V280_1,           !- Name
    ,                         !- Transmittance Schedule Name
    autocalculate,            !- Number of Vertices
    -23.2057,                 !- Vertex 1 Xcoordinate
    131.3905,                 !- Vertex 1 Ycoordinate
    18.7,                     !- Vertex 1 Zcoordinate
    -23.2057,                 !- Vertex 2 Xcoordinate
    131.3905,                 !- Vertex 2 Ycoordinate
    0,                        !- Vertex 2 Zcoordinate
    -14.9417,                 !- Vertex 3 Xcoordinate
    121.7675,                 !- Vertex 3 Ycoordinate
    0,                        !- Vertex 3 Zcoordinate
    -14.9417,                 !- Vertex 4 Xcoordinate
    121.7675,                 !- Vertex 4 Ycoordinate
    18.7;                     !- Vertex 4 Zcoordinate

SHADING:SITE:DETAILED,
    Shading_V281_1,           !- Name
    ,                         !- Transmittance Schedule Name
    autocalculate,            !- Number of Vertices
    -14.9417,                 !- Vertex 1 Xcoordinate
    121.7675,                 !- Vertex 1 Ycoordinate
    18.7,                     !- Vertex 1 Zcoordinate
    -14.9417,                 !- Vertex 2 Xcoordinate
    121.7675,                 !- Vertex 2 Ycoordinate
    0,                        !- Vertex 2 Zcoordinate
    -7.7707,                  !- Vertex 3 Xcoordinate
    127.9335,                 !- Vertex 3 Ycoordinate
    0,                        !- Vertex 3 Zcoordinate
    -7.7707,                  !- Vertex 4 Xcoordinate
    127.9335,                 !- Vertex 4 Ycoordinate
    18.7;                     !- Vertex 4 Zcoordinate

SHADING:SITE:DETAILED,
    Shading_V282_1,           !- Name
    ,                         !- Transmittance Schedule Name
    autocalculate,            !- Number of Vertices
    -7.7707,                  !- Vertex 1 Xcoordinate
    127.9335,                 !- Vertex 1 Ycoordinate
    18.7,                     !- Vertex 1 Zcoordinate
    -7.7707,                  !- Vertex 2 Xcoordinate
    127.9335,                 !- Vertex 2 Ycoordinate
    0,                        !- Vertex 2 Zcoordinate
    -2.7877,                  !- Vertex 3 Xcoordinate
    122.1305,                 !- Vertex 3 Ycoordinate
    0,                        !- Vertex 3 Zcoordinate
    -2.7877,                  !- Vertex 4 Xcoordinate
    122.1305,                 !- Vertex 4 Ycoordinate
    18.7;                     !- Vertex 4 Zcoordinate

SHADING:SITE:DETAILED,
    Shading_V308_1,           !- Name
    ,                         !- Transmittance Schedule Name
    autocalculate,            !- Number of Vertices
    95.6863,                  !- Vertex 1 Xcoordinate
    7.7485,                   !- Vertex 1 Ycoordinate
    18.8,                     !- Vertex 1 Zcoordinate
    95.6863,                  !- Vertex 2 Xcoordinate
    7.7485,                   !- Vertex 2 Ycoordinate
    0,                        !- Vertex 2 Zcoordinate
    100.6953,                 !- Vertex 3 Xcoordinate
    1.9805,                   !- Vertex 3 Ycoordinate
    0,                        !- Vertex 3 Zcoordinate
    100.6953,                 !- Vertex 4 Xcoordinate
    1.9805,                   !- Vertex 4 Ycoordinate
    18.8;                     !- Vertex 4 Zcoordinate

SHADING:SITE:DETAILED,
    Shading_V309_1,           !- Name
    ,                         !- Transmittance Schedule Name
    autocalculate,            !- Number of Vertices
    100.6953,                 !- Vertex 1 Xcoordinate
    1.9805,                   !- Vertex 1 Ycoordinate
    18.8,                     !- Vertex 1 Zcoordinate
    100.6953,                 !- Vertex 2 Xcoordinate
    1.9805,                   !- Vertex 2 Ycoordinate
    0,                        !- Vertex 2 Zcoordinate
    93.4703,                  !- Vertex 3 Xcoordinate
    -4.2135,                  !- Vertex 3 Ycoordinate
    0,                        !- Vertex 3 Zcoordinate
    93.4703,                  !- Vertex 4 Xcoordinate
    -4.2135,                  !- Vertex 4 Ycoordinate
    18.8;                     !- Vertex 4 Zcoordinate

SHADING:SITE:DETAILED,
    Shading_V347_1,           !- Name
    ,                         !- Transmittance Schedule Name
    autocalculate,            !- Number of Vertices
    57.5864,                  !- Vertex 1 Xcoordinate
    43.0806,                  !- Vertex 1 Ycoordinate
    12.2,                     !- Vertex 1 Zcoordinate
    57.5864,                  !- Vertex 2 Xcoordinate
    43.0806,                  !- Vertex 2 Ycoordinate
    0,                        !- Vertex 2 Zcoordinate
    65.7973,                  !- Vertex 3 Xcoordinate
    42.4625,                  !- Vertex 3 Ycoordinate
    0,                        !- Vertex 3 Zcoordinate
    65.7973,                  !- Vertex 4 Xcoordinate
    42.4625,                  !- Vertex 4 Ycoordinate
    12.2;                     !- Vertex 4 Zcoordinate

SHADING:SITE:DETAILED,
    Shading_V22_1,            !- Name
    ,                         !- Transmittance Schedule Name
    autocalculate,            !- Number of Vertices
    -42.4007,                 !- Vertex 1 Xcoordinate
    -26.1155,                 !- Vertex 1 Ycoordinate
    6.9,                      !- Vertex 1 Zcoordinate
    -42.4007,                 !- Vertex 2 Xcoordinate
    -26.1155,                 !- Vertex 2 Ycoordinate
    0,                        !- Vertex 2 Zcoordinate
    -65.0197,                 !- Vertex 3 Xcoordinate
    -14.0195,                 !- Vertex 3 Ycoordinate
    0,                        !- Vertex 3 Zcoordinate
    -65.0197,                 !- Vertex 4 Xcoordinate
    -14.0195,                 !- Vertex 4 Ycoordinate
    6.9;                      !- Vertex 4 Zcoordinate

SHADING:SITE:DETAILED,
    Shading_V187_1,           !- Name
    ,                         !- Transmittance Schedule Name
    autocalculate,            !- Number of Vertices
    -113.2387,                !- Vertex 1 Xcoordinate
    130.8735,                 !- Vertex 1 Ycoordinate
    12.7,                     !- Vertex 1 Zcoordinate
    -113.2387,                !- Vertex 2 Xcoordinate
    130.8735,                 !- Vertex 2 Ycoordinate
    0,                        !- Vertex 2 Zcoordinate
    -100.7007,                !- Vertex 3 Xcoordinate
    130.0685,                 !- Vertex 3 Ycoordinate
    0,                        !- Vertex 3 Zcoordinate
    -100.7007,                !- Vertex 4 Xcoordinate
    130.0685,                 !- Vertex 4 Ycoordinate
    12.7;                     !- Vertex 4 Zcoordinate

SHADING:SITE:DETAILED,
    Shading_V188_1,           !- Name
    ,                         !- Transmittance Schedule Name
    autocalculate,            !- Number of Vertices
    -100.7007,                !- Vertex 1 Xcoordinate
    130.0685,                 !- Vertex 1 Ycoordinate
    12.7,                     !- Vertex 1 Zcoordinate
    -100.7007,                !- Vertex 2 Xcoordinate
    130.0685,                 !- Vertex 2 Ycoordinate
    0,                        !- Vertex 2 Zcoordinate
    -99.9117,                 !- Vertex 3 Xcoordinate
    139.3295,                 !- Vertex 3 Ycoordinate
    0,                        !- Vertex 3 Zcoordinate
    -99.9117,                 !- Vertex 4 Xcoordinate
    139.3295,                 !- Vertex 4 Ycoordinate
    12.7;                     !- Vertex 4 Zcoordinate

SHADING:SITE:DETAILED,
    Shading_V189_1,           !- Name
    ,                         !- Transmittance Schedule Name
    autocalculate,            !- Number of Vertices
    -99.9117,                 !- Vertex 1 Xcoordinate
    139.3295,                 !- Vertex 1 Ycoordinate
    12.7,                     !- Vertex 1 Zcoordinate
    -99.9117,                 !- Vertex 2 Xcoordinate
    139.3295,                 !- Vertex 2 Ycoordinate
    0,                        !- Vertex 2 Zcoordinate
    -92.9977,                 !- Vertex 3 Xcoordinate
    138.8105,                 !- Vertex 3 Ycoordinate
    0,                        !- Vertex 3 Zcoordinate
    -92.9977,                 !- Vertex 4 Xcoordinate
    138.8105,                 !- Vertex 4 Ycoordinate
    12.7;                     !- Vertex 4 Zcoordinate

SHADING:SITE:DETAILED,
    Shading_V276_1,           !- Name
    ,                         !- Transmittance Schedule Name
    autocalculate,            !- Number of Vertices
    -63.1157,                 !- Vertex 1 Xcoordinate
    136.5435,                 !- Vertex 1 Ycoordinate
    17.1,                     !- Vertex 1 Zcoordinate
    -63.1157,                 !- Vertex 2 Xcoordinate
    136.5435,                 !- Vertex 2 Ycoordinate
    0,                        !- Vertex 2 Zcoordinate
    -55.1172,                 !- Vertex 3 Xcoordinate
    135.9502,                 !- Vertex 3 Ycoordinate
    0,                        !- Vertex 3 Zcoordinate
    -55.1172,                 !- Vertex 4 Xcoordinate
    135.9502,                 !- Vertex 4 Ycoordinate
    17.1;                     !- Vertex 4 Zcoordinate

SHADING:SITE:DETAILED,
    Shading_V283_1,           !- Name
    ,                         !- Transmittance Schedule Name
    autocalculate,            !- Number of Vertices
    -2.7877,                  !- Vertex 1 Xcoordinate
    122.1305,                 !- Vertex 1 Ycoordinate
    18.7,                     !- Vertex 1 Zcoordinate
    -2.7877,                  !- Vertex 2 Xcoordinate
    122.1305,                 !- Vertex 2 Ycoordinate
    0,                        !- Vertex 2 Zcoordinate
    4.8543,                   !- Vertex 3 Xcoordinate
    128.7185,                 !- Vertex 3 Ycoordinate
    0,                        !- Vertex 3 Zcoordinate
    4.8543,                   !- Vertex 4 Xcoordinate
    128.7185,                 !- Vertex 4 Ycoordinate
    18.7;                     !- Vertex 4 Zcoordinate

SHADING:SITE:DETAILED,
    Shading_V380_1,           !- Name
    ,                         !- Transmittance Schedule Name
    autocalculate,            !- Number of Vertices
    -52.4797,                 !- Vertex 1 Xcoordinate
    -4.8605,                  !- Vertex 1 Ycoordinate
    8.6,                      !- Vertex 1 Zcoordinate
    -52.4797,                 !- Vertex 2 Xcoordinate
    -4.8605,                  !- Vertex 2 Ycoordinate
    0,                        !- Vertex 2 Zcoordinate
    -44.2867,                 !- Vertex 3 Xcoordinate
    1.4245,                   !- Vertex 3 Ycoordinate
    0,                        !- Vertex 3 Zcoordinate
    -44.2867,                 !- Vertex 4 Xcoordinate
    1.4245,                   !- Vertex 4 Ycoordinate
    8.6;                      !- Vertex 4 Zcoordinate

SHADING:SITE:DETAILED,
    Shading_V381_1,           !- Name
    ,                         !- Transmittance Schedule Name
    autocalculate,            !- Number of Vertices
    -44.2867,                 !- Vertex 1 Xcoordinate
    1.4245,                   !- Vertex 1 Ycoordinate
    8.6,                      !- Vertex 1 Zcoordinate
    -44.2867,                 !- Vertex 2 Xcoordinate
    1.4245,                   !- Vertex 2 Ycoordinate
    0,                        !- Vertex 2 Zcoordinate
    -58.1777,                 !- Vertex 3 Xcoordinate
    19.6785,                  !- Vertex 3 Ycoordinate
    0,                        !- Vertex 3 Zcoordinate
    -58.1777,                 !- Vertex 4 Xcoordinate
    19.6785,                  !- Vertex 4 Ycoordinate
    8.6;                      !- Vertex 4 Zcoordinate

SHADING:SITE:DETAILED,
    Shading_V408_1,           !- Name
    ,                         !- Transmittance Schedule Name
    autocalculate,            !- Number of Vertices
    -70.9397,                 !- Vertex 1 Xcoordinate
    55.9445,                  !- Vertex 1 Ycoordinate
    10.2,                     !- Vertex 1 Zcoordinate
    -70.9397,                 !- Vertex 2 Xcoordinate
    55.9445,                  !- Vertex 2 Ycoordinate
    0,                        !- Vertex 2 Zcoordinate
    -63.4647,                 !- Vertex 3 Xcoordinate
    62.8425,                  !- Vertex 3 Ycoordinate
    0,                        !- Vertex 3 Zcoordinate
    -63.4647,                 !- Vertex 4 Xcoordinate
    62.8425,                  !- Vertex 4 Ycoordinate
    10.2;                     !- Vertex 4 Zcoordinate

SHADING:SITE:DETAILED,
    Shading_V409_1,           !- Name
    ,                         !- Transmittance Schedule Name
    autocalculate,            !- Number of Vertices
    -63.4647,                 !- Vertex 1 Xcoordinate
    62.8425,                  !- Vertex 1 Ycoordinate
    10.2,                     !- Vertex 1 Zcoordinate
    -63.4647,                 !- Vertex 2 Xcoordinate
    62.8425,                  !- Vertex 2 Ycoordinate
    0,                        !- Vertex 2 Zcoordinate
    -78.9057,                 !- Vertex 3 Xcoordinate
    80.8245,                  !- Vertex 3 Ycoordinate
    0,                        !- Vertex 3 Zcoordinate
    -78.9057,                 !- Vertex 4 Xcoordinate
    80.8245,                  !- Vertex 4 Ycoordinate
    10.2;                     !- Vertex 4 Zcoordinate

SHADING:SITE:DETAILED,
    Shading_V514_1,           !- Name
    ,                         !- Transmittance Schedule Name
    autocalculate,            !- Number of Vertices
    0.8853,                   !- Vertex 1 Xcoordinate
    103.4065,                 !- Vertex 1 Ycoordinate
    19,                       !- Vertex 1 Zcoordinate
    0.8853,                   !- Vertex 2 Xcoordinate
    103.4065,                 !- Vertex 2 Ycoordinate
    0,                        !- Vertex 2 Zcoordinate
    9.1933,                   !- Vertex 3 Xcoordinate
    93.7985,                  !- Vertex 3 Ycoordinate
    0,                        !- Vertex 3 Zcoordinate
    9.1933,                   !- Vertex 4 Xcoordinate
    93.7985,                  !- Vertex 4 Ycoordinate
    19;                       !- Vertex 4 Zcoordinate

SHADING:SITE:DETAILED,
    Shading_V21_1,            !- Name
    ,                         !- Transmittance Schedule Name
    autocalculate,            !- Number of Vertices
    -47.1817,                 !- Vertex 1 Xcoordinate
    -35.1265,                 !- Vertex 1 Ycoordinate
    6.9,                      !- Vertex 1 Zcoordinate
    -47.1817,                 !- Vertex 2 Xcoordinate
    -35.1265,                 !- Vertex 2 Ycoordinate
    0,                        !- Vertex 2 Zcoordinate
    -42.4007,                 !- Vertex 3 Xcoordinate
    -26.1155,                 !- Vertex 3 Ycoordinate
    0,                        !- Vertex 3 Zcoordinate
    -42.4007,                 !- Vertex 4 Xcoordinate
    -26.1155,                 !- Vertex 4 Ycoordinate
    6.9;                      !- Vertex 4 Zcoordinate

SHADING:SITE:DETAILED,
    Shading_V185_1,           !- Name
    ,                         !- Transmittance Schedule Name
    autocalculate,            !- Number of Vertices
    -131.3767,                !- Vertex 1 Xcoordinate
    141.6875,                 !- Vertex 1 Ycoordinate
    12.7,                     !- Vertex 1 Zcoordinate
    -131.3767,                !- Vertex 2 Xcoordinate
    141.6875,                 !- Vertex 2 Ycoordinate
    0,                        !- Vertex 2 Zcoordinate
    -112.5787,                !- Vertex 3 Xcoordinate
    140.2905,                 !- Vertex 3 Ycoordinate
    0,                        !- Vertex 3 Zcoordinate
    -112.5787,                !- Vertex 4 Xcoordinate
    140.2905,                 !- Vertex 4 Ycoordinate
    12.7;                     !- Vertex 4 Zcoordinate

SHADING:SITE:DETAILED,
    Shading_V205_1,           !- Name
    ,                         !- Transmittance Schedule Name
    autocalculate,            !- Number of Vertices
    -159.3917,                !- Vertex 1 Xcoordinate
    117.6435,                 !- Vertex 1 Ycoordinate
    12.7,                     !- Vertex 1 Zcoordinate
    -159.3917,                !- Vertex 2 Xcoordinate
    117.6435,                 !- Vertex 2 Ycoordinate
    0,                        !- Vertex 2 Zcoordinate
    -153.6067,                !- Vertex 3 Xcoordinate
    122.5855,                 !- Vertex 3 Ycoordinate
    0,                        !- Vertex 3 Zcoordinate
    -153.6067,                !- Vertex 4 Xcoordinate
    122.5855,                 !- Vertex 4 Ycoordinate
    12.7;                     !- Vertex 4 Zcoordinate

SHADING:SITE:DETAILED,
    Shading_V290_1,           !- Name
    ,                         !- Transmittance Schedule Name
    autocalculate,            !- Number of Vertices
    19.2543,                  !- Vertex 1 Xcoordinate
    -75.2465,                 !- Vertex 1 Ycoordinate
    7.8,                      !- Vertex 1 Zcoordinate
    19.2543,                  !- Vertex 2 Xcoordinate
    -75.2465,                 !- Vertex 2 Ycoordinate
    0,                        !- Vertex 2 Zcoordinate
    23.3243,                  !- Vertex 3 Xcoordinate
    -92.2355,                 !- Vertex 3 Ycoordinate
    0,                        !- Vertex 3 Zcoordinate
    23.3243,                  !- Vertex 4 Xcoordinate
    -92.2355,                 !- Vertex 4 Ycoordinate
    7.8;                      !- Vertex 4 Zcoordinate

ELECTRICEQUIPMENT,
    Block Build0_Alt0 Storey 0Load,    !- Name
    Block Build0_Alt0 Storey 0,    !- Zone or ZoneList Name
    LoadSchedule,             !- Schedule Name
    Watts/Area,               !- Design Level Calculation Method
    ,                         !- Design Level
    0.03,                     !- Watts per Zone Floor Area
    ,                         !- Watts per Person
    0,                        !- Fraction Latent
    0,                        !- Fraction Radiant
    0,                        !- Fraction Lost
    General;                  !- EndUse Subcategory

ZONEINFILTRATION:FLOWCOEFFICIENT,
    Block Build0_Alt0 Storey 0Leak,    !- Name
    Block Build0_Alt0 Storey 0,    !- Zone Name
    AlwaysON,                 !- Schedule Name
    3.821077e-02,             !- Flow Coefficient
    0.098,                    !- Stack Coefficient
    0.667,                    !- Pressure Exponent
    0.17,                     !- Wind Coefficient
    0.5;                      !- Shelter Factor

ZONEVENTILATION:DESIGNFLOWRATE,
    Block Build0_Alt0 Storey 0FreeCool,    !- Name
    Block Build0_Alt0 Storey 0,    !- Zone or ZoneList Name
    AlwaysON,                 !- Schedule Name
    AirChanges/Hour,          !- Design Flow Rate Calculation Method
    ,                         !- Design Flow Rate
    ,                         !- Flow Rate per Zone Floor Area
    ,                         !- Flow Rate per Person
    4,                        !- Air Changes per Hour
    Natural,                  !- Ventilation Type
    0,                        !- Fan Pressure Rise
    1,                        !- Fan Total Efficiency
    1,                        !- Constant Term Coefficient
    0,                        !- Temperature Term Coefficient
    0,                        !- Velocity Term Coefficient
    0,                        !- Velocity Squared Term Coefficient
    26,                       !- Minimum Indoor Temperature
    ,                         !- Minimum Indoor Temperature Schedule Name
    100,                      !- Maximum Indoor Temperature
    ,                         !- Maximum Indoor Temperature Schedule Name
    1,                        !- Delta Temperature
    ,                         !- Delta Temperature Schedule Name
    -100,                     !- Minimum Outdoor Temperature
    ,                         !- Minimum Outdoor Temperature Schedule Name
    100,                      !- Maximum Outdoor Temperature
    ,                         !- Maximum Outdoor Temperature Schedule Name
    40;                       !- Maximum Wind Speed

HVACTEMPLATE:THERMOSTAT,
    ResidZone,                !- Name
    ,                         !- Heating Setpoint Schedule Name
    21,                       !- Constant Heating Setpoint
    ,                         !- Cooling Setpoint Schedule Name
    50;                       !- Constant Cooling Setpoint

HVACTEMPLATE:ZONE:IDEALLOADSAIRSYSTEM,
    Block Build0_Alt0 Storey 0,    !- Zone Name
    ResidZone,                !- Template Thermostat Name
    ,                         !- System Availability Schedule Name
    50,                       !- Maximum Heating Supply Air Temperature
    13,                       !- Minimum Cooling Supply Air Temperature
    0.0156,                   !- Maximum Heating Supply Air Humidity Ratio
    0.0077,                   !- Minimum Cooling Supply Air Humidity Ratio
    NoLimit,                  !- Heating Limit
    ,                         !- Maximum Heating Air Flow Rate
    9128.5600875,             !- Maximum Sensible Heating Capacity
    NoLimit,                  !- Cooling Limit
    ,                         !- Maximum Cooling Air Flow Rate
    ,                         !- Maximum Total Cooling Capacity
    ,                         !- Heating Availability Schedule Name
    ,                         !- Cooling Availability Schedule Name
    ConstantSensibleHeatRatio,    !- Dehumidification Control Type
    0.7,                      !- Cooling Sensible Heat Ratio
    60,                       !- Dehumidification Setpoint
    None,                     !- Humidification Control Type
    30,                       !- Humidification Setpoint
    Flow/Area,                !- Outdoor Air Method
    0.007,                    !- Outdoor Air Flow Rate per Person
    1.050000e-03,             !- Outdoor Air Flow Rate per Zone Floor Area
    0,                        !- Outdoor Air Flow Rate per Zone
    ,                         !- Design Specification Outdoor Air Object Name
    None,                     !- Demand Controlled Ventilation Type
    NoEconomizer,             !- Outdoor Air Economizer Type
    None,                     !- Heat Recovery Type
    0,                        !- Sensible Heat Recovery Effectiveness
    0;                        !- Latent Heat Recovery Effectiveness

OUTDOORAIR:NODE,
    Block Build0_Alt0 Storey 0 IDEAL LOADS OUTDOOR AIR INLET,    !- Name
    -1,                       !- Height Above Ground
    ,                         !- Drybulb Temperature Schedule Name
    ,                         !- Wetbulb Temperature Schedule Name
    ,                         !- Wind Speed Schedule Name
    ,                         !- Wind Direction Schedule Name
    ,                         !- Wind Pressure Coefficient Curve Name
    No,                       !- Symmetric Wind Pressure Coefficient Curve
    Absolute;                 !- Wind Angle Type

ENERGYMANAGEMENTSYSTEM:SENSOR,
    T0,                       !- Name
    Block Build0_Alt0 Storey 0,    !- OutputVariable or OutputMeter Index Key Name
    Zone Mean Air Temperature;    !- OutputVariable or OutputMeter Name

ENERGYMANAGEMENTSYSTEM:SENSOR,
    Pow0,                     !- Name
    Block Build0_Alt0 Storey 0 IDEAL LOADS AIR SYSTEM,    !- OutputVariable or OutputMeter Index Key Name
    Zone Ideal Loads Supply Air Total Heating Rate;    !- OutputVariable or OutputMeter Name

ENERGYMANAGEMENTSYSTEM:SENSOR,
    DHWPow,                   !- Name
    DHW,                      !- OutputVariable or OutputMeter Index Key Name
    Water Use Equipment Heating Rate;    !- OutputVariable or OutputMeter Name

ENERGYMANAGEMENTSYSTEM:PROGRAMCALLINGMANAGER,
    Average Building Temperature,    !- Name
    EndOfZoneTimestepBeforeZoneReporting,    !- EnergyPlus Model Calling Point
    AverageZoneTemps;         !- Program Name 1

ENERGYMANAGEMENTSYSTEM:PROGRAMCALLINGMANAGER,
    Compute Total Building Heat Pow,    !- Name
    EndOfZoneTimestepBeforeZoneReporting,    !- EnergyPlus Model Calling Point
    TotZonePow;               !- Program Name 1

ENERGYMANAGEMENTSYSTEM:PROGRAMCALLINGMANAGER,
    Compute Total DHW Heat Pow,    !- Name
    EndOfZoneTimestepBeforeZoneReporting,    !- EnergyPlus Model Calling Point
    prgmDHWPow;               !- Program Name 1

ENERGYMANAGEMENTSYSTEM:PROGRAM,
    AverageZoneTemps,         !- Name
    SET SumNumerator = T0*Vol0,    !- Program Line 1
    SET SumDenominator  = Vol0,    !- Program Line 2
    SET AverageBuildingTemp  = SumNumerator / SumDenominator;    !- Program Line 3

ENERGYMANAGEMENTSYSTEM:PROGRAM,
    TotZonePow,               !- Name
    SET TotBuildPow = Pow0;    !- Program Line 1

ENERGYMANAGEMENTSYSTEM:PROGRAM,
    prgmDHWPow,               !- Name
    SET TotDHWPow = DHWPow;    !- Program Line 1

ENERGYMANAGEMENTSYSTEM:GLOBALVARIABLE,
    AverageBuildingTemp;      !- Erl Variable 1 Name

ENERGYMANAGEMENTSYSTEM:GLOBALVARIABLE,
    TotBuildPow;              !- Erl Variable 1 Name

ENERGYMANAGEMENTSYSTEM:GLOBALVARIABLE,
    TotDHWPow;                !- Erl Variable 1 Name

ENERGYMANAGEMENTSYSTEM:OUTPUTVARIABLE,
    Mean Heated Zones Air Temperature,    !- Name
    AverageBuildingTemp,      !- EMS Variable Name
    Averaged,                 !- Type of Data in Variable
    ZoneTimeStep;             !- Update Frequency

ENERGYMANAGEMENTSYSTEM:OUTPUTVARIABLE,
    Total Building Heating Power,    !- Name
    TotBuildPow,              !- EMS Variable Name
    Averaged,                 !- Type of Data in Variable
    ZoneTimeStep;             !- Update Frequency

ENERGYMANAGEMENTSYSTEM:OUTPUTVARIABLE,
    Total DHW Heating Power,    !- Name
    TotDHWPow,                !- EMS Variable Name
    Averaged,                 !- Type of Data in Variable
    ZoneTimeStep;             !- Update Frequency

ENERGYMANAGEMENTSYSTEM:INTERNALVARIABLE,
    Vol0,                     !- Name
    Block Build0_Alt0 Storey 0,    !- Internal Data Index Key Name
    Zone Air Volume;          !- Internal Data Type

WATERUSE:EQUIPMENT,
    DHW,                      !- Name
    General,                  !- EndUse Subcategory
    1.001229e-09,             !- Peak Flow Rate
    WaterTaps,                !- Flow Rate Fraction Schedule Name
    TargetWaterTemp,          !- Target Temperature Schedule Name
    HotWaterTemp,             !- Hot Water Supply Temperature Schedule Name
    ColdWaterTemp;            !- Cold Water Supply Temperature Schedule Name

Output:VariableDictionary,
    Regular;                  !- Key Field

OUTPUT:ENERGYMANAGEMENTSYSTEM,
    Verbose,                  !- Actuator Availability Dictionary Reporting
    Verbose,                  !- Internal Variable Availability Dictionary Reporting
    Verbose;                  !- EMS Runtime Language Debug Output Level

Output:Table:SummaryReports,
    AllSummary;               !- Report 1 Name

OutputControl:Table:Style,
    HTML;                     !- Column Separator

OUTPUT:VARIABLE,
    *,                        !- Key Value
    Site Outdoor Air Drybulb Temperature,    !- Variable Name
    Hourly;                   !- Reporting Frequency

OUTPUT:VARIABLE,
    *,                        !- Key Value
    Site Outdoor Air Relative Humidity,    !- Variable Name
    Hourly;                   !- Reporting Frequency

OUTPUT:VARIABLE,
    *,                        !- Key Value
    Site Outdoor Air Barometric Pressure,    !- Variable Name
    Hourly;                   !- Reporting Frequency

OUTPUT:VARIABLE,
    *,                        !- Key Value
    Site Wind Speed,          !- Variable Name
    Hourly;                   !- Reporting Frequency

OUTPUT:VARIABLE,
    *,                        !- Key Value
    Site Diffuse Solar Radiation Rate per Area,    !- Variable Name
    Hourly;                   !- Reporting Frequency

OUTPUT:VARIABLE,
    *,                        !- Key Value
    Site Direct Solar Radiation Rate per Area,    !- Variable Name
    Hourly;                   !- Reporting Frequency

OUTPUT:VARIABLE,
    *,                        !- Key Value
    Zone Electric Equipment Electric Power,    !- Variable Name
    Hourly;                   !- Reporting Frequency

OUTPUT:VARIABLE,
    *,                        !- Key Value
    Zone Electric Equipment Total Heating Rate,    !- Variable Name
    Hourly;                   !- Reporting Frequency

OUTPUT:VARIABLE,
    *,                        !- Key Value
    Surface Outside Face Incident Solar Radiation Rate per Area,    !- Variable Name
    Hourly;                   !- Reporting Frequency

OUTPUT:VARIABLE,
    *,                        !- Key Value
    Surface Outside Face Incident Beam Solar Radiation Rate per Area,    !- Variable Name
    Hourly;                   !- Reporting Frequency

OUTPUT:VARIABLE,
    *,                        !- Key Value
    Zone Ideal Loads Supply Air Total Heating Rate,    !- Variable Name
    Hourly;                   !- Reporting Frequency

OUTPUT:VARIABLE,
    *,                        !- Key Value
    Water Use Equipment Hot Water Mass Flow Rate,    !- Variable Name
    Hourly;                   !- Reporting Frequency

OUTPUT:VARIABLE,
    *,                        !- Key Value
    Water Use Equipment Cold Water Mass Flow Rate,    !- Variable Name
    Hourly;                   !- Reporting Frequency

OUTPUT:VARIABLE,
    *,                        !- Key Value
    Water Use Equipment Hot Water Temperature,    !- Variable Name
    Hourly;                   !- Reporting Frequency

OUTPUT:VARIABLE,
    *,                        !- Key Value
    Water Use Equipment Cold Water Temperature,    !- Variable Name
    Hourly;                   !- Reporting Frequency

OUTPUT:VARIABLE,
    *,                        !- Key Value
    Water Use Equipment Heating Rate,    !- Variable Name
    Hourly;                   !- Reporting Frequency

OUTPUT:VARIABLE,
    *,                        !- Key Value
    Mean Heated Zones Air Temperature,    !- Variable Name
    Hourly;                   !- Reporting Frequency

OUTPUT:VARIABLE,
    *,                        !- Key Value
    Total Building Heating Power,    !- Variable Name
    Hourly;                   !- Reporting Frequency

OUTPUT:VARIABLE,
    *,                        !- Key Value
    Total DHW Heating Power,    !- Variable Name
    Hourly;                   !- Reporting Frequency

OUTPUT:DIAGNOSTICS,
    DISPLAYEXTRAWARNINGS,     !- Key 1
    DisplayAdvancedReportVariables;    !- Key 2