!- Darwin Line endings 

Version,
    9.5;                      !- Version Identifier

SimulationControl,
    No,                       !- Do Zone Sizing Calculation
    No,                       !- Do System Sizing Calculation
    No,                       !- Do Plant Sizing Calculation
    No,                       !- Run Simulation for Sizing Periods
    Yes,                      !- Run Simulation for Weather File Run Periods
    No,                       !- Do HVAC Sizing Simulation for Sizing Periods
    1;                        !- Maximum Number of HVAC Sizing Simulation Passes

Building,
    None,                     !- Name
    0,                        !- North Axis
    Suburbs,                  !- Terrain
    0.04,                     !- Loads Convergence Tolerance Value
    0.4,                      !- Temperature Convergence Tolerance Value
    FullExterior,             !- Solar Distribution
    25,                       !- Maximum Number of Warmup Days
    6;                        !- Minimum Number of Warmup Days

SHADOWCALCULATION,
    PolygonClipping,          !- Shading Calculation Method
    Periodic,                 !- Shading Calculation Update Frequency Method
    20,                       !- Shading Calculation Update Frequency
    25000,                    !- Maximum Figures in Shadow Overlap Calculations
    SutherlandHodgman,        !- Polygon Clipping Algorithm
    512,                      !- Pixel Counting Resolution
    SimpleSkyDiffuseModeling,    !- Sky Diffuse Modeling Algorithm
    No,                       !- Output External Shading Calculation Results
    No,                       !- Disable SelfShading Within Shading Zone Groups
    No;                       !- Disable SelfShading From Shading Zone Groups to Other Zones

Timestep,
    4;                        !- Number of Timesteps per Hour

Site:Location,
    WeatherData/USA_CA_San.Francisco.Intl.AP.724940_TMY3.epw,    !- Name
    37.62,                    !- Latitude
    -122.4,                   !- Longitude
    -8,                       !- Time Zone
    2;                        !- Elevation

SizingPeriod:DesignDay,
    DENVER_STAPLETON Ann Htg 99.6% Condns DB,    !- Name
    12,                       !- Month
    21,                       !- Day of Month
    WinterDesignDay,          !- Day Type
    -20,                      !- Maximum DryBulb Temperature
    0,                        !- Daily DryBulb Temperature Range
    ,                         !- DryBulb Temperature Range Modifier Type
    ,                         !- DryBulb Temperature Range Modifier Day Schedule Name
    Wetbulb,                  !- Humidity Condition Type
    -20,                      !- Wetbulb or DewPoint at Maximum DryBulb
    ,                         !- Humidity Condition Day Schedule Name
    ,                         !- Humidity Ratio at Maximum DryBulb
    ,                         !- Enthalpy at Maximum DryBulb
    ,                         !- Daily WetBulb Temperature Range
    100594,                   !- Barometric Pressure
    2.3,                      !- Wind Speed
    180,                      !- Wind Direction
    No,                       !- Rain Indicator
    No,                       !- Snow Indicator
    No,                       !- Daylight Saving Time Indicator
    ASHRAEClearSky,           !- Solar Model Indicator
    ,                         !- Beam Solar Day Schedule Name
    ,                         !- Diffuse Solar Day Schedule Name
    ,                         !- ASHRAE Clear Sky Optical Depth for Beam Irradiance taub
    ,                         !- ASHRAE Clear Sky Optical Depth for Diffuse Irradiance taud
    0;                        !- Sky Clearness

SizingPeriod:DesignDay,
    DENVER_STAPLETON Ann Clg .4% Condns DB=>MWB,    !- Name
    7,                        !- Month
    21,                       !- Day of Month
    SummerDesignDay,          !- Day Type
    34.1,                     !- Maximum DryBulb Temperature
    15.2,                     !- Daily DryBulb Temperature Range
    ,                         !- DryBulb Temperature Range Modifier Type
    ,                         !- DryBulb Temperature Range Modifier Day Schedule Name
    Wetbulb,                  !- Humidity Condition Type
    15.8,                     !- Wetbulb or DewPoint at Maximum DryBulb
    ,                         !- Humidity Condition Day Schedule Name
    ,                         !- Humidity Ratio at Maximum DryBulb
    ,                         !- Enthalpy at Maximum DryBulb
    ,                         !- Daily WetBulb Temperature Range
    100594,                   !- Barometric Pressure
    4,                        !- Wind Speed
    120,                      !- Wind Direction
    No,                       !- Rain Indicator
    No,                       !- Snow Indicator
    No,                       !- Daylight Saving Time Indicator
    ASHRAEClearSky,           !- Solar Model Indicator
    ,                         !- Beam Solar Day Schedule Name
    ,                         !- Diffuse Solar Day Schedule Name
    ,                         !- ASHRAE Clear Sky Optical Depth for Beam Irradiance taub
    ,                         !- ASHRAE Clear Sky Optical Depth for Diffuse Irradiance taud
    1;                        !- Sky Clearness

RunPeriod,
    Run Period 1,             !- Name
    1,                        !- Begin Month
    1,                        !- Begin Day of Month
    ,                         !- Begin Year
    12,                       !- End Month
    31,                       !- End Day of Month
    ,                         !- End Year
    Tuesday,                  !- Day of Week for Start Day
    Yes,                      !- Use Weather File Holidays and Special Days
    Yes,                      !- Use Weather File Daylight Saving Period
    No,                       !- Apply Weekend Holiday Rule
    Yes,                      !- Use Weather File Rain Indicators
    Yes;                      !- Use Weather File Snow Indicators

SITE:GROUNDTEMPERATURE:BUILDINGSURFACE,
    15,                       !- January Ground Temperature
    15,                       !- February Ground Temperature
    15,                       !- March Ground Temperature
    15,                       !- April Ground Temperature
    15,                       !- May Ground Temperature
    15,                       !- June Ground Temperature
    15,                       !- July Ground Temperature
    15,                       !- August Ground Temperature
    15,                       !- September Ground Temperature
    15,                       !- October Ground Temperature
    15,                       !- November Ground Temperature
    15;                       !- December Ground Temperature

SCHEDULETYPELIMITS,
    Any Number,               !- Name
    ,                         !- Lower Limit Value
    ,                         !- Upper Limit Value
    ,                         !- Numeric Type
    Dimensionless;            !- Unit Type

SCHEDULE:COMPACT,
    AlwaysON,                 !- Name
    Any Number,               !- Schedule Type Limits Name
    Through: 12/31,           !- Field 1
    For: AllDays,             !- Field 2
    Until: 24:00,             !- Field 3
    1;                        !- Field 4

SCHEDULE:COMPACT,
    OccupActivity,            !- Name
    Any Number,               !- Schedule Type Limits Name
    Through: 12/31,           !- Field 1
    For: AllDays,             !- Field 2
    Until: 24:00,             !- Field 3
    70;                       !- Field 4

SCHEDULE:COMPACT,
    HotWaterTemp,             !- Name
    Any Number,               !- Schedule Type Limits Name
    Through: 12/31,           !- Field 1
    For: AllDays,             !- Field 2
    Until: 24:00,             !- Field 3
    55;                       !- Field 4

SCHEDULE:COMPACT,
    TargetWaterTemp,          !- Name
    Any Number,               !- Schedule Type Limits Name
    Through: 12/31,           !- Field 1
    For: AllDays,             !- Field 2
    Until: 24:00,             !- Field 3
    37;                       !- Field 4

SCHEDULE:FILE,
    LoadSchedule,             !- Name
    Any Number,               !- Schedule Type Limits Name
    /Users/alizad/PycharmProjects/mubes-ubem/examples/ForTest/InputFiles/Building23_winter.txt,    !- File Name
    1,                        !- Column Number
    0,                        !- Rows to Skip at Top
    8760,                     !- Number of Hours of Data
    Comma,                    !- Column Separator
    No;                       !- Interpolate to Timestep

SCHEDULE:FILE,
    Watertaps,                !- Name
    Any Number,               !- Schedule Type Limits Name
    /Users/alizad/PycharmProjects/mubes-ubem/examples/ForTest/InputFiles/domestic_hot_water_40_apartments.txt,    !- File Name
    1,                        !- Column Number
    0,                        !- Rows to Skip at Top
    8760,                     !- Number of Hours of Data
    Comma,                    !- Column Separator
    No;                       !- Interpolate to Timestep

SCHEDULE:FILE,
    ColdWaterTemp,            !- Name
    Any Number,               !- Schedule Type Limits Name
    /Users/alizad/PycharmProjects/mubes-ubem/examples/ForTest/InputFiles/cold_water_temperature_stockholm.txt,    !- File Name
    1,                        !- Column Number
    0,                        !- Rows to Skip at Top
    8760,                     !- Number of Hours of Data
    Comma,                    !- Column Separator
    No;                       !- Interpolate to Timestep

MATERIAL,
    DefaultMaterial,          !- Name
    Rough,                    !- Roughness
    0.1,                      !- Thickness
    0.1,                      !- Conductivity
    1000,                     !- Density
    1000,                     !- Specific Heat
    0.9,                      !- Thermal Absorptance
    0.7,                      !- Solar Absorptance
    0.7;                      !- Visible Absorptance

MATERIAL,
    Basement Floor,           !- Name
    Rough,                    !- Roughness
    0.1,                      !- Thickness
    0.9,                      !- Conductivity
    2300,                     !- Density
    1000,                     !- Specific Heat
    0.9,                      !- Thermal Absorptance
    0.7,                      !- Solar Absorptance
    0.7;                      !- Visible Absorptance

MATERIAL,
    Heated1rstFloor Inertia,    !- Name
    Rough,                    !- Roughness
    0.1,                      !- Thickness
    0.9,                      !- Conductivity
    2300,                     !- Density
    1000,                     !- Specific Heat
    0.9,                      !- Thermal Absorptance
    0.7,                      !- Solar Absorptance
    0.7;                      !- Visible Absorptance

MATERIAL,
    Heated1rstFloor Insulation,    !- Name
    Rough,                    !- Roughness
    0.15,                     !- Thickness
    0.035,                    !- Conductivity
    150,                      !- Density
    1000,                     !- Specific Heat
    0.9,                      !- Thermal Absorptance
    0.7,                      !- Solar Absorptance
    0.7;                      !- Visible Absorptance

MATERIAL,
    Roof Insulation,          !- Name
    Rough,                    !- Roughness
    0.3,                      !- Thickness
    0.03,                     !- Conductivity
    150,                      !- Density
    1000,                     !- Specific Heat
    0.9,                      !- Thermal Absorptance
    0.7,                      !- Solar Absorptance
    0.7;                      !- Visible Absorptance

MATERIAL,
    Wall Inertia,             !- Name
    Rough,                    !- Roughness
    0.2,                      !- Thickness
    0.9,                      !- Conductivity
    2300,                     !- Density
    1000,                     !- Specific Heat
    0.9,                      !- Thermal Absorptance
    0.7,                      !- Solar Absorptance
    0.7;                      !- Visible Absorptance

MATERIAL,
    Wall Insulation,          !- Name
    Rough,                    !- Roughness
    0.2,                      !- Thickness
    0.03,                     !- Conductivity
    150,                      !- Density
    1000,                     !- Specific Heat
    0.9,                      !- Thermal Absorptance
    0.7,                      !- Solar Absorptance
    0.7;                      !- Visible Absorptance

MATERIAL,
    HeatedZoneIntMass,        !- Name
    Rough,                    !- Roughness
    0.1,                      !- Thickness
    0.3,                      !- Conductivity
    600,                      !- Density
    1400,                     !- Specific Heat
    0.9,                      !- Thermal Absorptance
    0.7,                      !- Solar Absorptance
    0.7;                      !- Visible Absorptance

MATERIAL,
    NonHeatedZoneIntMass,     !- Name
    Rough,                    !- Roughness
    0.1,                      !- Thickness
    0.3,                      !- Conductivity
    600,                      !- Density
    1400,                     !- Specific Heat
    0.9,                      !- Thermal Absorptance
    0.7,                      !- Solar Absorptance
    0.7;                      !- Visible Absorptance

MATERIAL,
    AirWallMaterial,          !- Name
    MediumSmooth,             !- Roughness
    0.01,                     !- Thickness
    0.6,                      !- Conductivity
    800,                      !- Density
    1000,                     !- Specific Heat
    0.95,                     !- Thermal Absorptance
    0.7,                      !- Solar Absorptance
    0.7;                      !- Visible Absorptance

WINDOWMATERIAL:SIMPLEGLAZINGSYSTEM,
    DefaultGlazing,           !- Name
    2.7,                      !- UFactor
    0.763,                    !- Solar Heat Gain Coefficient
    0.8;                      !- Visible Transmittance

WINDOWMATERIAL:SIMPLEGLAZINGSYSTEM,
    Window,                   !- Name
    1.9,                      !- UFactor
    0.7,                      !- Solar Heat Gain Coefficient
    0.8;                      !- Visible Transmittance

CONSTRUCTION,
    Project Wall,             !- Name
    Wall Inertia,             !- Outside Layer
    Wall Insulation;          !- Layer 2

CONSTRUCTION,
    Project Basement Wall,    !- Name
    Wall Inertia;             !- Outside Layer

CONSTRUCTION,
    Project Partition,        !- Name
    AirWallMaterial;          !- Outside Layer

CONSTRUCTION,
    Project Basement Floor,    !- Name
    Basement Floor;           !- Outside Layer

CONSTRUCTION,
    Project Flat Roof,        !- Name
    Roof Insulation;          !- Outside Layer

CONSTRUCTION,
    Project External Window,    !- Name
    Window;                   !- Outside Layer

CONSTRUCTION,
    Project Heated1rstFloor,    !- Name
    Heated1rstFloor Inertia,    !- Outside Layer
    Heated1rstFloor Insulation;    !- Layer 2

CONSTRUCTION,
    Project Heated1rstFloor Rev,    !- Name
    Heated1rstFloor Insulation,    !- Outside Layer
    Heated1rstFloor Inertia;    !- Layer 2

CONSTRUCTION,
    HeatedZoneIntMassObj,     !- Name
    HeatedZoneIntMass;        !- Outside Layer

CONSTRUCTION,
    NonHeatedZoneIntMassObj,    !- Name
    NonHeatedZoneIntMass;     !- Outside Layer

GlobalGeometryRules,
    UpperLeftCorner,          !- Starting Vertex Position
    CounterClockWise,         !- Vertex Entry Direction
    World;                    !- Coordinate System

ZONE,
    Block Build0_Alt0 Storey -1,    !- Name
    0,                        !- Direction of Relative North
    0,                        !- X Origin
    0,                        !- Y Origin
    0,                        !- Z Origin
    1,                        !- Type
    1,                        !- Multiplier
    autocalculate,            !- Ceiling Height
    autocalculate,            !- Volume
    autocalculate,            !- Floor Area
    ,                         !- Zone Inside Convection Algorithm
    ,                         !- Zone Outside Convection Algorithm
    Yes;                      !- Part of Total Floor Area

ZONE,
    Block Build0_Alt0 Storey 0,    !- Name
    0,                        !- Direction of Relative North
    0,                        !- X Origin
    0,                        !- Y Origin
    0,                        !- Z Origin
    1,                        !- Type
    1,                        !- Multiplier
    autocalculate,            !- Ceiling Height
    autocalculate,            !- Volume
    autocalculate,            !- Floor Area
    ,                         !- Zone Inside Convection Algorithm
    ,                         !- Zone Outside Convection Algorithm
    Yes;                      !- Part of Total Floor Area

ZONE,
    Block Build1_Alt0 Storey -1,    !- Name
    0,                        !- Direction of Relative North
    0,                        !- X Origin
    0,                        !- Y Origin
    0,                        !- Z Origin
    1,                        !- Type
    1,                        !- Multiplier
    autocalculate,            !- Ceiling Height
    autocalculate,            !- Volume
    autocalculate,            !- Floor Area
    ,                         !- Zone Inside Convection Algorithm
    ,                         !- Zone Outside Convection Algorithm
    Yes;                      !- Part of Total Floor Area

ZONE,
    Block Build1_Alt0 Storey 0,    !- Name
    0,                        !- Direction of Relative North
    0,                        !- X Origin
    0,                        !- Y Origin
    0,                        !- Z Origin
    1,                        !- Type
    1,                        !- Multiplier
    autocalculate,            !- Ceiling Height
    autocalculate,            !- Volume
    autocalculate,            !- Floor Area
    ,                         !- Zone Inside Convection Algorithm
    ,                         !- Zone Outside Convection Algorithm
    Yes;                      !- Part of Total Floor Area

BUILDINGSURFACE:DETAILED,
    Block Build0_Alt0 Storey -1 Wall 0001,    !- Name
    wall,                     !- Surface Type
    Project Basement Wall,    !- Construction Name
    Block Build0_Alt0 Storey -1,    !- Zone Name
    ground,                   !- Outside Boundary Condition
    ,                         !- Outside Boundary Condition Object
    NoSun,                    !- Sun Exposure
    NoWind,                   !- Wind Exposure
    autocalculate,            !- View Factor to Ground
    autocalculate,            !- Number of Vertices
    6.604,                    !- Vertex 1 Xcoordinate
    1.85,                     !- Vertex 1 Ycoordinate
    0,                        !- Vertex 1 Zcoordinate
    6.604,                    !- Vertex 2 Xcoordinate
    1.85,                     !- Vertex 2 Ycoordinate
    -5,                       !- Vertex 2 Zcoordinate
    14.0853,                  !- Vertex 3 Xcoordinate
    8.2724,                   !- Vertex 3 Ycoordinate
    -5,                       !- Vertex 3 Zcoordinate
    14.0853,                  !- Vertex 4 Xcoordinate
    8.2724,                   !- Vertex 4 Ycoordinate
    0;                        !- Vertex 4 Zcoordinate

BUILDINGSURFACE:DETAILED,
    Block Build0_Alt0 Storey -1 Wall 0002,    !- Name
    wall,                     !- Surface Type
    Project Basement Wall,    !- Construction Name
    Block Build0_Alt0 Storey -1,    !- Zone Name
    ground,                   !- Outside Boundary Condition
    ,                         !- Outside Boundary Condition Object
    NoSun,                    !- Sun Exposure
    NoWind,                   !- Wind Exposure
    autocalculate,            !- View Factor to Ground
    autocalculate,            !- Number of Vertices
    14.0853,                  !- Vertex 1 Xcoordinate
    8.2724,                   !- Vertex 1 Ycoordinate
    0,                        !- Vertex 1 Zcoordinate
    14.0853,                  !- Vertex 2 Xcoordinate
    8.2724,                   !- Vertex 2 Ycoordinate
    -5,                       !- Vertex 2 Zcoordinate
    19.5473,                  !- Vertex 3 Xcoordinate
    1.9294,                   !- Vertex 3 Ycoordinate
    -5,                       !- Vertex 3 Zcoordinate
    19.5473,                  !- Vertex 4 Xcoordinate
    1.9294,                   !- Vertex 4 Ycoordinate
    0;                        !- Vertex 4 Zcoordinate

BUILDINGSURFACE:DETAILED,
    Block Build0_Alt0 Storey -1 Wall 0003,    !- Name
    wall,                     !- Surface Type
    Project Basement Wall,    !- Construction Name
    Block Build0_Alt0 Storey -1,    !- Zone Name
    ground,                   !- Outside Boundary Condition
    ,                         !- Outside Boundary Condition Object
    NoSun,                    !- Sun Exposure
    NoWind,                   !- Wind Exposure
    autocalculate,            !- View Factor to Ground
    autocalculate,            !- Number of Vertices
    19.5473,                  !- Vertex 1 Xcoordinate
    1.9294,                   !- Vertex 1 Ycoordinate
    0,                        !- Vertex 1 Zcoordinate
    19.5473,                  !- Vertex 2 Xcoordinate
    1.9294,                   !- Vertex 2 Ycoordinate
    -5,                       !- Vertex 2 Zcoordinate
    27.2163,                  !- Vertex 3 Xcoordinate
    8.5304,                   !- Vertex 3 Ycoordinate
    -5,                       !- Vertex 3 Zcoordinate
    27.2163,                  !- Vertex 4 Xcoordinate
    8.5304,                   !- Vertex 4 Ycoordinate
    0;                        !- Vertex 4 Zcoordinate

BUILDINGSURFACE:DETAILED,
    Block Build0_Alt0 Storey -1 Wall 0004,    !- Name
    wall,                     !- Surface Type
    Project Basement Wall,    !- Construction Name
    Block Build0_Alt0 Storey -1,    !- Zone Name
    ground,                   !- Outside Boundary Condition
    ,                         !- Outside Boundary Condition Object
    NoSun,                    !- Sun Exposure
    NoWind,                   !- Wind Exposure
    autocalculate,            !- View Factor to Ground
    autocalculate,            !- Number of Vertices
    27.2163,                  !- Vertex 1 Xcoordinate
    8.5304,                   !- Vertex 1 Ycoordinate
    0,                        !- Vertex 1 Zcoordinate
    27.2163,                  !- Vertex 2 Xcoordinate
    8.5304,                   !- Vertex 2 Ycoordinate
    -5,                       !- Vertex 2 Zcoordinate
    21.3773,                  !- Vertex 3 Xcoordinate
    15.3124,                  !- Vertex 3 Ycoordinate
    -5,                       !- Vertex 3 Zcoordinate
    21.3773,                  !- Vertex 4 Xcoordinate
    15.3124,                  !- Vertex 4 Ycoordinate
    0;                        !- Vertex 4 Zcoordinate

BUILDINGSURFACE:DETAILED,
    Block Build0_Alt0 Storey -1 Wall 0005,    !- Name
    wall,                     !- Surface Type
    Project Basement Wall,    !- Construction Name
    Block Build0_Alt0 Storey -1,    !- Zone Name
    ground,                   !- Outside Boundary Condition
    ,                         !- Outside Boundary Condition Object
    NoSun,                    !- Sun Exposure
    NoWind,                   !- Wind Exposure
    autocalculate,            !- View Factor to Ground
    autocalculate,            !- Number of Vertices
    21.3773,                  !- Vertex 1 Xcoordinate
    15.3124,                  !- Vertex 1 Ycoordinate
    0,                        !- Vertex 1 Zcoordinate
    21.3773,                  !- Vertex 2 Xcoordinate
    15.3124,                  !- Vertex 2 Ycoordinate
    -5,                       !- Vertex 2 Zcoordinate
    26.6833,                  !- Vertex 3 Xcoordinate
    19.8804,                  !- Vertex 3 Ycoordinate
    -5,                       !- Vertex 3 Zcoordinate
    26.6833,                  !- Vertex 4 Xcoordinate
    19.8804,                  !- Vertex 4 Ycoordinate
    0;                        !- Vertex 4 Zcoordinate

BUILDINGSURFACE:DETAILED,
    Block Build0_Alt0 Storey -1 Wall 0006,    !- Name
    wall,                     !- Surface Type
    Project Basement Wall,    !- Construction Name
    Block Build0_Alt0 Storey -1,    !- Zone Name
    ground,                   !- Outside Boundary Condition
    ,                         !- Outside Boundary Condition Object
    NoSun,                    !- Sun Exposure
    NoWind,                   !- Wind Exposure
    autocalculate,            !- View Factor to Ground
    autocalculate,            !- Number of Vertices
    26.6833,                  !- Vertex 1 Xcoordinate
    19.8804,                  !- Vertex 1 Ycoordinate
    0,                        !- Vertex 1 Zcoordinate
    26.6833,                  !- Vertex 2 Xcoordinate
    19.8804,                  !- Vertex 2 Ycoordinate
    -5,                       !- Vertex 2 Zcoordinate
    20.0573,                  !- Vertex 3 Xcoordinate
    27.5044,                  !- Vertex 3 Ycoordinate
    -5,                       !- Vertex 3 Zcoordinate
    20.0573,                  !- Vertex 4 Xcoordinate
    27.5044,                  !- Vertex 4 Ycoordinate
    0;                        !- Vertex 4 Zcoordinate

BUILDINGSURFACE:DETAILED,
    Block Build0_Alt0 Storey -1 Wall 0007,    !- Name
    wall,                     !- Surface Type
    Project Basement Wall,    !- Construction Name
    Block Build0_Alt0 Storey -1,    !- Zone Name
    ground,                   !- Outside Boundary Condition
    ,                         !- Outside Boundary Condition Object
    NoSun,                    !- Sun Exposure
    NoWind,                   !- Wind Exposure
    autocalculate,            !- View Factor to Ground
    autocalculate,            !- Number of Vertices
    20.0573,                  !- Vertex 1 Xcoordinate
    27.5044,                  !- Vertex 1 Ycoordinate
    0,                        !- Vertex 1 Zcoordinate
    20.0573,                  !- Vertex 2 Xcoordinate
    27.5044,                  !- Vertex 2 Ycoordinate
    -5,                       !- Vertex 2 Zcoordinate
    14.7793,                  !- Vertex 3 Xcoordinate
    22.8624,                  !- Vertex 3 Ycoordinate
    -5,                       !- Vertex 3 Zcoordinate
    14.7793,                  !- Vertex 4 Xcoordinate
    22.8624,                  !- Vertex 4 Ycoordinate
    0;                        !- Vertex 4 Zcoordinate

BUILDINGSURFACE:DETAILED,
    Block Build0_Alt0 Storey -1 Wall 0008,    !- Name
    wall,                     !- Surface Type
    Project Basement Wall,    !- Construction Name
    Block Build0_Alt0 Storey -1,    !- Zone Name
    ground,                   !- Outside Boundary Condition
    ,                         !- Outside Boundary Condition Object
    NoSun,                    !- Sun Exposure
    NoWind,                   !- Wind Exposure
    autocalculate,            !- View Factor to Ground
    autocalculate,            !- Number of Vertices
    14.7793,                  !- Vertex 1 Xcoordinate
    22.8624,                  !- Vertex 1 Ycoordinate
    0,                        !- Vertex 1 Zcoordinate
    14.7793,                  !- Vertex 2 Xcoordinate
    22.8624,                  !- Vertex 2 Ycoordinate
    -5,                       !- Vertex 2 Zcoordinate
    8.9693,                   !- Vertex 3 Xcoordinate
    29.7104,                  !- Vertex 3 Ycoordinate
    -5,                       !- Vertex 3 Zcoordinate
    8.9693,                   !- Vertex 4 Xcoordinate
    29.7104,                  !- Vertex 4 Ycoordinate
    0;                        !- Vertex 4 Zcoordinate

BUILDINGSURFACE:DETAILED,
    Block Build0_Alt0 Storey -1 Wall 0009,    !- Name
    wall,                     !- Surface Type
    Project Basement Wall,    !- Construction Name
    Block Build0_Alt0 Storey -1,    !- Zone Name
    ground,                   !- Outside Boundary Condition
    ,                         !- Outside Boundary Condition Object
    NoSun,                    !- Sun Exposure
    NoWind,                   !- Wind Exposure
    autocalculate,            !- View Factor to Ground
    autocalculate,            !- Number of Vertices
    8.9693,                   !- Vertex 1 Xcoordinate
    29.7104,                  !- Vertex 1 Ycoordinate
    0,                        !- Vertex 1 Zcoordinate
    8.9693,                   !- Vertex 2 Xcoordinate
    29.7104,                  !- Vertex 2 Ycoordinate
    -5,                       !- Vertex 2 Zcoordinate
    1.3393,                   !- Vertex 3 Xcoordinate
    23.1614,                  !- Vertex 3 Ycoordinate
    -5,                       !- Vertex 3 Zcoordinate
    1.3393,                   !- Vertex 4 Xcoordinate
    23.1614,                  !- Vertex 4 Ycoordinate
    0;                        !- Vertex 4 Zcoordinate

BUILDINGSURFACE:DETAILED,
    Block Build0_Alt0 Storey -1 Wall 0010,    !- Name
    wall,                     !- Surface Type
    Project Basement Wall,    !- Construction Name
    Block Build0_Alt0 Storey -1,    !- Zone Name
    ground,                   !- Outside Boundary Condition
    ,                         !- Outside Boundary Condition Object
    NoSun,                    !- Sun Exposure
    NoWind,                   !- Wind Exposure
    autocalculate,            !- View Factor to Ground
    autocalculate,            !- Number of Vertices
    1.3393,                   !- Vertex 1 Xcoordinate
    23.1614,                  !- Vertex 1 Ycoordinate
    0,                        !- Vertex 1 Zcoordinate
    1.3393,                   !- Vertex 2 Xcoordinate
    23.1614,                  !- Vertex 2 Ycoordinate
    -5,                       !- Vertex 2 Zcoordinate
    6.3033,                   !- Vertex 3 Xcoordinate
    17.3784,                  !- Vertex 3 Ycoordinate
    -5,                       !- Vertex 3 Zcoordinate
    6.3033,                   !- Vertex 4 Xcoordinate
    17.3784,                  !- Vertex 4 Ycoordinate
    0;                        !- Vertex 4 Zcoordinate

BUILDINGSURFACE:DETAILED,
    Block Build0_Alt0 Storey -1 Wall 0011,    !- Name
    wall,                     !- Surface Type
    Project Basement Wall,    !- Construction Name
    Block Build0_Alt0 Storey -1,    !- Zone Name
    ground,                   !- Outside Boundary Condition
    ,                         !- Outside Boundary Condition Object
    NoSun,                    !- Sun Exposure
    NoWind,                   !- Wind Exposure
    autocalculate,            !- View Factor to Ground
    autocalculate,            !- Number of Vertices
    6.3033,                   !- Vertex 1 Xcoordinate
    17.3784,                  !- Vertex 1 Ycoordinate
    0,                        !- Vertex 1 Zcoordinate
    6.3033,                   !- Vertex 2 Xcoordinate
    17.3784,                  !- Vertex 2 Ycoordinate
    -5,                       !- Vertex 2 Zcoordinate
    1.6213,                   !- Vertex 3 Xcoordinate
    13.3594,                  !- Vertex 3 Ycoordinate
    -5,                       !- Vertex 3 Zcoordinate
    1.6213,                   !- Vertex 4 Xcoordinate
    13.3594,                  !- Vertex 4 Ycoordinate
    0;                        !- Vertex 4 Zcoordinate

BUILDINGSURFACE:DETAILED,
    Block Build0_Alt0 Storey -1 Wall 0012,    !- Name
    wall,                     !- Surface Type
    Project Basement Wall,    !- Construction Name
    Block Build0_Alt0 Storey -1,    !- Zone Name
    ground,                   !- Outside Boundary Condition
    ,                         !- Outside Boundary Condition Object
    NoSun,                    !- Sun Exposure
    NoWind,                   !- Wind Exposure
    autocalculate,            !- View Factor to Ground
    autocalculate,            !- Number of Vertices
    1.6213,                   !- Vertex 1 Xcoordinate
    13.3594,                  !- Vertex 1 Ycoordinate
    0,                        !- Vertex 1 Zcoordinate
    1.6213,                   !- Vertex 2 Xcoordinate
    13.3594,                  !- Vertex 2 Ycoordinate
    -5,                       !- Vertex 2 Zcoordinate
    4.2263,                   !- Vertex 3 Xcoordinate
    10.3244,                  !- Vertex 3 Ycoordinate
    -5,                       !- Vertex 3 Zcoordinate
    4.2263,                   !- Vertex 4 Xcoordinate
    10.3244,                  !- Vertex 4 Ycoordinate
    0;                        !- Vertex 4 Zcoordinate

BUILDINGSURFACE:DETAILED,
    Block Build0_Alt0 Storey -1 Wall 0013,    !- Name
    wall,                     !- Surface Type
    Project Basement Wall,    !- Construction Name
    Block Build0_Alt0 Storey -1,    !- Zone Name
    ground,                   !- Outside Boundary Condition
    ,                         !- Outside Boundary Condition Object
    NoSun,                    !- Sun Exposure
    NoWind,                   !- Wind Exposure
    autocalculate,            !- View Factor to Ground
    autocalculate,            !- Number of Vertices
    4.2263,                   !- Vertex 1 Xcoordinate
    10.3244,                  !- Vertex 1 Ycoordinate
    0,                        !- Vertex 1 Zcoordinate
    4.2263,                   !- Vertex 2 Xcoordinate
    10.3244,                  !- Vertex 2 Ycoordinate
    -5,                       !- Vertex 2 Zcoordinate
    1.4069,                   !- Vertex 3 Xcoordinate
    7.9046,                   !- Vertex 3 Ycoordinate
    -5,                       !- Vertex 3 Zcoordinate
    1.4069,                   !- Vertex 4 Xcoordinate
    7.9046,                   !- Vertex 4 Ycoordinate
    0;                        !- Vertex 4 Zcoordinate

BUILDINGSURFACE:DETAILED,
    Block Build0_Alt0 Storey -1 Floor 0001,    !- Name
    floor,                    !- Surface Type
    Project Basement Floor,    !- Construction Name
    Block Build0_Alt0 Storey -1,    !- Zone Name
    ground,                   !- Outside Boundary Condition
    ,                         !- Outside Boundary Condition Object
    NoSun,                    !- Sun Exposure
    NoWind,                   !- Wind Exposure
    autocalculate,            !- View Factor to Ground
    autocalculate,            !- Number of Vertices
    20.0573,                  !- Vertex 1 Xcoordinate
    27.5044,                  !- Vertex 1 Ycoordinate
    -5,                       !- Vertex 1 Zcoordinate
    26.6833,                  !- Vertex 2 Xcoordinate
    19.8804,                  !- Vertex 2 Ycoordinate
    -5,                       !- Vertex 2 Zcoordinate
    21.3773,                  !- Vertex 3 Xcoordinate
    15.3124,                  !- Vertex 3 Ycoordinate
    -5,                       !- Vertex 3 Zcoordinate
    27.2163,                  !- Vertex 4 Xcoordinate
    8.5304,                   !- Vertex 4 Ycoordinate
    -5,                       !- Vertex 4 Zcoordinate
    19.5473,                  !- Vertex 5 Xcoordinate
    1.9294,                   !- Vertex 5 Ycoordinate
    -5,                       !- Vertex 5 Zcoordinate
    14.0853,                  !- Vertex 6 Xcoordinate
    8.2724,                   !- Vertex 6 Ycoordinate
    -5,                       !- Vertex 6 Zcoordinate
    6.604,                    !- Vertex 7 Xcoordinate
    1.85,                     !- Vertex 7 Ycoordinate
    -5,                       !- Vertex 7 Zcoordinate
    1.4069,                   !- Vertex 8 Xcoordinate
    7.9046,                   !- Vertex 8 Ycoordinate
    -5,                       !- Vertex 8 Zcoordinate
    4.2263,                   !- Vertex 9 Xcoordinate
    10.3244,                  !- Vertex 9 Ycoordinate
    -5,                       !- Vertex 9 Zcoordinate
    1.6213,                   !- Vertex 10 Xcoordinate
    13.3594,                  !- Vertex 10 Ycoordinate
    -5,                       !- Vertex 10 Zcoordinate
    6.3033,                   !- Vertex 11 Xcoordinate
    17.3784,                  !- Vertex 11 Ycoordinate
    -5,                       !- Vertex 11 Zcoordinate
    1.3393,                   !- Vertex 12 Xcoordinate
    23.1614,                  !- Vertex 12 Ycoordinate
    -5,                       !- Vertex 12 Zcoordinate
    8.9693,                   !- Vertex 13 Xcoordinate
    29.7104,                  !- Vertex 13 Ycoordinate
    -5,                       !- Vertex 13 Zcoordinate
    14.7793,                  !- Vertex 14 Xcoordinate
    22.8624,                  !- Vertex 14 Ycoordinate
    -5;                       !- Vertex 14 Zcoordinate

BUILDINGSURFACE:DETAILED,
    Block Build0_Alt0 Storey 0 Wall 0001,    !- Name
    wall,                     !- Surface Type
    Project Wall,             !- Construction Name
    Block Build0_Alt0 Storey 0,    !- Zone Name
    outdoors,                 !- Outside Boundary Condition
    ,                         !- Outside Boundary Condition Object
    SunExposed,               !- Sun Exposure
    WindExposed,              !- Wind Exposure
    autocalculate,            !- View Factor to Ground
    autocalculate,            !- Number of Vertices
    6.604,                    !- Vertex 1 Xcoordinate
    1.85,                     !- Vertex 1 Ycoordinate
    21,                       !- Vertex 1 Zcoordinate
    6.604,                    !- Vertex 2 Xcoordinate
    1.85,                     !- Vertex 2 Ycoordinate
    0,                        !- Vertex 2 Zcoordinate
    14.0853,                  !- Vertex 3 Xcoordinate
    8.2724,                   !- Vertex 3 Ycoordinate
    0,                        !- Vertex 3 Zcoordinate
    14.0853,                  !- Vertex 4 Xcoordinate
    8.2724,                   !- Vertex 4 Ycoordinate
    21;                       !- Vertex 4 Zcoordinate

BUILDINGSURFACE:DETAILED,
    Block Build0_Alt0 Storey 0 Wall 0002,    !- Name
    wall,                     !- Surface Type
    Project Wall,             !- Construction Name
    Block Build0_Alt0 Storey 0,    !- Zone Name
    outdoors,                 !- Outside Boundary Condition
    ,                         !- Outside Boundary Condition Object
    SunExposed,               !- Sun Exposure
    WindExposed,              !- Wind Exposure
    autocalculate,            !- View Factor to Ground
    autocalculate,            !- Number of Vertices
    14.0853,                  !- Vertex 1 Xcoordinate
    8.2724,                   !- Vertex 1 Ycoordinate
    21,                       !- Vertex 1 Zcoordinate
    14.0853,                  !- Vertex 2 Xcoordinate
    8.2724,                   !- Vertex 2 Ycoordinate
    0,                        !- Vertex 2 Zcoordinate
    19.5473,                  !- Vertex 3 Xcoordinate
    1.9294,                   !- Vertex 3 Ycoordinate
    0,                        !- Vertex 3 Zcoordinate
    19.5473,                  !- Vertex 4 Xcoordinate
    1.9294,                   !- Vertex 4 Ycoordinate
    21;                       !- Vertex 4 Zcoordinate

BUILDINGSURFACE:DETAILED,
    Block Build0_Alt0 Storey 0 Wall 0003,    !- Name
    wall,                     !- Surface Type
    Project Wall,             !- Construction Name
    Block Build0_Alt0 Storey 0,    !- Zone Name
    outdoors,                 !- Outside Boundary Condition
    ,                         !- Outside Boundary Condition Object
    SunExposed,               !- Sun Exposure
    WindExposed,              !- Wind Exposure
    autocalculate,            !- View Factor to Ground
    autocalculate,            !- Number of Vertices
    19.5473,                  !- Vertex 1 Xcoordinate
    1.9294,                   !- Vertex 1 Ycoordinate
    21,                       !- Vertex 1 Zcoordinate
    19.5473,                  !- Vertex 2 Xcoordinate
    1.9294,                   !- Vertex 2 Ycoordinate
    0,                        !- Vertex 2 Zcoordinate
    27.2163,                  !- Vertex 3 Xcoordinate
    8.5304,                   !- Vertex 3 Ycoordinate
    0,                        !- Vertex 3 Zcoordinate
    27.2163,                  !- Vertex 4 Xcoordinate
    8.5304,                   !- Vertex 4 Ycoordinate
    21;                       !- Vertex 4 Zcoordinate

BUILDINGSURFACE:DETAILED,
    Block Build0_Alt0 Storey 0 Wall 0004,    !- Name
    wall,                     !- Surface Type
    Project Wall,             !- Construction Name
    Block Build0_Alt0 Storey 0,    !- Zone Name
    outdoors,                 !- Outside Boundary Condition
    ,                         !- Outside Boundary Condition Object
    SunExposed,               !- Sun Exposure
    WindExposed,              !- Wind Exposure
    autocalculate,            !- View Factor to Ground
    autocalculate,            !- Number of Vertices
    27.2163,                  !- Vertex 1 Xcoordinate
    8.5304,                   !- Vertex 1 Ycoordinate
    21,                       !- Vertex 1 Zcoordinate
    27.2163,                  !- Vertex 2 Xcoordinate
    8.5304,                   !- Vertex 2 Ycoordinate
    0,                        !- Vertex 2 Zcoordinate
    21.3773,                  !- Vertex 3 Xcoordinate
    15.3124,                  !- Vertex 3 Ycoordinate
    0,                        !- Vertex 3 Zcoordinate
    21.3773,                  !- Vertex 4 Xcoordinate
    15.3124,                  !- Vertex 4 Ycoordinate
    21;                       !- Vertex 4 Zcoordinate

BUILDINGSURFACE:DETAILED,
    Block Build0_Alt0 Storey 0 Wall 0005,    !- Name
    wall,                     !- Surface Type
    Project Wall,             !- Construction Name
    Block Build0_Alt0 Storey 0,    !- Zone Name
    outdoors,                 !- Outside Boundary Condition
    ,                         !- Outside Boundary Condition Object
    SunExposed,               !- Sun Exposure
    WindExposed,              !- Wind Exposure
    autocalculate,            !- View Factor to Ground
    autocalculate,            !- Number of Vertices
    21.3773,                  !- Vertex 1 Xcoordinate
    15.3124,                  !- Vertex 1 Ycoordinate
    21,                       !- Vertex 1 Zcoordinate
    21.3773,                  !- Vertex 2 Xcoordinate
    15.3124,                  !- Vertex 2 Ycoordinate
    0,                        !- Vertex 2 Zcoordinate
    26.6833,                  !- Vertex 3 Xcoordinate
    19.8804,                  !- Vertex 3 Ycoordinate
    0,                        !- Vertex 3 Zcoordinate
    26.6833,                  !- Vertex 4 Xcoordinate
    19.8804,                  !- Vertex 4 Ycoordinate
    21;                       !- Vertex 4 Zcoordinate

BUILDINGSURFACE:DETAILED,
    Block Build0_Alt0 Storey 0 Wall 0006,    !- Name
    wall,                     !- Surface Type
    Project Wall,             !- Construction Name
    Block Build0_Alt0 Storey 0,    !- Zone Name
    outdoors,                 !- Outside Boundary Condition
    ,                         !- Outside Boundary Condition Object
    SunExposed,               !- Sun Exposure
    WindExposed,              !- Wind Exposure
    autocalculate,            !- View Factor to Ground
    autocalculate,            !- Number of Vertices
    26.6833,                  !- Vertex 1 Xcoordinate
    19.8804,                  !- Vertex 1 Ycoordinate
    21,                       !- Vertex 1 Zcoordinate
    26.6833,                  !- Vertex 2 Xcoordinate
    19.8804,                  !- Vertex 2 Ycoordinate
    0,                        !- Vertex 2 Zcoordinate
    20.0573,                  !- Vertex 3 Xcoordinate
    27.5044,                  !- Vertex 3 Ycoordinate
    0,                        !- Vertex 3 Zcoordinate
    20.0573,                  !- Vertex 4 Xcoordinate
    27.5044,                  !- Vertex 4 Ycoordinate
    21;                       !- Vertex 4 Zcoordinate

BUILDINGSURFACE:DETAILED,
    Block Build0_Alt0 Storey 0 Wall 0007,    !- Name
    wall,                     !- Surface Type
    Project Wall,             !- Construction Name
    Block Build0_Alt0 Storey 0,    !- Zone Name
    outdoors,                 !- Outside Boundary Condition
    ,                         !- Outside Boundary Condition Object
    SunExposed,               !- Sun Exposure
    WindExposed,              !- Wind Exposure
    autocalculate,            !- View Factor to Ground
    autocalculate,            !- Number of Vertices
    20.0573,                  !- Vertex 1 Xcoordinate
    27.5044,                  !- Vertex 1 Ycoordinate
    21,                       !- Vertex 1 Zcoordinate
    20.0573,                  !- Vertex 2 Xcoordinate
    27.5044,                  !- Vertex 2 Ycoordinate
    0,                        !- Vertex 2 Zcoordinate
    14.7793,                  !- Vertex 3 Xcoordinate
    22.8624,                  !- Vertex 3 Ycoordinate
    0,                        !- Vertex 3 Zcoordinate
    14.7793,                  !- Vertex 4 Xcoordinate
    22.8624,                  !- Vertex 4 Ycoordinate
    21;                       !- Vertex 4 Zcoordinate

BUILDINGSURFACE:DETAILED,
    Block Build0_Alt0 Storey 0 Wall 0008,    !- Name
    wall,                     !- Surface Type
    Project Wall,             !- Construction Name
    Block Build0_Alt0 Storey 0,    !- Zone Name
    outdoors,                 !- Outside Boundary Condition
    ,                         !- Outside Boundary Condition Object
    SunExposed,               !- Sun Exposure
    WindExposed,              !- Wind Exposure
    autocalculate,            !- View Factor to Ground
    autocalculate,            !- Number of Vertices
    14.7793,                  !- Vertex 1 Xcoordinate
    22.8624,                  !- Vertex 1 Ycoordinate
    21,                       !- Vertex 1 Zcoordinate
    14.7793,                  !- Vertex 2 Xcoordinate
    22.8624,                  !- Vertex 2 Ycoordinate
    0,                        !- Vertex 2 Zcoordinate
    8.9693,                   !- Vertex 3 Xcoordinate
    29.7104,                  !- Vertex 3 Ycoordinate
    0,                        !- Vertex 3 Zcoordinate
    8.9693,                   !- Vertex 4 Xcoordinate
    29.7104,                  !- Vertex 4 Ycoordinate
    21;                       !- Vertex 4 Zcoordinate

BUILDINGSURFACE:DETAILED,
    Block Build0_Alt0 Storey 0 Wall 0009,    !- Name
    wall,                     !- Surface Type
    Project Wall,             !- Construction Name
    Block Build0_Alt0 Storey 0,    !- Zone Name
    outdoors,                 !- Outside Boundary Condition
    ,                         !- Outside Boundary Condition Object
    SunExposed,               !- Sun Exposure
    WindExposed,              !- Wind Exposure
    autocalculate,            !- View Factor to Ground
    autocalculate,            !- Number of Vertices
    8.9693,                   !- Vertex 1 Xcoordinate
    29.7104,                  !- Vertex 1 Ycoordinate
    21,                       !- Vertex 1 Zcoordinate
    8.9693,                   !- Vertex 2 Xcoordinate
    29.7104,                  !- Vertex 2 Ycoordinate
    0,                        !- Vertex 2 Zcoordinate
    1.3393,                   !- Vertex 3 Xcoordinate
    23.1614,                  !- Vertex 3 Ycoordinate
    0,                        !- Vertex 3 Zcoordinate
    1.3393,                   !- Vertex 4 Xcoordinate
    23.1614,                  !- Vertex 4 Ycoordinate
    21;                       !- Vertex 4 Zcoordinate

BUILDINGSURFACE:DETAILED,
    Block Build0_Alt0 Storey 0 Wall 0010,    !- Name
    wall,                     !- Surface Type
    Project Wall,             !- Construction Name
    Block Build0_Alt0 Storey 0,    !- Zone Name
    outdoors,                 !- Outside Boundary Condition
    ,                         !- Outside Boundary Condition Object
    SunExposed,               !- Sun Exposure
    WindExposed,              !- Wind Exposure
    autocalculate,            !- View Factor to Ground
    autocalculate,            !- Number of Vertices
    1.3393,                   !- Vertex 1 Xcoordinate
    23.1614,                  !- Vertex 1 Ycoordinate
    21,                       !- Vertex 1 Zcoordinate
    1.3393,                   !- Vertex 2 Xcoordinate
    23.1614,                  !- Vertex 2 Ycoordinate
    0,                        !- Vertex 2 Zcoordinate
    6.3033,                   !- Vertex 3 Xcoordinate
    17.3784,                  !- Vertex 3 Ycoordinate
    0,                        !- Vertex 3 Zcoordinate
    6.3033,                   !- Vertex 4 Xcoordinate
    17.3784,                  !- Vertex 4 Ycoordinate
    21;                       !- Vertex 4 Zcoordinate

BUILDINGSURFACE:DETAILED,
    Block Build0_Alt0 Storey 0 Wall 0011,    !- Name
    wall,                     !- Surface Type
    Project Wall,             !- Construction Name
    Block Build0_Alt0 Storey 0,    !- Zone Name
    outdoors,                 !- Outside Boundary Condition
    ,                         !- Outside Boundary Condition Object
    SunExposed,               !- Sun Exposure
    WindExposed,              !- Wind Exposure
    autocalculate,            !- View Factor to Ground
    autocalculate,            !- Number of Vertices
    6.3033,                   !- Vertex 1 Xcoordinate
    17.3784,                  !- Vertex 1 Ycoordinate
    21,                       !- Vertex 1 Zcoordinate
    6.3033,                   !- Vertex 2 Xcoordinate
    17.3784,                  !- Vertex 2 Ycoordinate
    0,                        !- Vertex 2 Zcoordinate
    1.6213,                   !- Vertex 3 Xcoordinate
    13.3594,                  !- Vertex 3 Ycoordinate
    0,                        !- Vertex 3 Zcoordinate
    1.6213,                   !- Vertex 4 Xcoordinate
    13.3594,                  !- Vertex 4 Ycoordinate
    21;                       !- Vertex 4 Zcoordinate

BUILDINGSURFACE:DETAILED,
    Block Build0_Alt0 Storey 0 Wall 0012,    !- Name
    wall,                     !- Surface Type
    Project Wall,             !- Construction Name
    Block Build0_Alt0 Storey 0,    !- Zone Name
    outdoors,                 !- Outside Boundary Condition
    ,                         !- Outside Boundary Condition Object
    SunExposed,               !- Sun Exposure
    WindExposed,              !- Wind Exposure
    autocalculate,            !- View Factor to Ground
    autocalculate,            !- Number of Vertices
    1.6213,                   !- Vertex 1 Xcoordinate
    13.3594,                  !- Vertex 1 Ycoordinate
    21,                       !- Vertex 1 Zcoordinate
    1.6213,                   !- Vertex 2 Xcoordinate
    13.3594,                  !- Vertex 2 Ycoordinate
    0,                        !- Vertex 2 Zcoordinate
    4.2263,                   !- Vertex 3 Xcoordinate
    10.3244,                  !- Vertex 3 Ycoordinate
    0,                        !- Vertex 3 Zcoordinate
    4.2263,                   !- Vertex 4 Xcoordinate
    10.3244,                  !- Vertex 4 Ycoordinate
    21;                       !- Vertex 4 Zcoordinate

BUILDINGSURFACE:DETAILED,
    Block Build0_Alt0 Storey 0 Wall 0013,    !- Name
    wall,                     !- Surface Type
    Project Wall,             !- Construction Name
    Block Build0_Alt0 Storey 0,    !- Zone Name
    outdoors,                 !- Outside Boundary Condition
    ,                         !- Outside Boundary Condition Object
    SunExposed,               !- Sun Exposure
    WindExposed,              !- Wind Exposure
    autocalculate,            !- View Factor to Ground
    autocalculate,            !- Number of Vertices
    4.2263,                   !- Vertex 1 Xcoordinate
    10.3244,                  !- Vertex 1 Ycoordinate
    21,                       !- Vertex 1 Zcoordinate
    4.2263,                   !- Vertex 2 Xcoordinate
    10.3244,                  !- Vertex 2 Ycoordinate
    0,                        !- Vertex 2 Zcoordinate
    1.4069,                   !- Vertex 3 Xcoordinate
    7.9046,                   !- Vertex 3 Ycoordinate
    0,                        !- Vertex 3 Zcoordinate
    1.4069,                   !- Vertex 4 Xcoordinate
    7.9046,                   !- Vertex 4 Ycoordinate
    21;                       !- Vertex 4 Zcoordinate

BUILDINGSURFACE:DETAILED,
    Block Build1_Alt0 Storey -1 Wall 0002,    !- Name
    wall,                     !- Surface Type
    Project Basement Wall,    !- Construction Name
    Block Build1_Alt0 Storey -1,    !- Zone Name
    ground,                   !- Outside Boundary Condition
    ,                         !- Outside Boundary Condition Object
    NoSun,                    !- Sun Exposure
    NoWind,                   !- Wind Exposure
    autocalculate,            !- View Factor to Ground
    autocalculate,            !- Number of Vertices
    1.4069,                   !- Vertex 1 Xcoordinate
    7.9046,                   !- Vertex 1 Ycoordinate
    0,                        !- Vertex 1 Zcoordinate
    1.4069,                   !- Vertex 2 Xcoordinate
    7.9046,                   !- Vertex 2 Ycoordinate
    -5,                       !- Vertex 2 Zcoordinate
    -5.4407,                  !- Vertex 3 Xcoordinate
    2.0274,                   !- Vertex 3 Ycoordinate
    -5,                       !- Vertex 3 Zcoordinate
    -5.4407,                  !- Vertex 4 Xcoordinate
    2.0274,                   !- Vertex 4 Ycoordinate
    0;                        !- Vertex 4 Zcoordinate

BUILDINGSURFACE:DETAILED,
    Block Build1_Alt0 Storey -1 Wall 0003,    !- Name
    wall,                     !- Surface Type
    Project Basement Wall,    !- Construction Name
    Block Build1_Alt0 Storey -1,    !- Zone Name
    ground,                   !- Outside Boundary Condition
    ,                         !- Outside Boundary Condition Object
    NoSun,                    !- Sun Exposure
    NoWind,                   !- Wind Exposure
    autocalculate,            !- View Factor to Ground
    autocalculate,            !- Number of Vertices
    -5.4407,                  !- Vertex 1 Xcoordinate
    2.0274,                   !- Vertex 1 Ycoordinate
    0,                        !- Vertex 1 Zcoordinate
    -5.4407,                  !- Vertex 2 Xcoordinate
    2.0274,                   !- Vertex 2 Ycoordinate
    -5,                       !- Vertex 2 Zcoordinate
    -8.2687,                  !- Vertex 3 Xcoordinate
    5.3214,                   !- Vertex 3 Ycoordinate
    -5,                       !- Vertex 3 Zcoordinate
    -8.2687,                  !- Vertex 4 Xcoordinate
    5.3214,                   !- Vertex 4 Ycoordinate
    0;                        !- Vertex 4 Zcoordinate

BUILDINGSURFACE:DETAILED,
    Block Build1_Alt0 Storey -1 Wall 0004,    !- Name
    wall,                     !- Surface Type
    Project Basement Wall,    !- Construction Name
    Block Build1_Alt0 Storey -1,    !- Zone Name
    ground,                   !- Outside Boundary Condition
    ,                         !- Outside Boundary Condition Object
    NoSun,                    !- Sun Exposure
    NoWind,                   !- Wind Exposure
    autocalculate,            !- View Factor to Ground
    autocalculate,            !- Number of Vertices
    -8.2687,                  !- Vertex 1 Xcoordinate
    5.3214,                   !- Vertex 1 Ycoordinate
    0,                        !- Vertex 1 Zcoordinate
    -8.2687,                  !- Vertex 2 Xcoordinate
    5.3214,                   !- Vertex 2 Ycoordinate
    -5,                       !- Vertex 2 Zcoordinate
    -15.9097,                 !- Vertex 3 Xcoordinate
    -1.2376,                  !- Vertex 3 Ycoordinate
    -5,                       !- Vertex 3 Zcoordinate
    -15.9097,                 !- Vertex 4 Xcoordinate
    -1.2376,                  !- Vertex 4 Ycoordinate
    0;                        !- Vertex 4 Zcoordinate

BUILDINGSURFACE:DETAILED,
    Block Build1_Alt0 Storey -1 Wall 0005,    !- Name
    wall,                     !- Surface Type
    Project Basement Wall,    !- Construction Name
    Block Build1_Alt0 Storey -1,    !- Zone Name
    ground,                   !- Outside Boundary Condition
    ,                         !- Outside Boundary Condition Object
    NoSun,                    !- Sun Exposure
    NoWind,                   !- Wind Exposure
    autocalculate,            !- View Factor to Ground
    autocalculate,            !- Number of Vertices
    -15.9097,                 !- Vertex 1 Xcoordinate
    -1.2376,                  !- Vertex 1 Ycoordinate
    0,                        !- Vertex 1 Zcoordinate
    -15.9097,                 !- Vertex 2 Xcoordinate
    -1.2376,                  !- Vertex 2 Ycoordinate
    -5,                       !- Vertex 2 Zcoordinate
    -9.1677,                  !- Vertex 3 Xcoordinate
    -9.0916,                  !- Vertex 3 Ycoordinate
    -5,                       !- Vertex 3 Zcoordinate
    -9.1677,                  !- Vertex 4 Xcoordinate
    -9.0916,                  !- Vertex 4 Ycoordinate
    0;                        !- Vertex 4 Zcoordinate

BUILDINGSURFACE:DETAILED,
    Block Build1_Alt0 Storey -1 Wall 0006,    !- Name
    wall,                     !- Surface Type
    Project Basement Wall,    !- Construction Name
    Block Build1_Alt0 Storey -1,    !- Zone Name
    ground,                   !- Outside Boundary Condition
    ,                         !- Outside Boundary Condition Object
    NoSun,                    !- Sun Exposure
    NoWind,                   !- Wind Exposure
    autocalculate,            !- View Factor to Ground
    autocalculate,            !- Number of Vertices
    -9.1677,                  !- Vertex 1 Xcoordinate
    -9.0916,                  !- Vertex 1 Ycoordinate
    0,                        !- Vertex 1 Zcoordinate
    -9.1677,                  !- Vertex 2 Xcoordinate
    -9.0916,                  !- Vertex 2 Ycoordinate
    -5,                       !- Vertex 2 Zcoordinate
    -12.2027,                 !- Vertex 3 Xcoordinate
    -11.6976,                 !- Vertex 3 Ycoordinate
    -5,                       !- Vertex 3 Zcoordinate
    -12.2027,                 !- Vertex 4 Xcoordinate
    -11.6976,                 !- Vertex 4 Ycoordinate
    0;                        !- Vertex 4 Zcoordinate

BUILDINGSURFACE:DETAILED,
    Block Build1_Alt0 Storey -1 Wall 0007,    !- Name
    wall,                     !- Surface Type
    Project Basement Wall,    !- Construction Name
    Block Build1_Alt0 Storey -1,    !- Zone Name
    ground,                   !- Outside Boundary Condition
    ,                         !- Outside Boundary Condition Object
    NoSun,                    !- Sun Exposure
    NoWind,                   !- Wind Exposure
    autocalculate,            !- View Factor to Ground
    autocalculate,            !- Number of Vertices
    -12.2027,                 !- Vertex 1 Xcoordinate
    -11.6976,                 !- Vertex 1 Ycoordinate
    0,                        !- Vertex 1 Zcoordinate
    -12.2027,                 !- Vertex 2 Xcoordinate
    -11.6976,                 !- Vertex 2 Ycoordinate
    -5,                       !- Vertex 2 Zcoordinate
    -8.0477,                  !- Vertex 3 Xcoordinate
    -16.5386,                 !- Vertex 3 Ycoordinate
    -5,                       !- Vertex 3 Zcoordinate
    -8.0477,                  !- Vertex 4 Xcoordinate
    -16.5386,                 !- Vertex 4 Ycoordinate
    0;                        !- Vertex 4 Zcoordinate

BUILDINGSURFACE:DETAILED,
    Block Build1_Alt0 Storey -1 Wall 0008,    !- Name
    wall,                     !- Surface Type
    Project Basement Wall,    !- Construction Name
    Block Build1_Alt0 Storey -1,    !- Zone Name
    ground,                   !- Outside Boundary Condition
    ,                         !- Outside Boundary Condition Object
    NoSun,                    !- Sun Exposure
    NoWind,                   !- Wind Exposure
    autocalculate,            !- View Factor to Ground
    autocalculate,            !- Number of Vertices
    -8.0477,                  !- Vertex 1 Xcoordinate
    -16.5386,                 !- Vertex 1 Ycoordinate
    0,                        !- Vertex 1 Zcoordinate
    -8.0477,                  !- Vertex 2 Xcoordinate
    -16.5386,                 !- Vertex 2 Ycoordinate
    -5,                       !- Vertex 2 Zcoordinate
    -5.0117,                  !- Vertex 3 Xcoordinate
    -13.9326,                 !- Vertex 3 Ycoordinate
    -5,                       !- Vertex 3 Zcoordinate
    -5.0117,                  !- Vertex 4 Xcoordinate
    -13.9326,                 !- Vertex 4 Ycoordinate
    0;                        !- Vertex 4 Zcoordinate

BUILDINGSURFACE:DETAILED,
    Block Build1_Alt0 Storey -1 Wall 0009,    !- Name
    wall,                     !- Surface Type
    Project Basement Wall,    !- Construction Name
    Block Build1_Alt0 Storey -1,    !- Zone Name
    ground,                   !- Outside Boundary Condition
    ,                         !- Outside Boundary Condition Object
    NoSun,                    !- Sun Exposure
    NoWind,                   !- Wind Exposure
    autocalculate,            !- View Factor to Ground
    autocalculate,            !- Number of Vertices
    -5.0117,                  !- Vertex 1 Xcoordinate
    -13.9326,                 !- Vertex 1 Ycoordinate
    0,                        !- Vertex 1 Zcoordinate
    -5.0117,                  !- Vertex 2 Xcoordinate
    -13.9326,                 !- Vertex 2 Ycoordinate
    -5,                       !- Vertex 2 Zcoordinate
    -0.8397,                  !- Vertex 3 Xcoordinate
    -18.7926,                 !- Vertex 3 Ycoordinate
    -5,                       !- Vertex 3 Zcoordinate
    -0.8397,                  !- Vertex 4 Xcoordinate
    -18.7926,                 !- Vertex 4 Ycoordinate
    0;                        !- Vertex 4 Zcoordinate

BUILDINGSURFACE:DETAILED,
    Block Build1_Alt0 Storey -1 Wall 0010,    !- Name
    wall,                     !- Surface Type
    Project Basement Wall,    !- Construction Name
    Block Build1_Alt0 Storey -1,    !- Zone Name
    ground,                   !- Outside Boundary Condition
    ,                         !- Outside Boundary Condition Object
    NoSun,                    !- Sun Exposure
    NoWind,                   !- Wind Exposure
    autocalculate,            !- View Factor to Ground
    autocalculate,            !- Number of Vertices
    -0.8397,                  !- Vertex 1 Xcoordinate
    -18.7926,                 !- Vertex 1 Ycoordinate
    0,                        !- Vertex 1 Zcoordinate
    -0.8397,                  !- Vertex 2 Xcoordinate
    -18.7926,                 !- Vertex 2 Ycoordinate
    -5,                       !- Vertex 2 Zcoordinate
    6.8103,                   !- Vertex 3 Xcoordinate
    -12.2446,                 !- Vertex 3 Ycoordinate
    -5,                       !- Vertex 3 Zcoordinate
    6.8103,                   !- Vertex 4 Xcoordinate
    -12.2446,                 !- Vertex 4 Ycoordinate
    0;                        !- Vertex 4 Zcoordinate

BUILDINGSURFACE:DETAILED,
    Block Build1_Alt0 Storey -1 Wall 0011,    !- Name
    wall,                     !- Surface Type
    Project Basement Wall,    !- Construction Name
    Block Build1_Alt0 Storey -1,    !- Zone Name
    ground,                   !- Outside Boundary Condition
    ,                         !- Outside Boundary Condition Object
    NoSun,                    !- Sun Exposure
    NoWind,                   !- Wind Exposure
    autocalculate,            !- View Factor to Ground
    autocalculate,            !- Number of Vertices
    6.8103,                   !- Vertex 1 Xcoordinate
    -12.2446,                 !- Vertex 1 Ycoordinate
    0,                        !- Vertex 1 Zcoordinate
    6.8103,                   !- Vertex 2 Xcoordinate
    -12.2446,                 !- Vertex 2 Ycoordinate
    -5,                       !- Vertex 2 Zcoordinate
    -0.2427,                  !- Vertex 3 Xcoordinate
    -4.0276,                  !- Vertex 3 Ycoordinate
    -5,                       !- Vertex 3 Zcoordinate
    -0.2427,                  !- Vertex 4 Xcoordinate
    -4.0276,                  !- Vertex 4 Ycoordinate
    0;                        !- Vertex 4 Zcoordinate

BUILDINGSURFACE:DETAILED,
    Block Build1_Alt0 Storey -1 Wall 0012,    !- Name
    wall,                     !- Surface Type
    Project Basement Wall,    !- Construction Name
    Block Build1_Alt0 Storey -1,    !- Zone Name
    ground,                   !- Outside Boundary Condition
    ,                         !- Outside Boundary Condition Object
    NoSun,                    !- Sun Exposure
    NoWind,                   !- Wind Exposure
    autocalculate,            !- View Factor to Ground
    autocalculate,            !- Number of Vertices
    -0.2427,                  !- Vertex 1 Xcoordinate
    -4.0276,                  !- Vertex 1 Ycoordinate
    0,                        !- Vertex 1 Zcoordinate
    -0.2427,                  !- Vertex 2 Xcoordinate
    -4.0276,                  !- Vertex 2 Ycoordinate
    -5,                       !- Vertex 2 Zcoordinate
    6.604,                    !- Vertex 3 Xcoordinate
    1.85,                     !- Vertex 3 Ycoordinate
    -5,                       !- Vertex 3 Zcoordinate
    6.604,                    !- Vertex 4 Xcoordinate
    1.85,                     !- Vertex 4 Ycoordinate
    0;                        !- Vertex 4 Zcoordinate

BUILDINGSURFACE:DETAILED,
    Block Build1_Alt0 Storey -1 Floor 0001,    !- Name
    floor,                    !- Surface Type
    Project Basement Floor,    !- Construction Name
    Block Build1_Alt0 Storey -1,    !- Zone Name
    ground,                   !- Outside Boundary Condition
    ,                         !- Outside Boundary Condition Object
    NoSun,                    !- Sun Exposure
    NoWind,                   !- Wind Exposure
    autocalculate,            !- View Factor to Ground
    autocalculate,            !- Number of Vertices
    1.4069,                   !- Vertex 1 Xcoordinate
    7.9046,                   !- Vertex 1 Ycoordinate
    -5,                       !- Vertex 1 Zcoordinate
    6.604,                    !- Vertex 2 Xcoordinate
    1.85,                     !- Vertex 2 Ycoordinate
    -5,                       !- Vertex 2 Zcoordinate
    -0.2427,                  !- Vertex 3 Xcoordinate
    -4.0276,                  !- Vertex 3 Ycoordinate
    -5,                       !- Vertex 3 Zcoordinate
    6.8103,                   !- Vertex 4 Xcoordinate
    -12.2446,                 !- Vertex 4 Ycoordinate
    -5,                       !- Vertex 4 Zcoordinate
    -0.8397,                  !- Vertex 5 Xcoordinate
    -18.7926,                 !- Vertex 5 Ycoordinate
    -5,                       !- Vertex 5 Zcoordinate
    -5.0117,                  !- Vertex 6 Xcoordinate
    -13.9326,                 !- Vertex 6 Ycoordinate
    -5,                       !- Vertex 6 Zcoordinate
    -8.0477,                  !- Vertex 7 Xcoordinate
    -16.5386,                 !- Vertex 7 Ycoordinate
    -5,                       !- Vertex 7 Zcoordinate
    -12.2027,                 !- Vertex 8 Xcoordinate
    -11.6976,                 !- Vertex 8 Ycoordinate
    -5,                       !- Vertex 8 Zcoordinate
    -9.1677,                  !- Vertex 9 Xcoordinate
    -9.0916,                  !- Vertex 9 Ycoordinate
    -5,                       !- Vertex 9 Zcoordinate
    -15.9097,                 !- Vertex 10 Xcoordinate
    -1.2376,                  !- Vertex 10 Ycoordinate
    -5,                       !- Vertex 10 Zcoordinate
    -8.2687,                  !- Vertex 11 Xcoordinate
    5.3214,                   !- Vertex 11 Ycoordinate
    -5,                       !- Vertex 11 Zcoordinate
    -5.4407,                  !- Vertex 12 Xcoordinate
    2.0274,                   !- Vertex 12 Ycoordinate
    -5;                       !- Vertex 12 Zcoordinate

BUILDINGSURFACE:DETAILED,
    Block Build1_Alt0 Storey 0 Wall 0002,    !- Name
    wall,                     !- Surface Type
    Project Wall,             !- Construction Name
    Block Build1_Alt0 Storey 0,    !- Zone Name
    outdoors,                 !- Outside Boundary Condition
    ,                         !- Outside Boundary Condition Object
    SunExposed,               !- Sun Exposure
    WindExposed,              !- Wind Exposure
    autocalculate,            !- View Factor to Ground
    autocalculate,            !- Number of Vertices
    1.4069,                   !- Vertex 1 Xcoordinate
    7.9046,                   !- Vertex 1 Ycoordinate
    12,                       !- Vertex 1 Zcoordinate
    1.4069,                   !- Vertex 2 Xcoordinate
    7.9046,                   !- Vertex 2 Ycoordinate
    0,                        !- Vertex 2 Zcoordinate
    -5.4407,                  !- Vertex 3 Xcoordinate
    2.0274,                   !- Vertex 3 Ycoordinate
    0,                        !- Vertex 3 Zcoordinate
    -5.4407,                  !- Vertex 4 Xcoordinate
    2.0274,                   !- Vertex 4 Ycoordinate
    12;                       !- Vertex 4 Zcoordinate

BUILDINGSURFACE:DETAILED,
    Block Build1_Alt0 Storey 0 Wall 0003,    !- Name
    wall,                     !- Surface Type
    Project Wall,             !- Construction Name
    Block Build1_Alt0 Storey 0,    !- Zone Name
    outdoors,                 !- Outside Boundary Condition
    ,                         !- Outside Boundary Condition Object
    SunExposed,               !- Sun Exposure
    WindExposed,              !- Wind Exposure
    autocalculate,            !- View Factor to Ground
    autocalculate,            !- Number of Vertices
    -5.4407,                  !- Vertex 1 Xcoordinate
    2.0274,                   !- Vertex 1 Ycoordinate
    12,                       !- Vertex 1 Zcoordinate
    -5.4407,                  !- Vertex 2 Xcoordinate
    2.0274,                   !- Vertex 2 Ycoordinate
    0,                        !- Vertex 2 Zcoordinate
    -8.2687,                  !- Vertex 3 Xcoordinate
    5.3214,                   !- Vertex 3 Ycoordinate
    0,                        !- Vertex 3 Zcoordinate
    -8.2687,                  !- Vertex 4 Xcoordinate
    5.3214,                   !- Vertex 4 Ycoordinate
    12;                       !- Vertex 4 Zcoordinate

BUILDINGSURFACE:DETAILED,
    Block Build1_Alt0 Storey 0 Wall 0004,    !- Name
    wall,                     !- Surface Type
    Project Wall,             !- Construction Name
    Block Build1_Alt0 Storey 0,    !- Zone Name
    outdoors,                 !- Outside Boundary Condition
    ,                         !- Outside Boundary Condition Object
    SunExposed,               !- Sun Exposure
    WindExposed,              !- Wind Exposure
    autocalculate,            !- View Factor to Ground
    autocalculate,            !- Number of Vertices
    -8.2687,                  !- Vertex 1 Xcoordinate
    5.3214,                   !- Vertex 1 Ycoordinate
    12,                       !- Vertex 1 Zcoordinate
    -8.2687,                  !- Vertex 2 Xcoordinate
    5.3214,                   !- Vertex 2 Ycoordinate
    0,                        !- Vertex 2 Zcoordinate
    -15.9097,                 !- Vertex 3 Xcoordinate
    -1.2376,                  !- Vertex 3 Ycoordinate
    0,                        !- Vertex 3 Zcoordinate
    -15.9097,                 !- Vertex 4 Xcoordinate
    -1.2376,                  !- Vertex 4 Ycoordinate
    12;                       !- Vertex 4 Zcoordinate

BUILDINGSURFACE:DETAILED,
    Block Build1_Alt0 Storey 0 Wall 0005,    !- Name
    wall,                     !- Surface Type
    Project Wall,             !- Construction Name
    Block Build1_Alt0 Storey 0,    !- Zone Name
    outdoors,                 !- Outside Boundary Condition
    ,                         !- Outside Boundary Condition Object
    SunExposed,               !- Sun Exposure
    WindExposed,              !- Wind Exposure
    autocalculate,            !- View Factor to Ground
    autocalculate,            !- Number of Vertices
    -15.9097,                 !- Vertex 1 Xcoordinate
    -1.2376,                  !- Vertex 1 Ycoordinate
    12,                       !- Vertex 1 Zcoordinate
    -15.9097,                 !- Vertex 2 Xcoordinate
    -1.2376,                  !- Vertex 2 Ycoordinate
    0,                        !- Vertex 2 Zcoordinate
    -9.1677,                  !- Vertex 3 Xcoordinate
    -9.0916,                  !- Vertex 3 Ycoordinate
    0,                        !- Vertex 3 Zcoordinate
    -9.1677,                  !- Vertex 4 Xcoordinate
    -9.0916,                  !- Vertex 4 Ycoordinate
    12;                       !- Vertex 4 Zcoordinate

BUILDINGSURFACE:DETAILED,
    Block Build1_Alt0 Storey 0 Wall 0006,    !- Name
    wall,                     !- Surface Type
    Project Wall,             !- Construction Name
    Block Build1_Alt0 Storey 0,    !- Zone Name
    outdoors,                 !- Outside Boundary Condition
    ,                         !- Outside Boundary Condition Object
    SunExposed,               !- Sun Exposure
    WindExposed,              !- Wind Exposure
    autocalculate,            !- View Factor to Ground
    autocalculate,            !- Number of Vertices
    -9.1677,                  !- Vertex 1 Xcoordinate
    -9.0916,                  !- Vertex 1 Ycoordinate
    12,                       !- Vertex 1 Zcoordinate
    -9.1677,                  !- Vertex 2 Xcoordinate
    -9.0916,                  !- Vertex 2 Ycoordinate
    0,                        !- Vertex 2 Zcoordinate
    -12.2027,                 !- Vertex 3 Xcoordinate
    -11.6976,                 !- Vertex 3 Ycoordinate
    0,                        !- Vertex 3 Zcoordinate
    -12.2027,                 !- Vertex 4 Xcoordinate
    -11.6976,                 !- Vertex 4 Ycoordinate
    12;                       !- Vertex 4 Zcoordinate

BUILDINGSURFACE:DETAILED,
    Block Build1_Alt0 Storey 0 Wall 0007,    !- Name
    wall,                     !- Surface Type
    Project Wall,             !- Construction Name
    Block Build1_Alt0 Storey 0,    !- Zone Name
    outdoors,                 !- Outside Boundary Condition
    ,                         !- Outside Boundary Condition Object
    SunExposed,               !- Sun Exposure
    WindExposed,              !- Wind Exposure
    autocalculate,            !- View Factor to Ground
    autocalculate,            !- Number of Vertices
    -12.2027,                 !- Vertex 1 Xcoordinate
    -11.6976,                 !- Vertex 1 Ycoordinate
    12,                       !- Vertex 1 Zcoordinate
    -12.2027,                 !- Vertex 2 Xcoordinate
    -11.6976,                 !- Vertex 2 Ycoordinate
    0,                        !- Vertex 2 Zcoordinate
    -8.0477,                  !- Vertex 3 Xcoordinate
    -16.5386,                 !- Vertex 3 Ycoordinate
    0,                        !- Vertex 3 Zcoordinate
    -8.0477,                  !- Vertex 4 Xcoordinate
    -16.5386,                 !- Vertex 4 Ycoordinate
    12;                       !- Vertex 4 Zcoordinate

BUILDINGSURFACE:DETAILED,
    Block Build1_Alt0 Storey 0 Wall 0008,    !- Name
    wall,                     !- Surface Type
    Project Wall,             !- Construction Name
    Block Build1_Alt0 Storey 0,    !- Zone Name
    outdoors,                 !- Outside Boundary Condition
    ,                         !- Outside Boundary Condition Object
    SunExposed,               !- Sun Exposure
    WindExposed,              !- Wind Exposure
    autocalculate,            !- View Factor to Ground
    autocalculate,            !- Number of Vertices
    -8.0477,                  !- Vertex 1 Xcoordinate
    -16.5386,                 !- Vertex 1 Ycoordinate
    12,                       !- Vertex 1 Zcoordinate
    -8.0477,                  !- Vertex 2 Xcoordinate
    -16.5386,                 !- Vertex 2 Ycoordinate
    0,                        !- Vertex 2 Zcoordinate
    -5.0117,                  !- Vertex 3 Xcoordinate
    -13.9326,                 !- Vertex 3 Ycoordinate
    0,                        !- Vertex 3 Zcoordinate
    -5.0117,                  !- Vertex 4 Xcoordinate
    -13.9326,                 !- Vertex 4 Ycoordinate
    12;                       !- Vertex 4 Zcoordinate

BUILDINGSURFACE:DETAILED,
    Block Build1_Alt0 Storey 0 Wall 0009,    !- Name
    wall,                     !- Surface Type
    Project Wall,             !- Construction Name
    Block Build1_Alt0 Storey 0,    !- Zone Name
    outdoors,                 !- Outside Boundary Condition
    ,                         !- Outside Boundary Condition Object
    SunExposed,               !- Sun Exposure
    WindExposed,              !- Wind Exposure
    autocalculate,            !- View Factor to Ground
    autocalculate,            !- Number of Vertices
    -5.0117,                  !- Vertex 1 Xcoordinate
    -13.9326,                 !- Vertex 1 Ycoordinate
    12,                       !- Vertex 1 Zcoordinate
    -5.0117,                  !- Vertex 2 Xcoordinate
    -13.9326,                 !- Vertex 2 Ycoordinate
    0,                        !- Vertex 2 Zcoordinate
    -0.8397,                  !- Vertex 3 Xcoordinate
    -18.7926,                 !- Vertex 3 Ycoordinate
    0,                        !- Vertex 3 Zcoordinate
    -0.8397,                  !- Vertex 4 Xcoordinate
    -18.7926,                 !- Vertex 4 Ycoordinate
    12;                       !- Vertex 4 Zcoordinate

BUILDINGSURFACE:DETAILED,
    Block Build1_Alt0 Storey 0 Wall 0010,    !- Name
    wall,                     !- Surface Type
    Project Wall,             !- Construction Name
    Block Build1_Alt0 Storey 0,    !- Zone Name
    outdoors,                 !- Outside Boundary Condition
    ,                         !- Outside Boundary Condition Object
    SunExposed,               !- Sun Exposure
    WindExposed,              !- Wind Exposure
    autocalculate,            !- View Factor to Ground
    autocalculate,            !- Number of Vertices
    -0.8397,                  !- Vertex 1 Xcoordinate
    -18.7926,                 !- Vertex 1 Ycoordinate
    12,                       !- Vertex 1 Zcoordinate
    -0.8397,                  !- Vertex 2 Xcoordinate
    -18.7926,                 !- Vertex 2 Ycoordinate
    0,                        !- Vertex 2 Zcoordinate
    6.8103,                   !- Vertex 3 Xcoordinate
    -12.2446,                 !- Vertex 3 Ycoordinate
    0,                        !- Vertex 3 Zcoordinate
    6.8103,                   !- Vertex 4 Xcoordinate
    -12.2446,                 !- Vertex 4 Ycoordinate
    12;                       !- Vertex 4 Zcoordinate

BUILDINGSURFACE:DETAILED,
    Block Build1_Alt0 Storey 0 Wall 0011,    !- Name
    wall,                     !- Surface Type
    Project Wall,             !- Construction Name
    Block Build1_Alt0 Storey 0,    !- Zone Name
    outdoors,                 !- Outside Boundary Condition
    ,                         !- Outside Boundary Condition Object
    SunExposed,               !- Sun Exposure
    WindExposed,              !- Wind Exposure
    autocalculate,            !- View Factor to Ground
    autocalculate,            !- Number of Vertices
    6.8103,                   !- Vertex 1 Xcoordinate
    -12.2446,                 !- Vertex 1 Ycoordinate
    12,                       !- Vertex 1 Zcoordinate
    6.8103,                   !- Vertex 2 Xcoordinate
    -12.2446,                 !- Vertex 2 Ycoordinate
    0,                        !- Vertex 2 Zcoordinate
    -0.2427,                  !- Vertex 3 Xcoordinate
    -4.0276,                  !- Vertex 3 Ycoordinate
    0,                        !- Vertex 3 Zcoordinate
    -0.2427,                  !- Vertex 4 Xcoordinate
    -4.0276,                  !- Vertex 4 Ycoordinate
    12;                       !- Vertex 4 Zcoordinate

BUILDINGSURFACE:DETAILED,
    Block Build1_Alt0 Storey 0 Wall 0012,    !- Name
    wall,                     !- Surface Type
    Project Wall,             !- Construction Name
    Block Build1_Alt0 Storey 0,    !- Zone Name
    outdoors,                 !- Outside Boundary Condition
    ,                         !- Outside Boundary Condition Object
    SunExposed,               !- Sun Exposure
    WindExposed,              !- Wind Exposure
    autocalculate,            !- View Factor to Ground
    autocalculate,            !- Number of Vertices
    -0.2427,                  !- Vertex 1 Xcoordinate
    -4.0276,                  !- Vertex 1 Ycoordinate
    12,                       !- Vertex 1 Zcoordinate
    -0.2427,                  !- Vertex 2 Xcoordinate
    -4.0276,                  !- Vertex 2 Ycoordinate
    0,                        !- Vertex 2 Zcoordinate
    6.604,                    !- Vertex 3 Xcoordinate
    1.85,                     !- Vertex 3 Ycoordinate
    0,                        !- Vertex 3 Zcoordinate
    6.604,                    !- Vertex 4 Xcoordinate
    1.85,                     !- Vertex 4 Ycoordinate
    12;                       !- Vertex 4 Zcoordinate

BUILDINGSURFACE:DETAILED,
    Block Build0_Alt0 Storey -1 Wall 0014_1,    !- Name
    wall,                     !- Surface Type
    Project Partition,        !- Construction Name
    Block Build0_Alt0 Storey -1,    !- Zone Name
    surface,                  !- Outside Boundary Condition
    Block Build1_Alt0 Storey -1 Wall 0001_1,    !- Outside Boundary Condition Object
    NoSun,                    !- Sun Exposure
    NoWind,                   !- Wind Exposure
    autocalculate,            !- View Factor to Ground
    autocalculate,            !- Number of Vertices
    1.4069000003920362,       !- Vertex 1 Xcoordinate
    7.904599999543279,        !- Vertex 1 Ycoordinate
    0,                        !- Vertex 1 Zcoordinate
    1.4069000003920362,       !- Vertex 2 Xcoordinate
    7.904599999543279,        !- Vertex 2 Ycoordinate
    -5,                       !- Vertex 2 Zcoordinate
    6.604000000319769,        !- Vertex 3 Xcoordinate
    1.849999999627471,        !- Vertex 3 Ycoordinate
    -5,                       !- Vertex 3 Zcoordinate
    6.604000000319769,        !- Vertex 4 Xcoordinate
    1.849999999627471,        !- Vertex 4 Ycoordinate
    0;                        !- Vertex 4 Zcoordinate

BUILDINGSURFACE:DETAILED,
    Block Build1_Alt0 Storey -1 Wall 0001_1,    !- Name
    wall,                     !- Surface Type
    Project Partition,        !- Construction Name
    Block Build1_Alt0 Storey -1,    !- Zone Name
    surface,                  !- Outside Boundary Condition
    Block Build0_Alt0 Storey -1 Wall 0014_1,    !- Outside Boundary Condition Object
    NoSun,                    !- Sun Exposure
    NoWind,                   !- Wind Exposure
    autocalculate,            !- View Factor to Ground
    autocalculate,            !- Number of Vertices
    6.604000000319769,        !- Vertex 1 Xcoordinate
    1.849999999627471,        !- Vertex 1 Ycoordinate
    0,                        !- Vertex 1 Zcoordinate
    6.604000000319769,        !- Vertex 2 Xcoordinate
    1.849999999627471,        !- Vertex 2 Ycoordinate
    -5,                       !- Vertex 2 Zcoordinate
    1.4069000003920362,       !- Vertex 3 Xcoordinate
    7.904599999543279,        !- Vertex 3 Ycoordinate
    -5,                       !- Vertex 3 Zcoordinate
    1.4069000003920362,       !- Vertex 4 Xcoordinate
    7.904599999543279,        !- Vertex 4 Ycoordinate
    0;                        !- Vertex 4 Zcoordinate

BUILDINGSURFACE:DETAILED,
    Block Build0_Alt0 Storey -1 Ceiling 0001_1,    !- Name
    ceiling,                  !- Surface Type
    Project Heated1rstFloor Rev,    !- Construction Name
    Block Build0_Alt0 Storey -1,    !- Zone Name
    surface,                  !- Outside Boundary Condition
    Block Build0_Alt0 Storey 0 Floor 0001_1,    !- Outside Boundary Condition Object
    NoSun,                    !- Sun Exposure
    NoWind,                   !- Wind Exposure
    autocalculate,            !- View Factor to Ground
    autocalculate,            !- Number of Vertices
    27.216299999970943,       !- Vertex 1 Xcoordinate
    8.530399999581277,        !- Vertex 1 Ycoordinate
    0,                        !- Vertex 1 Zcoordinate
    21.377299999818206,       !- Vertex 2 Xcoordinate
    15.312399999704212,       !- Vertex 2 Ycoordinate
    0,                        !- Vertex 2 Zcoordinate
    26.683299999684095,       !- Vertex 3 Xcoordinate
    19.88039999967441,        !- Vertex 3 Ycoordinate
    0,                        !- Vertex 3 Zcoordinate
    20.057299999985844,       !- Vertex 4 Xcoordinate
    27.504399999976158,       !- Vertex 4 Ycoordinate
    0,                        !- Vertex 4 Zcoordinate
    14.779299999587238,       !- Vertex 5 Xcoordinate
    22.86239999998361,        !- Vertex 5 Ycoordinate
    0,                        !- Vertex 5 Zcoordinate
    8.96929999999702,         !- Vertex 6 Xcoordinate
    29.710399999748915,       !- Vertex 6 Ycoordinate
    0,                        !- Vertex 6 Zcoordinate
    1.3392999996431172,       !- Vertex 7 Xcoordinate
    23.16139999963343,        !- Vertex 7 Ycoordinate
    0,                        !- Vertex 7 Zcoordinate
    6.303299999795854,        !- Vertex 8 Xcoordinate
    17.378399999812245,       !- Vertex 8 Ycoordinate
    0,                        !- Vertex 8 Zcoordinate
    1.6212999997660518,       !- Vertex 9 Xcoordinate
    13.359399999957532,       !- Vertex 9 Ycoordinate
    0,                        !- Vertex 9 Zcoordinate
    4.226299999747425,        !- Vertex 10 Xcoordinate
    10.32439999980852,        !- Vertex 10 Ycoordinate
    0,                        !- Vertex 10 Zcoordinate
    1.4068999998271465,       !- Vertex 11 Xcoordinate
    7.904599999543279,        !- Vertex 11 Ycoordinate
    0,                        !- Vertex 11 Zcoordinate
    6.603999999817461,        !- Vertex 12 Xcoordinate
    1.849999999627471,        !- Vertex 12 Ycoordinate
    0,                        !- Vertex 12 Zcoordinate
    14.085299999918789,       !- Vertex 13 Xcoordinate
    8.272399999666959,        !- Vertex 13 Ycoordinate
    0,                        !- Vertex 13 Zcoordinate
    19.5472999997437,         !- Vertex 14 Xcoordinate
    1.9293999997898936,       !- Vertex 14 Ycoordinate
    0;                        !- Vertex 14 Zcoordinate

BUILDINGSURFACE:DETAILED,
    Block Build0_Alt0 Storey 0 Floor 0001_1,    !- Name
    floor,                    !- Surface Type
    Project Heated1rstFloor,    !- Construction Name
    Block Build0_Alt0 Storey 0,    !- Zone Name
    surface,                  !- Outside Boundary Condition
    Block Build0_Alt0 Storey -1 Ceiling 0001_1,    !- Outside Boundary Condition Object
    NoSun,                    !- Sun Exposure
    NoWind,                   !- Wind Exposure
    autocalculate,            !- View Factor to Ground
    autocalculate,            !- Number of Vertices
    20.057299999985844,       !- Vertex 1 Xcoordinate
    27.504399999976158,       !- Vertex 1 Ycoordinate
    0,                        !- Vertex 1 Zcoordinate
    26.683299999684095,       !- Vertex 2 Xcoordinate
    19.88039999967441,        !- Vertex 2 Ycoordinate
    0,                        !- Vertex 2 Zcoordinate
    21.377299999818206,       !- Vertex 3 Xcoordinate
    15.312399999704212,       !- Vertex 3 Ycoordinate
    0,                        !- Vertex 3 Zcoordinate
    27.216299999970943,       !- Vertex 4 Xcoordinate
    8.530399999581277,        !- Vertex 4 Ycoordinate
    0,                        !- Vertex 4 Zcoordinate
    19.5472999997437,         !- Vertex 5 Xcoordinate
    1.9293999997898936,       !- Vertex 5 Ycoordinate
    0,                        !- Vertex 5 Zcoordinate
    14.085299999918789,       !- Vertex 6 Xcoordinate
    8.272399999666959,        !- Vertex 6 Ycoordinate
    0,                        !- Vertex 6 Zcoordinate
    6.603999999817461,        !- Vertex 7 Xcoordinate
    1.849999999627471,        !- Vertex 7 Ycoordinate
    0,                        !- Vertex 7 Zcoordinate
    1.4068999998271465,       !- Vertex 8 Xcoordinate
    7.904599999543279,        !- Vertex 8 Ycoordinate
    0,                        !- Vertex 8 Zcoordinate
    4.226299999747425,        !- Vertex 9 Xcoordinate
    10.32439999980852,        !- Vertex 9 Ycoordinate
    0,                        !- Vertex 9 Zcoordinate
    1.6212999997660518,       !- Vertex 10 Xcoordinate
    13.359399999957532,       !- Vertex 10 Ycoordinate
    0,                        !- Vertex 10 Zcoordinate
    6.303299999795854,        !- Vertex 11 Xcoordinate
    17.378399999812245,       !- Vertex 11 Ycoordinate
    0,                        !- Vertex 11 Zcoordinate
    1.3392999996431172,       !- Vertex 12 Xcoordinate
    23.16139999963343,        !- Vertex 12 Ycoordinate
    0,                        !- Vertex 12 Zcoordinate
    8.96929999999702,         !- Vertex 13 Xcoordinate
    29.710399999748915,       !- Vertex 13 Ycoordinate
    0,                        !- Vertex 13 Zcoordinate
    14.779299999587238,       !- Vertex 14 Xcoordinate
    22.86239999998361,        !- Vertex 14 Ycoordinate
    0;                        !- Vertex 14 Zcoordinate

BUILDINGSURFACE:DETAILED,
    Block Build0_Alt0 Storey 0 Wall 0014_1,    !- Name
    wall,                     !- Surface Type
    Project Partition,        !- Construction Name
    Block Build0_Alt0 Storey 0,    !- Zone Name
    surface,                  !- Outside Boundary Condition
    Block Build1_Alt0 Storey 0 Wall 0001_1,    !- Outside Boundary Condition Object
    NoSun,                    !- Sun Exposure
    NoWind,                   !- Wind Exposure
    autocalculate,            !- View Factor to Ground
    autocalculate,            !- Number of Vertices
    1.406900000392036,        !- Vertex 1 Xcoordinate
    7.904599999543279,        !- Vertex 1 Ycoordinate
    12,                       !- Vertex 1 Zcoordinate
    1.406900000392036,        !- Vertex 2 Xcoordinate
    7.904599999543279,        !- Vertex 2 Ycoordinate
    0,                        !- Vertex 2 Zcoordinate
    6.604000000319768,        !- Vertex 3 Xcoordinate
    1.849999999627471,        !- Vertex 3 Ycoordinate
    0,                        !- Vertex 3 Zcoordinate
    6.604000000319768,        !- Vertex 4 Xcoordinate
    1.849999999627471,        !- Vertex 4 Ycoordinate
    12;                       !- Vertex 4 Zcoordinate

BUILDINGSURFACE:DETAILED,
    Block Build0_Alt0 Storey 0 Wall 0014_2,    !- Name
    wall,                     !- Surface Type
    Project Wall,             !- Construction Name
    Block Build0_Alt0 Storey 0,    !- Zone Name
    outdoors,                 !- Outside Boundary Condition
    ,                         !- Outside Boundary Condition Object
    SunExposed,               !- Sun Exposure
    WindExposed,              !- Wind Exposure
    autocalculate,            !- View Factor to Ground
    autocalculate,            !- Number of Vertices
    1.406900000392036,        !- Vertex 1 Xcoordinate
    7.904599999543279,        !- Vertex 1 Ycoordinate
    21,                       !- Vertex 1 Zcoordinate
    1.406900000392036,        !- Vertex 2 Xcoordinate
    7.904599999543279,        !- Vertex 2 Ycoordinate
    12,                       !- Vertex 2 Zcoordinate
    6.604000000319768,        !- Vertex 3 Xcoordinate
    1.849999999627471,        !- Vertex 3 Ycoordinate
    12,                       !- Vertex 3 Zcoordinate
    6.604000000319768,        !- Vertex 4 Xcoordinate
    1.849999999627471,        !- Vertex 4 Ycoordinate
    21;                       !- Vertex 4 Zcoordinate

BUILDINGSURFACE:DETAILED,
    Block Build1_Alt0 Storey 0 Wall 0001_1,    !- Name
    wall,                     !- Surface Type
    Project Partition,        !- Construction Name
    Block Build1_Alt0 Storey 0,    !- Zone Name
    surface,                  !- Outside Boundary Condition
    Block Build0_Alt0 Storey 0 Wall 0014_1,    !- Outside Boundary Condition Object
    NoSun,                    !- Sun Exposure
    NoWind,                   !- Wind Exposure
    autocalculate,            !- View Factor to Ground
    autocalculate,            !- Number of Vertices
    6.604000000319768,        !- Vertex 1 Xcoordinate
    1.849999999627471,        !- Vertex 1 Ycoordinate
    12,                       !- Vertex 1 Zcoordinate
    6.604000000319768,        !- Vertex 2 Xcoordinate
    1.849999999627471,        !- Vertex 2 Ycoordinate
    0,                        !- Vertex 2 Zcoordinate
    1.406900000392036,        !- Vertex 3 Xcoordinate
    7.904599999543279,        !- Vertex 3 Ycoordinate
    0,                        !- Vertex 3 Zcoordinate
    1.406900000392036,        !- Vertex 4 Xcoordinate
    7.904599999543279,        !- Vertex 4 Ycoordinate
    12;                       !- Vertex 4 Zcoordinate

BUILDINGSURFACE:DETAILED,
    Block Build1_Alt0 Storey -1 Ceiling 0001_1,    !- Name
    ceiling,                  !- Surface Type
    Project Heated1rstFloor Rev,    !- Construction Name
    Block Build1_Alt0 Storey -1,    !- Zone Name
    surface,                  !- Outside Boundary Condition
    Block Build1_Alt0 Storey 0 Floor 0001_1,    !- Outside Boundary Condition Object
    NoSun,                    !- Sun Exposure
    NoWind,                   !- Wind Exposure
    autocalculate,            !- View Factor to Ground
    autocalculate,            !- Number of Vertices
    6.81029999954626,         !- Vertex 1 Xcoordinate
    -1.224460e+01,            !- Vertex 1 Ycoordinate
    0,                        !- Vertex 1 Zcoordinate
    -2.427000e-01,            !- Vertex 2 Xcoordinate
    -4.027599999681115,       !- Vertex 2 Ycoordinate
    0,                        !- Vertex 2 Zcoordinate
    6.603999999817461,        !- Vertex 3 Xcoordinate
    1.849999999627471,        !- Vertex 3 Ycoordinate
    0,                        !- Vertex 3 Zcoordinate
    1.4068999998271465,       !- Vertex 4 Xcoordinate
    7.904599999543279,        !- Vertex 4 Ycoordinate
    0,                        !- Vertex 4 Zcoordinate
    -5.440699999686331,       !- Vertex 5 Xcoordinate
    2.0273999995552003,       !- Vertex 5 Ycoordinate
    0,                        !- Vertex 5 Zcoordinate
    -8.268699999898672,       !- Vertex 6 Xcoordinate
    5.321399999782443,        !- Vertex 6 Ycoordinate
    0,                        !- Vertex 6 Zcoordinate
    -1.590970e+01,            !- Vertex 7 Xcoordinate
    -1.237600e+00,            !- Vertex 7 Ycoordinate
    0,                        !- Vertex 7 Zcoordinate
    -9.167699999641627,       !- Vertex 8 Xcoordinate
    -9.091599999926984,       !- Vertex 8 Ycoordinate
    0,                        !- Vertex 8 Zcoordinate
    -1.220270e+01,            !- Vertex 9 Xcoordinate
    -11.69759999960661,       !- Vertex 9 Ycoordinate
    0,                        !- Vertex 9 Zcoordinate
    -8.04769999999553,        !- Vertex 10 Xcoordinate
    -16.53859999962151,       !- Vertex 10 Ycoordinate
    0,                        !- Vertex 10 Zcoordinate
    -5.011699999682605,       !- Vertex 11 Xcoordinate
    -1.393260e+01,            !- Vertex 11 Ycoordinate
    0,                        !- Vertex 11 Zcoordinate
    -8.397000e-01,            !- Vertex 12 Xcoordinate
    -18.7925999998115,        !- Vertex 12 Ycoordinate
    0;                        !- Vertex 12 Zcoordinate

BUILDINGSURFACE:DETAILED,
    Block Build1_Alt0 Storey 0 Floor 0001_1,    !- Name
    floor,                    !- Surface Type
    Project Heated1rstFloor,    !- Construction Name
    Block Build1_Alt0 Storey 0,    !- Zone Name
    surface,                  !- Outside Boundary Condition
    Block Build1_Alt0 Storey -1 Ceiling 0001_1,    !- Outside Boundary Condition Object
    NoSun,                    !- Sun Exposure
    NoWind,                   !- Wind Exposure
    autocalculate,            !- View Factor to Ground
    autocalculate,            !- Number of Vertices
    1.4068999998271465,       !- Vertex 1 Xcoordinate
    7.904599999543279,        !- Vertex 1 Ycoordinate
    0,                        !- Vertex 1 Zcoordinate
    6.603999999817461,        !- Vertex 2 Xcoordinate
    1.849999999627471,        !- Vertex 2 Ycoordinate
    0,                        !- Vertex 2 Zcoordinate
    -2.427000e-01,            !- Vertex 3 Xcoordinate
    -4.027599999681115,       !- Vertex 3 Ycoordinate
    0,                        !- Vertex 3 Zcoordinate
    6.81029999954626,         !- Vertex 4 Xcoordinate
    -1.224460e+01,            !- Vertex 4 Ycoordinate
    0,                        !- Vertex 4 Zcoordinate
    -8.397000e-01,            !- Vertex 5 Xcoordinate
    -18.7925999998115,        !- Vertex 5 Ycoordinate
    0,                        !- Vertex 5 Zcoordinate
    -5.011699999682605,       !- Vertex 6 Xcoordinate
    -1.393260e+01,            !- Vertex 6 Ycoordinate
    0,                        !- Vertex 6 Zcoordinate
    -8.04769999999553,        !- Vertex 7 Xcoordinate
    -16.53859999962151,       !- Vertex 7 Ycoordinate
    0,                        !- Vertex 7 Zcoordinate
    -1.220270e+01,            !- Vertex 8 Xcoordinate
    -11.69759999960661,       !- Vertex 8 Ycoordinate
    0,                        !- Vertex 8 Zcoordinate
    -9.167699999641627,       !- Vertex 9 Xcoordinate
    -9.091599999926984,       !- Vertex 9 Ycoordinate
    0,                        !- Vertex 9 Zcoordinate
    -1.590970e+01,            !- Vertex 10 Xcoordinate
    -1.237600e+00,            !- Vertex 10 Ycoordinate
    0,                        !- Vertex 10 Zcoordinate
    -8.268699999898672,       !- Vertex 11 Xcoordinate
    5.321399999782443,        !- Vertex 11 Ycoordinate
    0,                        !- Vertex 11 Zcoordinate
    -5.440699999686331,       !- Vertex 12 Xcoordinate
    2.0273999995552003,       !- Vertex 12 Ycoordinate
    0;                        !- Vertex 12 Zcoordinate

BUILDINGSURFACE:DETAILED,
    Block Build0_Alt0 Storey 0 Roof 0001_0,    !- Name
    roof,                     !- Surface Type
    Project Flat Roof,        !- Construction Name
    Block Build0_Alt0 Storey 0,    !- Zone Name
    outdoors,                 !- Outside Boundary Condition
    ,                         !- Outside Boundary Condition Object
    SunExposed,               !- Sun Exposure
    WindExposed,              !- Wind Exposure
    autocalculate,            !- View Factor to Ground
    autocalculate,            !- Number of Vertices
    14.0853,                  !- Vertex 1 Xcoordinate
    8.2724,                   !- Vertex 1 Ycoordinate
    21,                       !- Vertex 1 Zcoordinate
    4.2263,                   !- Vertex 2 Xcoordinate
    10.3244,                  !- Vertex 2 Ycoordinate
    21,                       !- Vertex 2 Zcoordinate
    1.4069,                   !- Vertex 3 Xcoordinate
    7.9046,                   !- Vertex 3 Ycoordinate
    21,                       !- Vertex 3 Zcoordinate
    6.604,                    !- Vertex 4 Xcoordinate
    1.85,                     !- Vertex 4 Ycoordinate
    21;                       !- Vertex 4 Zcoordinate

BUILDINGSURFACE:DETAILED,
    Block Build0_Alt0 Storey 0 Roof 0001_1,    !- Name
    roof,                     !- Surface Type
    Project Flat Roof,        !- Construction Name
    Block Build0_Alt0 Storey 0,    !- Zone Name
    outdoors,                 !- Outside Boundary Condition
    ,                         !- Outside Boundary Condition Object
    SunExposed,               !- Sun Exposure
    WindExposed,              !- Wind Exposure
    autocalculate,            !- View Factor to Ground
    autocalculate,            !- Number of Vertices
    26.6833,                  !- Vertex 1 Xcoordinate
    19.8804,                  !- Vertex 1 Ycoordinate
    21,                       !- Vertex 1 Zcoordinate
    20.0573,                  !- Vertex 2 Xcoordinate
    27.5044,                  !- Vertex 2 Ycoordinate
    21,                       !- Vertex 2 Zcoordinate
    14.7793,                  !- Vertex 3 Xcoordinate
    22.8624,                  !- Vertex 3 Ycoordinate
    21,                       !- Vertex 3 Zcoordinate
    21.3773,                  !- Vertex 4 Xcoordinate
    15.3124,                  !- Vertex 4 Ycoordinate
    21;                       !- Vertex 4 Zcoordinate

BUILDINGSURFACE:DETAILED,
    Block Build0_Alt0 Storey 0 Roof 0001_2,    !- Name
    roof,                     !- Surface Type
    Project Flat Roof,        !- Construction Name
    Block Build0_Alt0 Storey 0,    !- Zone Name
    outdoors,                 !- Outside Boundary Condition
    ,                         !- Outside Boundary Condition Object
    SunExposed,               !- Sun Exposure
    WindExposed,              !- Wind Exposure
    autocalculate,            !- View Factor to Ground
    autocalculate,            !- Number of Vertices
    14.7793,                  !- Vertex 1 Xcoordinate
    22.8624,                  !- Vertex 1 Ycoordinate
    21,                       !- Vertex 1 Zcoordinate
    8.9693,                   !- Vertex 2 Xcoordinate
    29.7104,                  !- Vertex 2 Ycoordinate
    21,                       !- Vertex 2 Zcoordinate
    1.3393,                   !- Vertex 3 Xcoordinate
    23.1614,                  !- Vertex 3 Ycoordinate
    21,                       !- Vertex 3 Zcoordinate
    6.3033,                   !- Vertex 4 Xcoordinate
    17.3784,                  !- Vertex 4 Ycoordinate
    21;                       !- Vertex 4 Zcoordinate

BUILDINGSURFACE:DETAILED,
    Block Build0_Alt0 Storey 0 Roof 0001_3,    !- Name
    roof,                     !- Surface Type
    Project Flat Roof,        !- Construction Name
    Block Build0_Alt0 Storey 0,    !- Zone Name
    outdoors,                 !- Outside Boundary Condition
    ,                         !- Outside Boundary Condition Object
    SunExposed,               !- Sun Exposure
    WindExposed,              !- Wind Exposure
    autocalculate,            !- View Factor to Ground
    autocalculate,            !- Number of Vertices
    14.0853,                  !- Vertex 1 Xcoordinate
    8.2724,                   !- Vertex 1 Ycoordinate
    21,                       !- Vertex 1 Zcoordinate
    14.7793,                  !- Vertex 2 Xcoordinate
    22.8624,                  !- Vertex 2 Ycoordinate
    21,                       !- Vertex 2 Zcoordinate
    6.3033,                   !- Vertex 3 Xcoordinate
    17.3784,                  !- Vertex 3 Ycoordinate
    21,                       !- Vertex 3 Zcoordinate
    1.6213,                   !- Vertex 4 Xcoordinate
    13.3594,                  !- Vertex 4 Ycoordinate
    21,                       !- Vertex 4 Zcoordinate
    4.2263,                   !- Vertex 5 Xcoordinate
    10.3244,                  !- Vertex 5 Ycoordinate
    21;                       !- Vertex 5 Zcoordinate

BUILDINGSURFACE:DETAILED,
    Block Build0_Alt0 Storey 0 Roof 0001_4,    !- Name
    roof,                     !- Surface Type
    Project Flat Roof,        !- Construction Name
    Block Build0_Alt0 Storey 0,    !- Zone Name
    outdoors,                 !- Outside Boundary Condition
    ,                         !- Outside Boundary Condition Object
    SunExposed,               !- Sun Exposure
    WindExposed,              !- Wind Exposure
    autocalculate,            !- View Factor to Ground
    autocalculate,            !- Number of Vertices
    27.2163,                  !- Vertex 1 Xcoordinate
    8.5304,                   !- Vertex 1 Ycoordinate
    21,                       !- Vertex 1 Zcoordinate
    21.3773,                  !- Vertex 2 Xcoordinate
    15.3124,                  !- Vertex 2 Ycoordinate
    21,                       !- Vertex 2 Zcoordinate
    14.7793,                  !- Vertex 3 Xcoordinate
    22.8624,                  !- Vertex 3 Ycoordinate
    21,                       !- Vertex 3 Zcoordinate
    14.0853,                  !- Vertex 4 Xcoordinate
    8.2724,                   !- Vertex 4 Ycoordinate
    21,                       !- Vertex 4 Zcoordinate
    19.5473,                  !- Vertex 5 Xcoordinate
    1.9294,                   !- Vertex 5 Ycoordinate
    21;                       !- Vertex 5 Zcoordinate

BUILDINGSURFACE:DETAILED,
    Block Build1_Alt0 Storey 0 Roof 0001_0,    !- Name
    roof,                     !- Surface Type
    Project Flat Roof,        !- Construction Name
    Block Build1_Alt0 Storey 0,    !- Zone Name
    outdoors,                 !- Outside Boundary Condition
    ,                         !- Outside Boundary Condition Object
    SunExposed,               !- Sun Exposure
    WindExposed,              !- Wind Exposure
    autocalculate,            !- View Factor to Ground
    autocalculate,            !- Number of Vertices
    -5.0117,                  !- Vertex 1 Xcoordinate
    -13.9326,                 !- Vertex 1 Ycoordinate
    12,                       !- Vertex 1 Zcoordinate
    -9.1677,                  !- Vertex 2 Xcoordinate
    -9.0916,                  !- Vertex 2 Ycoordinate
    12,                       !- Vertex 2 Zcoordinate
    -12.2027,                 !- Vertex 3 Xcoordinate
    -11.6976,                 !- Vertex 3 Ycoordinate
    12,                       !- Vertex 3 Zcoordinate
    -8.0477,                  !- Vertex 4 Xcoordinate
    -16.5386,                 !- Vertex 4 Ycoordinate
    12;                       !- Vertex 4 Zcoordinate

BUILDINGSURFACE:DETAILED,
    Block Build1_Alt0 Storey 0 Roof 0001_1,    !- Name
    roof,                     !- Surface Type
    Project Flat Roof,        !- Construction Name
    Block Build1_Alt0 Storey 0,    !- Zone Name
    outdoors,                 !- Outside Boundary Condition
    ,                         !- Outside Boundary Condition Object
    SunExposed,               !- Sun Exposure
    WindExposed,              !- Wind Exposure
    autocalculate,            !- View Factor to Ground
    autocalculate,            !- Number of Vertices
    6.8103,                   !- Vertex 1 Xcoordinate
    -12.2446,                 !- Vertex 1 Ycoordinate
    12,                       !- Vertex 1 Zcoordinate
    -0.2427,                  !- Vertex 2 Xcoordinate
    -4.0276,                  !- Vertex 2 Ycoordinate
    12,                       !- Vertex 2 Zcoordinate
    -5.0117,                  !- Vertex 3 Xcoordinate
    -13.9326,                 !- Vertex 3 Ycoordinate
    12,                       !- Vertex 3 Zcoordinate
    -0.8397,                  !- Vertex 4 Xcoordinate
    -18.7926,                 !- Vertex 4 Ycoordinate
    12;                       !- Vertex 4 Zcoordinate

BUILDINGSURFACE:DETAILED,
    Block Build1_Alt0 Storey 0 Roof 0001_2,    !- Name
    roof,                     !- Surface Type
    Project Flat Roof,        !- Construction Name
    Block Build1_Alt0 Storey 0,    !- Zone Name
    outdoors,                 !- Outside Boundary Condition
    ,                         !- Outside Boundary Condition Object
    SunExposed,               !- Sun Exposure
    WindExposed,              !- Wind Exposure
    autocalculate,            !- View Factor to Ground
    autocalculate,            !- Number of Vertices
    6.604,                    !- Vertex 1 Xcoordinate
    1.85,                     !- Vertex 1 Ycoordinate
    12,                       !- Vertex 1 Zcoordinate
    1.4069,                   !- Vertex 2 Xcoordinate
    7.9046,                   !- Vertex 2 Ycoordinate
    12,                       !- Vertex 2 Zcoordinate
    -5.4407,                  !- Vertex 3 Xcoordinate
    2.0274,                   !- Vertex 3 Ycoordinate
    12,                       !- Vertex 3 Zcoordinate
    -0.2427,                  !- Vertex 4 Xcoordinate
    -4.0276,                  !- Vertex 4 Ycoordinate
    12;                       !- Vertex 4 Zcoordinate

BUILDINGSURFACE:DETAILED,
    Block Build1_Alt0 Storey 0 Roof 0001_3,    !- Name
    roof,                     !- Surface Type
    Project Flat Roof,        !- Construction Name
    Block Build1_Alt0 Storey 0,    !- Zone Name
    outdoors,                 !- Outside Boundary Condition
    ,                         !- Outside Boundary Condition Object
    SunExposed,               !- Sun Exposure
    WindExposed,              !- Wind Exposure
    autocalculate,            !- View Factor to Ground
    autocalculate,            !- Number of Vertices
    -5.0117,                  !- Vertex 1 Xcoordinate
    -13.9326,                 !- Vertex 1 Ycoordinate
    12,                       !- Vertex 1 Zcoordinate
    -0.2427,                  !- Vertex 2 Xcoordinate
    -4.0276,                  !- Vertex 2 Ycoordinate
    12,                       !- Vertex 2 Zcoordinate
    -5.4407,                  !- Vertex 3 Xcoordinate
    2.0274,                   !- Vertex 3 Ycoordinate
    12,                       !- Vertex 3 Zcoordinate
    -8.2687,                  !- Vertex 4 Xcoordinate
    5.3214,                   !- Vertex 4 Ycoordinate
    12,                       !- Vertex 4 Zcoordinate
    -15.9097,                 !- Vertex 5 Xcoordinate
    -1.2376,                  !- Vertex 5 Ycoordinate
    12,                       !- Vertex 5 Zcoordinate
    -9.1677,                  !- Vertex 6 Xcoordinate
    -9.0916,                  !- Vertex 6 Ycoordinate
    12;                       !- Vertex 6 Zcoordinate

FENESTRATIONSURFACE:DETAILED,
    Block Build0_Alt0 Storey 0 Wall 0001 window,    !- Name
    Window,                   !- Surface Type
    Project External Window,    !- Construction Name
    Block Build0_Alt0 Storey 0 Wall 0001,    !- Building Surface Name
    ,                         !- Outside Boundary Condition Object
    autocalculate,            !- View Factor to Ground
    ,                         !- Frame and Divider Name
    1.0,                      !- Multiplier
    autocalculate,            !- Number of Vertices
    6.60774065,               !- Vertex 1 Xcoordinate
    1.8532112,                !- Vertex 1 Ycoordinate
    13.65,                    !- Vertex 1 Zcoordinate
    6.60774065,               !- Vertex 2 Xcoordinate
    1.8532112,                !- Vertex 2 Ycoordinate
    7.35,                     !- Vertex 2 Zcoordinate
    14.08155935,              !- Vertex 3 Xcoordinate
    8.269188799999998,        !- Vertex 3 Ycoordinate
    7.35,                     !- Vertex 3 Zcoordinate
    14.08155935,              !- Vertex 4 Xcoordinate
    8.269188799999998,        !- Vertex 4 Ycoordinate
    13.65;                    !- Vertex 4 Zcoordinate

FENESTRATIONSURFACE:DETAILED,
    Block Build0_Alt0 Storey 0 Wall 0002 window,    !- Name
    Window,                   !- Surface Type
    Project External Window,    !- Construction Name
    Block Build0_Alt0 Storey 0 Wall 0002,    !- Building Surface Name
    ,                         !- Outside Boundary Condition Object
    autocalculate,            !- View Factor to Ground
    ,                         !- Frame and Divider Name
    1.0,                      !- Multiplier
    autocalculate,            !- Number of Vertices
    14.088031,                !- Vertex 1 Xcoordinate
    8.269228499999999,        !- Vertex 1 Ycoordinate
    13.65,                    !- Vertex 1 Zcoordinate
    14.088031,                !- Vertex 2 Xcoordinate
    8.269228499999999,        !- Vertex 2 Ycoordinate
    7.35,                     !- Vertex 2 Zcoordinate
    19.544569,                !- Vertex 3 Xcoordinate
    1.9325715000000003,       !- Vertex 3 Ycoordinate
    7.35,                     !- Vertex 3 Zcoordinate
    19.544569,                !- Vertex 4 Xcoordinate
    1.9325715000000003,       !- Vertex 4 Ycoordinate
    13.65;                    !- Vertex 4 Zcoordinate

FENESTRATIONSURFACE:DETAILED,
    Block Build0_Alt0 Storey 0 Wall 0003 window,    !- Name
    Window,                   !- Surface Type
    Project External Window,    !- Construction Name
    Block Build0_Alt0 Storey 0 Wall 0003,    !- Building Surface Name
    ,                         !- Outside Boundary Condition Object
    autocalculate,            !- View Factor to Ground
    ,                         !- Frame and Divider Name
    1.0,                      !- Multiplier
    autocalculate,            !- Number of Vertices
    19.5511345,               !- Vertex 1 Xcoordinate
    1.9327005000000002,       !- Vertex 1 Ycoordinate
    13.65,                    !- Vertex 1 Zcoordinate
    19.5511345,               !- Vertex 2 Xcoordinate
    1.9327005000000002,       !- Vertex 2 Ycoordinate
    7.35,                     !- Vertex 2 Zcoordinate
    27.2124655,               !- Vertex 3 Xcoordinate
    8.5270995,                !- Vertex 3 Ycoordinate
    7.35,                     !- Vertex 3 Zcoordinate
    27.2124655,               !- Vertex 4 Xcoordinate
    8.5270995,                !- Vertex 4 Ycoordinate
    13.65;                    !- Vertex 4 Zcoordinate

FENESTRATIONSURFACE:DETAILED,
    Block Build0_Alt0 Storey 0 Wall 0004 window,    !- Name
    Window,                   !- Surface Type
    Project External Window,    !- Construction Name
    Block Build0_Alt0 Storey 0 Wall 0004,    !- Building Surface Name
    ,                         !- Outside Boundary Condition Object
    autocalculate,            !- View Factor to Ground
    ,                         !- Frame and Divider Name
    1.0,                      !- Multiplier
    autocalculate,            !- Number of Vertices
    27.2133805,               !- Vertex 1 Xcoordinate
    8.533791,                 !- Vertex 1 Ycoordinate
    13.65,                    !- Vertex 1 Zcoordinate
    27.2133805,               !- Vertex 2 Xcoordinate
    8.533791,                 !- Vertex 2 Ycoordinate
    7.35,                     !- Vertex 2 Zcoordinate
    21.380219500000003,       !- Vertex 3 Xcoordinate
    15.309009,                !- Vertex 3 Ycoordinate
    7.35,                     !- Vertex 3 Zcoordinate
    21.380219500000003,       !- Vertex 4 Xcoordinate
    15.309009,                !- Vertex 4 Ycoordinate
    13.65;                    !- Vertex 4 Zcoordinate

FENESTRATIONSURFACE:DETAILED,
    Block Build0_Alt0 Storey 0 Wall 0005 window,    !- Name
    Window,                   !- Surface Type
    Project External Window,    !- Construction Name
    Block Build0_Alt0 Storey 0 Wall 0005,    !- Building Surface Name
    ,                         !- Outside Boundary Condition Object
    autocalculate,            !- View Factor to Ground
    ,                         !- Frame and Divider Name
    1.0,                      !- Multiplier
    autocalculate,            !- Number of Vertices
    21.379953,                !- Vertex 1 Xcoordinate
    15.314684,                !- Vertex 1 Ycoordinate
    13.65,                    !- Vertex 1 Zcoordinate
    21.379953,                !- Vertex 2 Xcoordinate
    15.314684,                !- Vertex 2 Ycoordinate
    7.35,                     !- Vertex 2 Zcoordinate
    26.680647,                !- Vertex 3 Xcoordinate
    19.878116000000002,       !- Vertex 3 Ycoordinate
    7.35,                     !- Vertex 3 Zcoordinate
    26.680647,                !- Vertex 4 Xcoordinate
    19.878116000000002,       !- Vertex 4 Ycoordinate
    13.65;                    !- Vertex 4 Zcoordinate

FENESTRATIONSURFACE:DETAILED,
    Block Build0_Alt0 Storey 0 Wall 0006 window,    !- Name
    Window,                   !- Surface Type
    Project External Window,    !- Construction Name
    Block Build0_Alt0 Storey 0 Wall 0006,    !- Building Surface Name
    ,                         !- Outside Boundary Condition Object
    autocalculate,            !- View Factor to Ground
    ,                         !- Frame and Divider Name
    1.0,                      !- Multiplier
    autocalculate,            !- Number of Vertices
    26.679987,                !- Vertex 1 Xcoordinate
    19.884212,                !- Vertex 1 Ycoordinate
    13.65,                    !- Vertex 1 Zcoordinate
    26.679987,                !- Vertex 2 Xcoordinate
    19.884212,                !- Vertex 2 Ycoordinate
    7.35,                     !- Vertex 2 Zcoordinate
    20.060613,                !- Vertex 3 Xcoordinate
    27.500588,                !- Vertex 3 Ycoordinate
    7.35,                     !- Vertex 3 Zcoordinate
    20.060613,                !- Vertex 4 Xcoordinate
    27.500588,                !- Vertex 4 Ycoordinate
    13.65;                    !- Vertex 4 Zcoordinate

FENESTRATIONSURFACE:DETAILED,
    Block Build0_Alt0 Storey 0 Wall 0007 window,    !- Name
    Window,                   !- Surface Type
    Project External Window,    !- Construction Name
    Block Build0_Alt0 Storey 0 Wall 0007,    !- Building Surface Name
    ,                         !- Outside Boundary Condition Object
    autocalculate,            !- View Factor to Ground
    ,                         !- Frame and Divider Name
    1.0,                      !- Multiplier
    autocalculate,            !- Number of Vertices
    20.054661000000003,       !- Vertex 1 Xcoordinate
    27.502079000000002,       !- Vertex 1 Ycoordinate
    13.65,                    !- Vertex 1 Zcoordinate
    20.054661000000003,       !- Vertex 2 Xcoordinate
    27.502079000000002,       !- Vertex 2 Ycoordinate
    7.35,                     !- Vertex 2 Zcoordinate
    14.781939,                !- Vertex 3 Xcoordinate
    22.864721,                !- Vertex 3 Ycoordinate
    7.35,                     !- Vertex 3 Zcoordinate
    14.781939,                !- Vertex 4 Xcoordinate
    22.864721,                !- Vertex 4 Ycoordinate
    13.65;                    !- Vertex 4 Zcoordinate

FENESTRATIONSURFACE:DETAILED,
    Block Build0_Alt0 Storey 0 Wall 0008 window,    !- Name
    Window,                   !- Surface Type
    Project External Window,    !- Construction Name
    Block Build0_Alt0 Storey 0 Wall 0008,    !- Building Surface Name
    ,                         !- Outside Boundary Condition Object
    autocalculate,            !- View Factor to Ground
    ,                         !- Frame and Divider Name
    1.0,                      !- Multiplier
    autocalculate,            !- Number of Vertices
    14.776394999999999,       !- Vertex 1 Xcoordinate
    22.865824,                !- Vertex 1 Ycoordinate
    13.65,                    !- Vertex 1 Zcoordinate
    14.776394999999999,       !- Vertex 2 Xcoordinate
    22.865824,                !- Vertex 2 Ycoordinate
    7.35,                     !- Vertex 2 Zcoordinate
    8.972205,                 !- Vertex 3 Xcoordinate
    29.706976,                !- Vertex 3 Ycoordinate
    7.35,                     !- Vertex 3 Zcoordinate
    8.972205,                 !- Vertex 4 Xcoordinate
    29.706976,                !- Vertex 4 Ycoordinate
    13.65;                    !- Vertex 4 Zcoordinate

FENESTRATIONSURFACE:DETAILED,
    Block Build0_Alt0 Storey 0 Wall 0009 window,    !- Name
    Window,                   !- Surface Type
    Project External Window,    !- Construction Name
    Block Build0_Alt0 Storey 0 Wall 0009,    !- Building Surface Name
    ,                         !- Outside Boundary Condition Object
    autocalculate,            !- View Factor to Ground
    ,                         !- Frame and Divider Name
    1.0,                      !- Multiplier
    autocalculate,            !- Number of Vertices
    8.965485000000001,        !- Vertex 1 Xcoordinate
    29.7071255,               !- Vertex 1 Ycoordinate
    13.65,                    !- Vertex 1 Zcoordinate
    8.965485000000001,        !- Vertex 2 Xcoordinate
    29.7071255,               !- Vertex 2 Ycoordinate
    7.35,                     !- Vertex 2 Zcoordinate
    1.3431149999999996,       !- Vertex 3 Xcoordinate
    23.1646745,               !- Vertex 3 Ycoordinate
    7.35,                     !- Vertex 3 Zcoordinate
    1.3431149999999996,       !- Vertex 4 Xcoordinate
    23.1646745,               !- Vertex 4 Ycoordinate
    13.65;                    !- Vertex 4 Zcoordinate

FENESTRATIONSURFACE:DETAILED,
    Block Build0_Alt0 Storey 0 Wall 0010 window,    !- Name
    Window,                   !- Surface Type
    Project External Window,    !- Construction Name
    Block Build0_Alt0 Storey 0 Wall 0010,    !- Building Surface Name
    ,                         !- Outside Boundary Condition Object
    autocalculate,            !- View Factor to Ground
    ,                         !- Frame and Divider Name
    1.0,                      !- Multiplier
    autocalculate,            !- Number of Vertices
    1.3417819999999998,       !- Vertex 1 Xcoordinate
    23.1585085,               !- Vertex 1 Ycoordinate
    13.65,                    !- Vertex 1 Zcoordinate
    1.3417819999999998,       !- Vertex 2 Xcoordinate
    23.1585085,               !- Vertex 2 Ycoordinate
    7.35,                     !- Vertex 2 Zcoordinate
    6.300818,                 !- Vertex 3 Xcoordinate
    17.3812915,               !- Vertex 3 Ycoordinate
    7.35,                     !- Vertex 3 Zcoordinate
    6.300818,                 !- Vertex 4 Xcoordinate
    17.3812915,               !- Vertex 4 Ycoordinate
    13.65;                    !- Vertex 4 Zcoordinate

FENESTRATIONSURFACE:DETAILED,
    Block Build0_Alt0 Storey 0 Wall 0011 window,    !- Name
    Window,                   !- Surface Type
    Project External Window,    !- Construction Name
    Block Build0_Alt0 Storey 0 Wall 0011,    !- Building Surface Name
    ,                         !- Outside Boundary Condition Object
    autocalculate,            !- View Factor to Ground
    ,                         !- Frame and Divider Name
    1.0,                      !- Multiplier
    autocalculate,            !- Number of Vertices
    6.300959000000001,        !- Vertex 1 Xcoordinate
    17.3763905,               !- Vertex 1 Ycoordinate
    13.65,                    !- Vertex 1 Zcoordinate
    6.300959000000001,        !- Vertex 2 Xcoordinate
    17.3763905,               !- Vertex 2 Ycoordinate
    7.35,                     !- Vertex 2 Zcoordinate
    1.6236409999999997,       !- Vertex 3 Xcoordinate
    13.3614095,               !- Vertex 3 Ycoordinate
    7.35,                     !- Vertex 3 Zcoordinate
    1.6236409999999997,       !- Vertex 4 Xcoordinate
    13.3614095,               !- Vertex 4 Ycoordinate
    13.65;                    !- Vertex 4 Zcoordinate

FENESTRATIONSURFACE:DETAILED,
    Block Build0_Alt0 Storey 0 Wall 0012 window,    !- Name
    Window,                   !- Surface Type
    Project External Window,    !- Construction Name
    Block Build0_Alt0 Storey 0 Wall 0012,    !- Building Surface Name
    ,                         !- Outside Boundary Condition Object
    autocalculate,            !- View Factor to Ground
    ,                         !- Frame and Divider Name
    1.0,                      !- Multiplier
    autocalculate,            !- Number of Vertices
    1.6226025,                !- Vertex 1 Xcoordinate
    13.3578825,               !- Vertex 1 Ycoordinate
    13.65,                    !- Vertex 1 Zcoordinate
    1.6226025,                !- Vertex 2 Xcoordinate
    13.3578825,               !- Vertex 2 Ycoordinate
    7.35,                     !- Vertex 2 Zcoordinate
    4.224997500000001,        !- Vertex 3 Xcoordinate
    10.325917500000001,       !- Vertex 3 Ycoordinate
    7.35,                     !- Vertex 3 Zcoordinate
    4.224997500000001,        !- Vertex 4 Xcoordinate
    10.325917500000001,       !- Vertex 4 Ycoordinate
    13.65;                    !- Vertex 4 Zcoordinate

FENESTRATIONSURFACE:DETAILED,
    Block Build0_Alt0 Storey 0 Wall 0013 window,    !- Name
    Window,                   !- Surface Type
    Project External Window,    !- Construction Name
    Block Build0_Alt0 Storey 0 Wall 0013,    !- Building Surface Name
    ,                         !- Outside Boundary Condition Object
    autocalculate,            !- View Factor to Ground
    ,                         !- Frame and Divider Name
    1.0,                      !- Multiplier
    autocalculate,            !- Number of Vertices
    4.2248903,                !- Vertex 1 Xcoordinate
    10.323190100000001,       !- Vertex 1 Ycoordinate
    13.65,                    !- Vertex 1 Zcoordinate
    4.2248903,                !- Vertex 2 Xcoordinate
    10.323190100000001,       !- Vertex 2 Ycoordinate
    7.35,                     !- Vertex 2 Zcoordinate
    1.4083097,                !- Vertex 3 Xcoordinate
    7.9058099,                !- Vertex 3 Ycoordinate
    7.35,                     !- Vertex 3 Zcoordinate
    1.4083097,                !- Vertex 4 Xcoordinate
    7.9058099,                !- Vertex 4 Ycoordinate
    13.65;                    !- Vertex 4 Zcoordinate

FENESTRATIONSURFACE:DETAILED,
    Block Build1_Alt0 Storey 0 Wall 0002 window,    !- Name
    Window,                   !- Surface Type
    Project External Window,    !- Construction Name
    Block Build1_Alt0 Storey 0 Wall 0002,    !- Building Surface Name
    ,                         !- Outside Boundary Condition Object
    autocalculate,            !- View Factor to Ground
    ,                         !- Frame and Divider Name
    1.0,                      !- Multiplier
    autocalculate,            !- Number of Vertices
    1.4034762,                !- Vertex 1 Xcoordinate
    7.9016614,                !- Vertex 1 Ycoordinate
    7.8,                      !- Vertex 1 Zcoordinate
    1.4034762,                !- Vertex 2 Xcoordinate
    7.9016614,                !- Vertex 2 Ycoordinate
    4.2,                      !- Vertex 2 Zcoordinate
    -5.437276e+00,            !- Vertex 3 Xcoordinate
    2.0303386,                !- Vertex 3 Ycoordinate
    4.2,                      !- Vertex 3 Zcoordinate
    -5.437276e+00,            !- Vertex 4 Xcoordinate
    2.0303386,                !- Vertex 4 Ycoordinate
    7.8;                      !- Vertex 4 Zcoordinate

FENESTRATIONSURFACE:DETAILED,
    Block Build1_Alt0 Storey 0 Wall 0003 window,    !- Name
    Window,                   !- Surface Type
    Project External Window,    !- Construction Name
    Block Build1_Alt0 Storey 0 Wall 0003,    !- Building Surface Name
    ,                         !- Outside Boundary Condition Object
    autocalculate,            !- View Factor to Ground
    ,                         !- Frame and Divider Name
    1.0,                      !- Multiplier
    autocalculate,            !- Number of Vertices
    -5.442114,                !- Vertex 1 Xcoordinate
    2.0290470000000003,       !- Vertex 1 Ycoordinate
    7.8,                      !- Vertex 1 Zcoordinate
    -5.442114,                !- Vertex 2 Xcoordinate
    2.0290470000000003,       !- Vertex 2 Ycoordinate
    4.2,                      !- Vertex 2 Zcoordinate
    -8.267286,                !- Vertex 3 Xcoordinate
    5.3197529999999995,       !- Vertex 3 Ycoordinate
    4.2,                      !- Vertex 3 Zcoordinate
    -8.267286,                !- Vertex 4 Xcoordinate
    5.3197529999999995,       !- Vertex 4 Ycoordinate
    7.8;                      !- Vertex 4 Zcoordinate

FENESTRATIONSURFACE:DETAILED,
    Block Build1_Alt0 Storey 0 Wall 0004 window,    !- Name
    Window,                   !- Surface Type
    Project External Window,    !- Construction Name
    Block Build1_Alt0 Storey 0 Wall 0004,    !- Building Surface Name
    ,                         !- Outside Boundary Condition Object
    autocalculate,            !- View Factor to Ground
    ,                         !- Frame and Divider Name
    1.0,                      !- Multiplier
    autocalculate,            !- Number of Vertices
    -8.2725205,               !- Vertex 1 Xcoordinate
    5.318120499999999,        !- Vertex 1 Ycoordinate
    7.8,                      !- Vertex 1 Zcoordinate
    -8.2725205,               !- Vertex 2 Xcoordinate
    5.318120499999999,        !- Vertex 2 Ycoordinate
    4.2,                      !- Vertex 2 Zcoordinate
    -1.590588e+01,            !- Vertex 3 Xcoordinate
    -1.2343205,               !- Vertex 3 Ycoordinate
    4.2,                      !- Vertex 3 Zcoordinate
    -1.590588e+01,            !- Vertex 4 Xcoordinate
    -1.2343205,               !- Vertex 4 Ycoordinate
    7.8;                      !- Vertex 4 Zcoordinate

FENESTRATIONSURFACE:DETAILED,
    Block Build1_Alt0 Storey 0 Wall 0005 window,    !- Name
    Window,                   !- Surface Type
    Project External Window,    !- Construction Name
    Block Build1_Alt0 Storey 0 Wall 0005,    !- Building Surface Name
    ,                         !- Outside Boundary Condition Object
    autocalculate,            !- View Factor to Ground
    ,                         !- Frame and Divider Name
    1.0,                      !- Multiplier
    autocalculate,            !- Number of Vertices
    -1.590633e+01,            !- Vertex 1 Xcoordinate
    -1.241527,                !- Vertex 1 Ycoordinate
    7.8,                      !- Vertex 1 Zcoordinate
    -1.590633e+01,            !- Vertex 2 Xcoordinate
    -1.241527,                !- Vertex 2 Ycoordinate
    4.2,                      !- Vertex 2 Zcoordinate
    -9.171071,                !- Vertex 3 Xcoordinate
    -9.087672999999999,       !- Vertex 3 Ycoordinate
    4.2,                      !- Vertex 3 Zcoordinate
    -9.171071,                !- Vertex 4 Xcoordinate
    -9.087672999999999,       !- Vertex 4 Ycoordinate
    7.8;                      !- Vertex 4 Zcoordinate

FENESTRATIONSURFACE:DETAILED,
    Block Build1_Alt0 Storey 0 Wall 0006 window,    !- Name
    Window,                   !- Surface Type
    Project External Window,    !- Construction Name
    Block Build1_Alt0 Storey 0 Wall 0006,    !- Building Surface Name
    ,                         !- Outside Boundary Condition Object
    autocalculate,            !- View Factor to Ground
    ,                         !- Frame and Divider Name
    1.0,                      !- Multiplier
    autocalculate,            !- Number of Vertices
    -9.1692175,               !- Vertex 1 Xcoordinate
    -9.092903,                !- Vertex 1 Ycoordinate
    7.8,                      !- Vertex 1 Zcoordinate
    -9.1692175,               !- Vertex 2 Xcoordinate
    -9.092903,                !- Vertex 2 Ycoordinate
    4.2,                      !- Vertex 2 Zcoordinate
    -12.2011825,              !- Vertex 3 Xcoordinate
    -11.696297,               !- Vertex 3 Ycoordinate
    4.2,                      !- Vertex 3 Zcoordinate
    -12.2011825,              !- Vertex 4 Xcoordinate
    -11.696297,               !- Vertex 4 Ycoordinate
    7.8;                      !- Vertex 4 Zcoordinate

FENESTRATIONSURFACE:DETAILED,
    Block Build1_Alt0 Storey 0 Wall 0007 window,    !- Name
    Window,                   !- Surface Type
    Project External Window,    !- Construction Name
    Block Build1_Alt0 Storey 0 Wall 0007,    !- Building Surface Name
    ,                         !- Outside Boundary Condition Object
    autocalculate,            !- View Factor to Ground
    ,                         !- Frame and Divider Name
    1.0,                      !- Multiplier
    autocalculate,            !- Number of Vertices
    -12.2006225,              !- Vertex 1 Xcoordinate
    -1.170002e+01,            !- Vertex 1 Ycoordinate
    7.8,                      !- Vertex 1 Zcoordinate
    -12.2006225,              !- Vertex 2 Xcoordinate
    -1.170002e+01,            !- Vertex 2 Ycoordinate
    4.2,                      !- Vertex 2 Zcoordinate
    -8.049777500000001,       !- Vertex 3 Xcoordinate
    -16.5361795,              !- Vertex 3 Ycoordinate
    4.2,                      !- Vertex 3 Zcoordinate
    -8.049777500000001,       !- Vertex 4 Xcoordinate
    -16.5361795,              !- Vertex 4 Ycoordinate
    7.8;                      !- Vertex 4 Zcoordinate

FENESTRATIONSURFACE:DETAILED,
    Block Build1_Alt0 Storey 0 Wall 0008 window,    !- Name
    Window,                   !- Surface Type
    Project External Window,    !- Construction Name
    Block Build1_Alt0 Storey 0 Wall 0008,    !- Building Surface Name
    ,                         !- Outside Boundary Condition Object
    autocalculate,            !- View Factor to Ground
    ,                         !- Frame and Divider Name
    1.0,                      !- Multiplier
    autocalculate,            !- Number of Vertices
    -8.046182000000002,       !- Vertex 1 Xcoordinate
    -16.537297,               !- Vertex 1 Ycoordinate
    7.8,                      !- Vertex 1 Zcoordinate
    -8.046182000000002,       !- Vertex 2 Xcoordinate
    -16.537297,               !- Vertex 2 Ycoordinate
    4.2,                      !- Vertex 2 Zcoordinate
    -5.013218,                !- Vertex 3 Xcoordinate
    -13.933903,               !- Vertex 3 Ycoordinate
    4.2,                      !- Vertex 3 Zcoordinate
    -5.013218,                !- Vertex 4 Xcoordinate
    -13.933903,               !- Vertex 4 Ycoordinate
    7.8;                      !- Vertex 4 Zcoordinate

FENESTRATIONSURFACE:DETAILED,
    Block Build1_Alt0 Storey 0 Wall 0009 window,    !- Name
    Window,                   !- Surface Type
    Project External Window,    !- Construction Name
    Block Build1_Alt0 Storey 0 Wall 0009,    !- Building Surface Name
    ,                         !- Outside Boundary Condition Object
    autocalculate,            !- View Factor to Ground
    ,                         !- Frame and Divider Name
    1.0,                      !- Multiplier
    autocalculate,            !- Number of Vertices
    -5.009614000000001,       !- Vertex 1 Xcoordinate
    -1.393503e+01,            !- Vertex 1 Ycoordinate
    7.8,                      !- Vertex 1 Zcoordinate
    -5.009614000000001,       !- Vertex 2 Xcoordinate
    -1.393503e+01,            !- Vertex 2 Ycoordinate
    4.2,                      !- Vertex 2 Zcoordinate
    -8.417860e-01,            !- Vertex 3 Xcoordinate
    -18.79017,                !- Vertex 3 Ycoordinate
    4.2,                      !- Vertex 3 Zcoordinate
    -8.417860e-01,            !- Vertex 4 Xcoordinate
    -18.79017,                !- Vertex 4 Ycoordinate
    7.8;                      !- Vertex 4 Zcoordinate

FENESTRATIONSURFACE:DETAILED,
    Block Build1_Alt0 Storey 0 Wall 0010 window,    !- Name
    Window,                   !- Surface Type
    Project External Window,    !- Construction Name
    Block Build1_Alt0 Storey 0 Wall 0010,    !- Building Surface Name
    ,                         !- Outside Boundary Condition Object
    autocalculate,            !- View Factor to Ground
    ,                         !- Frame and Divider Name
    1.0,                      !- Multiplier
    autocalculate,            !- Number of Vertices
    -8.358750e-01,            !- Vertex 1 Xcoordinate
    -18.789326,               !- Vertex 1 Ycoordinate
    7.8,                      !- Vertex 1 Zcoordinate
    -8.358750e-01,            !- Vertex 2 Xcoordinate
    -18.789326,               !- Vertex 2 Ycoordinate
    4.2,                      !- Vertex 2 Zcoordinate
    6.806475,                 !- Vertex 3 Xcoordinate
    -12.247874,               !- Vertex 3 Ycoordinate
    4.2,                      !- Vertex 3 Zcoordinate
    6.806475,                 !- Vertex 4 Xcoordinate
    -12.247874,               !- Vertex 4 Ycoordinate
    7.8;                      !- Vertex 4 Zcoordinate

FENESTRATIONSURFACE:DETAILED,
    Block Build1_Alt0 Storey 0 Wall 0011 window,    !- Name
    Window,                   !- Surface Type
    Project External Window,    !- Construction Name
    Block Build1_Alt0 Storey 0 Wall 0011,    !- Building Surface Name
    ,                         !- Outside Boundary Condition Object
    autocalculate,            !- View Factor to Ground
    ,                         !- Frame and Divider Name
    1.0,                      !- Multiplier
    autocalculate,            !- Number of Vertices
    6.8067735,                !- Vertex 1 Xcoordinate
    -1.224049e+01,            !- Vertex 1 Ycoordinate
    7.8,                      !- Vertex 1 Zcoordinate
    6.8067735,                !- Vertex 2 Xcoordinate
    -1.224049e+01,            !- Vertex 2 Ycoordinate
    4.2,                      !- Vertex 2 Zcoordinate
    -2.391735e-01,            !- Vertex 3 Xcoordinate
    -4.0317085,               !- Vertex 3 Ycoordinate
    4.2,                      !- Vertex 3 Zcoordinate
    -2.391735e-01,            !- Vertex 4 Xcoordinate
    -4.0317085,               !- Vertex 4 Ycoordinate
    7.8;                      !- Vertex 4 Zcoordinate

FENESTRATIONSURFACE:DETAILED,
    Block Build1_Alt0 Storey 0 Wall 0012 window,    !- Name
    Window,                   !- Surface Type
    Project External Window,    !- Construction Name
    Block Build1_Alt0 Storey 0 Wall 0012,    !- Building Surface Name
    ,                         !- Outside Boundary Condition Object
    autocalculate,            !- View Factor to Ground
    ,                         !- Frame and Divider Name
    1.0,                      !- Multiplier
    autocalculate,            !- Number of Vertices
    -2.392767e-01,            !- Vertex 1 Xcoordinate
    -4.0246612,               !- Vertex 1 Ycoordinate
    7.8,                      !- Vertex 1 Zcoordinate
    -2.392767e-01,            !- Vertex 2 Xcoordinate
    -4.0246612,               !- Vertex 2 Ycoordinate
    4.2,                      !- Vertex 2 Zcoordinate
    6.600576650000001,        !- Vertex 3 Xcoordinate
    1.8470612000000002,       !- Vertex 3 Ycoordinate
    4.2,                      !- Vertex 3 Zcoordinate
    6.600576650000001,        !- Vertex 4 Xcoordinate
    1.8470612000000002,       !- Vertex 4 Ycoordinate
    7.8;                      !- Vertex 4 Zcoordinate

FENESTRATIONSURFACE:DETAILED,
    Block Build0_Alt0 Storey 0 Wall 0014_2 window,    !- Name
    Window,                   !- Surface Type
    Project External Window,    !- Construction Name
    Block Build0_Alt0 Storey 0 Wall 0014_2,    !- Building Surface Name
    ,                         !- Outside Boundary Condition Object
    autocalculate,            !- View Factor to Ground
    ,                         !- Frame and Divider Name
    1.0,                      !- Multiplier
    autocalculate,            !- Number of Vertices
    1.4094985503919997,       !- Vertex 1 Xcoordinate
    7.901572699543321,        !- Vertex 1 Ycoordinate
    17.85,                    !- Vertex 1 Zcoordinate
    1.4094985503919997,       !- Vertex 2 Xcoordinate
    7.901572699543321,        !- Vertex 2 Ycoordinate
    15.15,                    !- Vertex 2 Zcoordinate
    6.601401450319805,        !- Vertex 3 Xcoordinate
    1.853027299627429,        !- Vertex 3 Ycoordinate
    15.15,                    !- Vertex 3 Zcoordinate
    6.601401450319805,        !- Vertex 4 Xcoordinate
    1.853027299627429,        !- Vertex 4 Ycoordinate
    17.85;                    !- Vertex 4 Zcoordinate

INTERNALMASS,
    Block Build0_Alt0 Storey -1IntMass,    !- Name
    NonHeatedZoneIntMassObj,    !- Construction Name
    Block Build0_Alt0 Storey -1,    !- Zone or ZoneList Name
    1822;                     !- Surface Area

INTERNALMASS,
    Block Build1_Alt0 Storey -1IntMass,    !- Name
    NonHeatedZoneIntMassObj,    !- Construction Name
    Block Build1_Alt0 Storey -1,    !- Zone or ZoneList Name
    1322;                     !- Surface Area

INTERNALMASS,
    Block Build0_Alt0 Storey 0IntMass,    !- Name
    HeatedZoneIntMassObj,     !- Construction Name
    Block Build0_Alt0 Storey 0,    !- Zone or ZoneList Name
    6378;                     !- Surface Area

INTERNALMASS,
    Block Build1_Alt0 Storey 0IntMass,    !- Name
    HeatedZoneIntMassObj,     !- Construction Name
    Block Build1_Alt0 Storey 0,    !- Zone or ZoneList Name
    2645;                     !- Surface Area

SHADING:SITE:DETAILED,
    Shading_V123_1,           !- Name
    ,                         !- Transmittance Schedule Name
    autocalculate,            !- Number of Vertices
    -21.2977,                 !- Vertex 1 Xcoordinate
    -54.6086,                 !- Vertex 1 Ycoordinate
    15.5,                     !- Vertex 1 Zcoordinate
    -21.2977,                 !- Vertex 2 Xcoordinate
    -54.6086,                 !- Vertex 2 Ycoordinate
    0,                        !- Vertex 2 Zcoordinate
    -27.0287,                 !- Vertex 3 Xcoordinate
    -59.5266,                 !- Vertex 3 Ycoordinate
    0,                        !- Vertex 3 Zcoordinate
    -27.0287,                 !- Vertex 4 Xcoordinate
    -59.5266,                 !- Vertex 4 Ycoordinate
    15.5;                     !- Vertex 4 Zcoordinate

SHADING:SITE:DETAILED,
    Shading_V124_1,           !- Name
    ,                         !- Transmittance Schedule Name
    autocalculate,            !- Number of Vertices
    -27.0287,                 !- Vertex 1 Xcoordinate
    -59.5266,                 !- Vertex 1 Ycoordinate
    15.5,                     !- Vertex 1 Zcoordinate
    -27.0287,                 !- Vertex 2 Xcoordinate
    -59.5266,                 !- Vertex 2 Ycoordinate
    0,                        !- Vertex 2 Zcoordinate
    -29.7207,                 !- Vertex 3 Xcoordinate
    -56.4966,                 !- Vertex 3 Ycoordinate
    0,                        !- Vertex 3 Zcoordinate
    -29.7207,                 !- Vertex 4 Xcoordinate
    -56.4966,                 !- Vertex 4 Ycoordinate
    15.5;                     !- Vertex 4 Zcoordinate

SHADING:SITE:DETAILED,
    Shading_V125_1,           !- Name
    ,                         !- Transmittance Schedule Name
    autocalculate,            !- Number of Vertices
    -29.7207,                 !- Vertex 1 Xcoordinate
    -56.4966,                 !- Vertex 1 Ycoordinate
    15.5,                     !- Vertex 1 Zcoordinate
    -29.7207,                 !- Vertex 2 Xcoordinate
    -56.4966,                 !- Vertex 2 Ycoordinate
    0,                        !- Vertex 2 Zcoordinate
    -34.8747,                 !- Vertex 3 Xcoordinate
    -60.8866,                 !- Vertex 3 Ycoordinate
    0,                        !- Vertex 3 Zcoordinate
    -34.8747,                 !- Vertex 4 Xcoordinate
    -60.8866,                 !- Vertex 4 Ycoordinate
    15.5;                     !- Vertex 4 Zcoordinate

SHADING:SITE:DETAILED,
    Shading_V318_1,           !- Name
    ,                         !- Transmittance Schedule Name
    autocalculate,            !- Number of Vertices
    25.6443,                  !- Vertex 1 Xcoordinate
    -68.2966,                 !- Vertex 1 Ycoordinate
    15.8,                     !- Vertex 1 Zcoordinate
    25.6443,                  !- Vertex 2 Xcoordinate
    -68.2966,                 !- Vertex 2 Ycoordinate
    0,                        !- Vertex 2 Zcoordinate
    19.0903,                  !- Vertex 3 Xcoordinate
    -60.5996,                 !- Vertex 3 Ycoordinate
    0,                        !- Vertex 3 Zcoordinate
    19.0903,                  !- Vertex 4 Xcoordinate
    -60.5996,                 !- Vertex 4 Ycoordinate
    15.8;                     !- Vertex 4 Zcoordinate

SHADING:SITE:DETAILED,
    Shading_V319_1,           !- Name
    ,                         !- Transmittance Schedule Name
    autocalculate,            !- Number of Vertices
    19.0903,                  !- Vertex 1 Xcoordinate
    -60.5996,                 !- Vertex 1 Ycoordinate
    15.8,                     !- Vertex 1 Zcoordinate
    19.0903,                  !- Vertex 2 Xcoordinate
    -60.5996,                 !- Vertex 2 Ycoordinate
    0,                        !- Vertex 2 Zcoordinate
    13.1803,                  !- Vertex 3 Xcoordinate
    -65.6866,                 !- Vertex 3 Ycoordinate
    0,                        !- Vertex 3 Zcoordinate
    13.1803,                  !- Vertex 4 Xcoordinate
    -65.6866,                 !- Vertex 4 Ycoordinate
    15.8;                     !- Vertex 4 Zcoordinate

SHADING:SITE:DETAILED,
    Shading_V322_1,           !- Name
    ,                         !- Transmittance Schedule Name
    autocalculate,            !- Number of Vertices
    4.4853,                   !- Vertex 1 Xcoordinate
    -43.6936,                 !- Vertex 1 Ycoordinate
    15.8,                     !- Vertex 1 Zcoordinate
    4.4853,                   !- Vertex 2 Xcoordinate
    -43.6936,                 !- Vertex 2 Ycoordinate
    0,                        !- Vertex 2 Zcoordinate
    -1.0417,                  !- Vertex 3 Xcoordinate
    -37.2186,                 !- Vertex 3 Ycoordinate
    0,                        !- Vertex 3 Zcoordinate
    -1.0417,                  !- Vertex 4 Xcoordinate
    -37.2186,                 !- Vertex 4 Ycoordinate
    15.8;                     !- Vertex 4 Zcoordinate

SHADING:SITE:DETAILED,
    Shading_V323_1,           !- Name
    ,                         !- Transmittance Schedule Name
    autocalculate,            !- Number of Vertices
    -1.0417,                  !- Vertex 1 Xcoordinate
    -37.2186,                 !- Vertex 1 Ycoordinate
    15.8,                     !- Vertex 1 Zcoordinate
    -1.0417,                  !- Vertex 2 Xcoordinate
    -37.2186,                 !- Vertex 2 Ycoordinate
    0,                        !- Vertex 2 Zcoordinate
    -6.9907,                  !- Vertex 3 Xcoordinate
    -42.2656,                 !- Vertex 3 Ycoordinate
    0,                        !- Vertex 3 Zcoordinate
    -6.9907,                  !- Vertex 4 Xcoordinate
    -42.2656,                 !- Vertex 4 Ycoordinate
    15.8;                     !- Vertex 4 Zcoordinate

SHADING:SITE:DETAILED,
    Shading_V324_1,           !- Name
    ,                         !- Transmittance Schedule Name
    autocalculate,            !- Number of Vertices
    -6.9907,                  !- Vertex 1 Xcoordinate
    -42.2656,                 !- Vertex 1 Ycoordinate
    15.8,                     !- Vertex 1 Zcoordinate
    -6.9907,                  !- Vertex 2 Xcoordinate
    -42.2656,                 !- Vertex 2 Ycoordinate
    0,                        !- Vertex 2 Zcoordinate
    -9.5697,                  !- Vertex 3 Xcoordinate
    -39.2076,                 !- Vertex 3 Ycoordinate
    0,                        !- Vertex 3 Zcoordinate
    -9.5697,                  !- Vertex 4 Xcoordinate
    -39.2076,                 !- Vertex 4 Ycoordinate
    15.8;                     !- Vertex 4 Zcoordinate

SHADING:SITE:DETAILED,
    Shading_V325_1,           !- Name
    ,                         !- Transmittance Schedule Name
    autocalculate,            !- Number of Vertices
    -9.5697,                  !- Vertex 1 Xcoordinate
    -39.2076,                 !- Vertex 1 Ycoordinate
    15.8,                     !- Vertex 1 Zcoordinate
    -9.5697,                  !- Vertex 2 Xcoordinate
    -39.2076,                 !- Vertex 2 Ycoordinate
    0,                        !- Vertex 2 Zcoordinate
    -17.2887,                 !- Vertex 3 Xcoordinate
    -45.7536,                 !- Vertex 3 Ycoordinate
    0,                        !- Vertex 3 Zcoordinate
    -17.2887,                 !- Vertex 4 Xcoordinate
    -45.7536,                 !- Vertex 4 Ycoordinate
    15.8;                     !- Vertex 4 Zcoordinate

SHADING:SITE:DETAILED,
    Shading_V361_1,           !- Name
    ,                         !- Transmittance Schedule Name
    autocalculate,            !- Number of Vertices
    -18.4867,                 !- Vertex 1 Xcoordinate
    -28.9046,                 !- Vertex 1 Ycoordinate
    14.2,                     !- Vertex 1 Zcoordinate
    -18.4867,                 !- Vertex 2 Xcoordinate
    -28.9046,                 !- Vertex 2 Ycoordinate
    0,                        !- Vertex 2 Zcoordinate
    -21.1007,                 !- Vertex 3 Xcoordinate
    -25.8696,                 !- Vertex 3 Ycoordinate
    0,                        !- Vertex 3 Zcoordinate
    -21.1007,                 !- Vertex 4 Xcoordinate
    -25.8696,                 !- Vertex 4 Ycoordinate
    14.2;                     !- Vertex 4 Zcoordinate

SHADING:SITE:DETAILED,
    Shading_V363_1,           !- Name
    ,                         !- Transmittance Schedule Name
    autocalculate,            !- Number of Vertices
    -16.1507,                 !- Vertex 1 Xcoordinate
    -21.6346,                 !- Vertex 1 Ycoordinate
    14.2,                     !- Vertex 1 Zcoordinate
    -16.1507,                 !- Vertex 2 Xcoordinate
    -21.6346,                 !- Vertex 2 Ycoordinate
    0,                        !- Vertex 2 Zcoordinate
    -21.8327,                 !- Vertex 3 Xcoordinate
    -14.9946,                 !- Vertex 3 Ycoordinate
    0,                        !- Vertex 3 Zcoordinate
    -21.8327,                 !- Vertex 4 Xcoordinate
    -14.9946,                 !- Vertex 4 Ycoordinate
    14.2;                     !- Vertex 4 Zcoordinate

SHADING:SITE:DETAILED,
    Shading_V365_1,           !- Name
    ,                         !- Transmittance Schedule Name
    autocalculate,            !- Number of Vertices
    -26.7667,                 !- Vertex 1 Xcoordinate
    -19.2916,                 !- Vertex 1 Ycoordinate
    14.2,                     !- Vertex 1 Zcoordinate
    -26.7667,                 !- Vertex 2 Xcoordinate
    -19.2916,                 !- Vertex 2 Ycoordinate
    0,                        !- Vertex 2 Zcoordinate
    -40.0087,                 !- Vertex 3 Xcoordinate
    -3.8876,                  !- Vertex 3 Ycoordinate
    0,                        !- Vertex 3 Zcoordinate
    -40.0087,                 !- Vertex 4 Xcoordinate
    -3.8876,                  !- Vertex 4 Ycoordinate
    14.2;                     !- Vertex 4 Zcoordinate

SHADING:SITE:DETAILED,
    Shading_V366_1,           !- Name
    ,                         !- Transmittance Schedule Name
    autocalculate,            !- Number of Vertices
    -40.0087,                 !- Vertex 1 Xcoordinate
    -3.8876,                  !- Vertex 1 Ycoordinate
    14.2,                     !- Vertex 1 Zcoordinate
    -40.0087,                 !- Vertex 2 Xcoordinate
    -3.8876,                  !- Vertex 2 Ycoordinate
    0,                        !- Vertex 2 Zcoordinate
    -38.6687,                 !- Vertex 3 Xcoordinate
    14.1224,                  !- Vertex 3 Ycoordinate
    0,                        !- Vertex 3 Zcoordinate
    -38.6687,                 !- Vertex 4 Xcoordinate
    14.1224,                  !- Vertex 4 Ycoordinate
    14.2;                     !- Vertex 4 Zcoordinate

SHADING:SITE:DETAILED,
    Shading_V53_1,            !- Name
    ,                         !- Transmittance Schedule Name
    autocalculate,            !- Number of Vertices
    -23.9417,                 !- Vertex 1 Xcoordinate
    26.3129,                  !- Vertex 1 Ycoordinate
    12.5,                     !- Vertex 1 Zcoordinate
    -23.9417,                 !- Vertex 2 Xcoordinate
    26.3129,                  !- Vertex 2 Ycoordinate
    0,                        !- Vertex 2 Zcoordinate
    -18.1357,                 !- Vertex 3 Xcoordinate
    19.6004,                  !- Vertex 3 Ycoordinate
    0,                        !- Vertex 3 Zcoordinate
    -18.1357,                 !- Vertex 4 Xcoordinate
    19.6004,                  !- Vertex 4 Ycoordinate
    12.5;                     !- Vertex 4 Zcoordinate

SHADING:SITE:DETAILED,
    Shading_V54_1,            !- Name
    ,                         !- Transmittance Schedule Name
    autocalculate,            !- Number of Vertices
    -18.1357,                 !- Vertex 1 Xcoordinate
    19.6004,                  !- Vertex 1 Ycoordinate
    12.5,                     !- Vertex 1 Zcoordinate
    -18.1357,                 !- Vertex 2 Xcoordinate
    19.6004,                  !- Vertex 2 Ycoordinate
    0,                        !- Vertex 2 Zcoordinate
    -11.5487,                 !- Vertex 3 Xcoordinate
    25.2304,                  !- Vertex 3 Ycoordinate
    0,                        !- Vertex 3 Zcoordinate
    -11.5487,                 !- Vertex 4 Xcoordinate
    25.2304,                  !- Vertex 4 Ycoordinate
    12.5;                     !- Vertex 4 Zcoordinate

SHADING:SITE:DETAILED,
    Shading_V358_1,           !- Name
    ,                         !- Transmittance Schedule Name
    autocalculate,            !- Number of Vertices
    -0.5747,                  !- Vertex 1 Xcoordinate
    46.6997,                  !- Vertex 1 Ycoordinate
    14.9,                     !- Vertex 1 Zcoordinate
    -0.5747,                  !- Vertex 2 Xcoordinate
    46.6997,                  !- Vertex 2 Ycoordinate
    0,                        !- Vertex 2 Zcoordinate
    5.3693,                   !- Vertex 3 Xcoordinate
    39.8134,                  !- Vertex 3 Ycoordinate
    0,                        !- Vertex 3 Zcoordinate
    5.3693,                   !- Vertex 4 Xcoordinate
    39.8134,                  !- Vertex 4 Ycoordinate
    14.9;                     !- Vertex 4 Zcoordinate

SHADING:SITE:DETAILED,
    Shading_V359_1,           !- Name
    ,                         !- Transmittance Schedule Name
    autocalculate,            !- Number of Vertices
    5.3693,                   !- Vertex 1 Xcoordinate
    39.8134,                  !- Vertex 1 Ycoordinate
    14.9,                     !- Vertex 1 Zcoordinate
    5.3693,                   !- Vertex 2 Xcoordinate
    39.8134,                  !- Vertex 2 Ycoordinate
    0,                        !- Vertex 2 Zcoordinate
    11.9713,                  !- Vertex 3 Xcoordinate
    45.4434,                  !- Vertex 3 Ycoordinate
    0,                        !- Vertex 3 Zcoordinate
    11.9713,                  !- Vertex 4 Xcoordinate
    45.4434,                  !- Vertex 4 Ycoordinate
    14.9;                     !- Vertex 4 Zcoordinate

SHADING:SITE:DETAILED,
    Shading_V499_1,           !- Name
    ,                         !- Transmittance Schedule Name
    autocalculate,            !- Number of Vertices
    -18.0067,                 !- Vertex 1 Xcoordinate
    32.7344,                  !- Vertex 1 Ycoordinate
    16.4,                     !- Vertex 1 Zcoordinate
    -18.0067,                 !- Vertex 2 Xcoordinate
    32.7344,                  !- Vertex 2 Ycoordinate
    0,                        !- Vertex 2 Zcoordinate
    -1.0717,                  !- Vertex 3 Xcoordinate
    47.2754,                  !- Vertex 3 Ycoordinate
    0,                        !- Vertex 3 Zcoordinate
    -1.0717,                  !- Vertex 4 Xcoordinate
    47.2754,                  !- Vertex 4 Ycoordinate
    16.4;                     !- Vertex 4 Zcoordinate

SHADING:SITE:DETAILED,
    Shading_V43_1,            !- Name
    ,                         !- Transmittance Schedule Name
    autocalculate,            !- Number of Vertices
    18.6833,                  !- Vertex 1 Xcoordinate
    -15.0256,                 !- Vertex 1 Ycoordinate
    23.8,                     !- Vertex 1 Zcoordinate
    18.6833,                  !- Vertex 2 Xcoordinate
    -15.0256,                 !- Vertex 2 Ycoordinate
    0,                        !- Vertex 2 Zcoordinate
    11.0253,                  !- Vertex 3 Xcoordinate
    -21.6106,                 !- Vertex 3 Ycoordinate
    0,                        !- Vertex 3 Zcoordinate
    11.0253,                  !- Vertex 4 Xcoordinate
    -21.6106,                 !- Vertex 4 Ycoordinate
    23.8;                     !- Vertex 4 Zcoordinate

SHADING:SITE:DETAILED,
    Shading_V44_1,            !- Name
    ,                         !- Transmittance Schedule Name
    autocalculate,            !- Number of Vertices
    11.0253,                  !- Vertex 1 Xcoordinate
    -21.6106,                 !- Vertex 1 Ycoordinate
    23.8,                     !- Vertex 1 Zcoordinate
    11.0253,                  !- Vertex 2 Xcoordinate
    -21.6106,                 !- Vertex 2 Ycoordinate
    0,                        !- Vertex 2 Zcoordinate
    14.8403,                  !- Vertex 3 Xcoordinate
    -26.0476,                 !- Vertex 3 Ycoordinate
    0,                        !- Vertex 3 Zcoordinate
    14.8403,                  !- Vertex 4 Xcoordinate
    -26.0476,                 !- Vertex 4 Ycoordinate
    23.8;                     !- Vertex 4 Zcoordinate

SHADING:SITE:DETAILED,
    Shading_V45_1,            !- Name
    ,                         !- Transmittance Schedule Name
    autocalculate,            !- Number of Vertices
    14.8403,                  !- Vertex 1 Xcoordinate
    -26.0476,                 !- Vertex 1 Ycoordinate
    23.8,                     !- Vertex 1 Zcoordinate
    14.8403,                  !- Vertex 2 Xcoordinate
    -26.0476,                 !- Vertex 2 Ycoordinate
    0,                        !- Vertex 2 Zcoordinate
    10.2143,                  !- Vertex 3 Xcoordinate
    -30.0246,                 !- Vertex 3 Ycoordinate
    0,                        !- Vertex 3 Zcoordinate
    10.2143,                  !- Vertex 4 Xcoordinate
    -30.0246,                 !- Vertex 4 Ycoordinate
    23.8;                     !- Vertex 4 Zcoordinate

SHADING:SITE:DETAILED,
    Shading_V47_1,            !- Name
    ,                         !- Transmittance Schedule Name
    autocalculate,            !- Number of Vertices
    12.8213,                  !- Vertex 1 Xcoordinate
    -33.0566,                 !- Vertex 1 Ycoordinate
    23.8,                     !- Vertex 1 Zcoordinate
    12.8213,                  !- Vertex 2 Xcoordinate
    -33.0566,                 !- Vertex 2 Ycoordinate
    0,                        !- Vertex 2 Zcoordinate
    9.7873,                   !- Vertex 3 Xcoordinate
    -35.6656,                 !- Vertex 3 Ycoordinate
    0,                        !- Vertex 3 Zcoordinate
    9.7873,                   !- Vertex 4 Xcoordinate
    -35.6656,                 !- Vertex 4 Ycoordinate
    23.8;                     !- Vertex 4 Zcoordinate

SHADING:SITE:DETAILED,
    Shading_V128_1,           !- Name
    ,                         !- Transmittance Schedule Name
    autocalculate,            !- Number of Vertices
    -44.6537,                 !- Vertex 1 Xcoordinate
    -74.6506,                 !- Vertex 1 Ycoordinate
    15.5,                     !- Vertex 1 Zcoordinate
    -44.6537,                 !- Vertex 2 Xcoordinate
    -74.6506,                 !- Vertex 2 Ycoordinate
    0,                        !- Vertex 2 Zcoordinate
    -47.2507,                 !- Vertex 3 Xcoordinate
    -71.5156,                 !- Vertex 3 Ycoordinate
    0,                        !- Vertex 3 Zcoordinate
    -47.2507,                 !- Vertex 4 Xcoordinate
    -71.5156,                 !- Vertex 4 Ycoordinate
    15.5;                     !- Vertex 4 Zcoordinate

SHADING:SITE:DETAILED,
    Shading_V129_1,           !- Name
    ,                         !- Transmittance Schedule Name
    autocalculate,            !- Number of Vertices
    -47.2507,                 !- Vertex 1 Xcoordinate
    -71.5156,                 !- Vertex 1 Ycoordinate
    15.5,                     !- Vertex 1 Zcoordinate
    -47.2507,                 !- Vertex 2 Xcoordinate
    -71.5156,                 !- Vertex 2 Ycoordinate
    0,                        !- Vertex 2 Zcoordinate
    -52.3527,                 !- Vertex 3 Xcoordinate
    -75.9546,                 !- Vertex 3 Ycoordinate
    0,                        !- Vertex 3 Zcoordinate
    -52.3527,                 !- Vertex 4 Xcoordinate
    -75.9546,                 !- Vertex 4 Ycoordinate
    15.5;                     !- Vertex 4 Zcoordinate

SHADING:SITE:DETAILED,
    Shading_V306_1,           !- Name
    ,                         !- Transmittance Schedule Name
    autocalculate,            !- Number of Vertices
    -73.9947,                 !- Vertex 1 Xcoordinate
    -103.3456,                !- Vertex 1 Ycoordinate
    18.8,                     !- Vertex 1 Zcoordinate
    -73.9947,                 !- Vertex 2 Xcoordinate
    -103.3456,                !- Vertex 2 Ycoordinate
    0,                        !- Vertex 2 Zcoordinate
    -79.8117,                 !- Vertex 3 Xcoordinate
    -96.5196,                 !- Vertex 3 Ycoordinate
    0,                        !- Vertex 3 Zcoordinate
    -79.8117,                 !- Vertex 4 Xcoordinate
    -96.5196,                 !- Vertex 4 Ycoordinate
    18.8;                     !- Vertex 4 Zcoordinate

SHADING:SITE:DETAILED,
    Shading_V307_1,           !- Name
    ,                         !- Transmittance Schedule Name
    autocalculate,            !- Number of Vertices
    -79.8117,                 !- Vertex 1 Xcoordinate
    -96.5196,                 !- Vertex 1 Ycoordinate
    18.8,                     !- Vertex 1 Zcoordinate
    -79.8117,                 !- Vertex 2 Xcoordinate
    -96.5196,                 !- Vertex 2 Ycoordinate
    0,                        !- Vertex 2 Zcoordinate
    -87.4837,                 !- Vertex 3 Xcoordinate
    -103.1236,                !- Vertex 3 Ycoordinate
    0,                        !- Vertex 3 Zcoordinate
    -87.4837,                 !- Vertex 4 Xcoordinate
    -103.1236,                !- Vertex 4 Ycoordinate
    18.8;                     !- Vertex 4 Zcoordinate

SHADING:SITE:DETAILED,
    Shading_V320_1,           !- Name
    ,                         !- Transmittance Schedule Name
    autocalculate,            !- Number of Vertices
    13.1803,                  !- Vertex 1 Xcoordinate
    -65.6866,                 !- Vertex 1 Ycoordinate
    15.8,                     !- Vertex 1 Zcoordinate
    13.1803,                  !- Vertex 2 Xcoordinate
    -65.6866,                 !- Vertex 2 Ycoordinate
    0,                        !- Vertex 2 Zcoordinate
    -1.4047,                  !- Vertex 3 Xcoordinate
    -48.7916,                 !- Vertex 3 Ycoordinate
    0,                        !- Vertex 3 Zcoordinate
    -1.4047,                  !- Vertex 4 Xcoordinate
    -48.7916,                 !- Vertex 4 Ycoordinate
    15.8;                     !- Vertex 4 Zcoordinate

SHADING:SITE:DETAILED,
    Shading_V40_1,            !- Name
    ,                         !- Transmittance Schedule Name
    autocalculate,            !- Number of Vertices
    36.3993,                  !- Vertex 1 Xcoordinate
    -24.8936,                 !- Vertex 1 Ycoordinate
    23.8,                     !- Vertex 1 Zcoordinate
    36.3993,                  !- Vertex 2 Xcoordinate
    -24.8936,                 !- Vertex 2 Ycoordinate
    0,                        !- Vertex 2 Zcoordinate
    29.7993,                  !- Vertex 3 Xcoordinate
    -17.2466,                 !- Vertex 3 Ycoordinate
    0,                        !- Vertex 3 Zcoordinate
    29.7993,                  !- Vertex 4 Xcoordinate
    -17.2466,                 !- Vertex 4 Ycoordinate
    23.8;                     !- Vertex 4 Zcoordinate

SHADING:SITE:DETAILED,
    Shading_V41_1,            !- Name
    ,                         !- Transmittance Schedule Name
    autocalculate,            !- Number of Vertices
    29.7993,                  !- Vertex 1 Xcoordinate
    -17.2466,                 !- Vertex 1 Ycoordinate
    23.8,                     !- Vertex 1 Zcoordinate
    29.7993,                  !- Vertex 2 Xcoordinate
    -17.2466,                 !- Vertex 2 Ycoordinate
    0,                        !- Vertex 2 Zcoordinate
    24.5063,                  !- Vertex 3 Xcoordinate
    -21.8176,                 !- Vertex 3 Ycoordinate
    0,                        !- Vertex 3 Zcoordinate
    24.5063,                  !- Vertex 4 Xcoordinate
    -21.8176,                 !- Vertex 4 Ycoordinate
    23.8;                     !- Vertex 4 Zcoordinate

SHADING:SITE:DETAILED,
    Shading_V42_1,            !- Name
    ,                         !- Transmittance Schedule Name
    autocalculate,            !- Number of Vertices
    24.5063,                  !- Vertex 1 Xcoordinate
    -21.8176,                 !- Vertex 1 Ycoordinate
    23.8,                     !- Vertex 1 Zcoordinate
    24.5063,                  !- Vertex 2 Xcoordinate
    -21.8176,                 !- Vertex 2 Ycoordinate
    0,                        !- Vertex 2 Zcoordinate
    18.6833,                  !- Vertex 3 Xcoordinate
    -15.0256,                 !- Vertex 3 Ycoordinate
    0,                        !- Vertex 3 Zcoordinate
    18.6833,                  !- Vertex 4 Xcoordinate
    -15.0256,                 !- Vertex 4 Ycoordinate
    23.8;                     !- Vertex 4 Zcoordinate

SHADING:SITE:DETAILED,
    Shading_V299_1,           !- Name
    ,                         !- Transmittance Schedule Name
    autocalculate,            !- Number of Vertices
    49.8003,                  !- Vertex 1 Xcoordinate
    -45.0456,                 !- Vertex 1 Ycoordinate
    14.8,                     !- Vertex 1 Zcoordinate
    49.8003,                  !- Vertex 2 Xcoordinate
    -45.0456,                 !- Vertex 2 Ycoordinate
    0,                        !- Vertex 2 Zcoordinate
    42.4603,                  !- Vertex 3 Xcoordinate
    -44.4026,                 !- Vertex 3 Ycoordinate
    0,                        !- Vertex 3 Zcoordinate
    42.4603,                  !- Vertex 4 Xcoordinate
    -44.4026,                 !- Vertex 4 Ycoordinate
    14.8;                     !- Vertex 4 Zcoordinate

SHADING:SITE:DETAILED,
    Shading_V46_1,            !- Name
    ,                         !- Transmittance Schedule Name
    autocalculate,            !- Number of Vertices
    10.2143,                  !- Vertex 1 Xcoordinate
    -30.0246,                 !- Vertex 1 Ycoordinate
    23.8,                     !- Vertex 1 Zcoordinate
    10.2143,                  !- Vertex 2 Xcoordinate
    -30.0246,                 !- Vertex 2 Ycoordinate
    0,                        !- Vertex 2 Zcoordinate
    12.8213,                  !- Vertex 3 Xcoordinate
    -33.0566,                 !- Vertex 3 Ycoordinate
    0,                        !- Vertex 3 Zcoordinate
    12.8213,                  !- Vertex 4 Xcoordinate
    -33.0566,                 !- Vertex 4 Ycoordinate
    23.8;                     !- Vertex 4 Zcoordinate

SHADING:SITE:DETAILED,
    Shading_V305_1,           !- Name
    ,                         !- Transmittance Schedule Name
    autocalculate,            !- Number of Vertices
    -69.8347,                 !- Vertex 1 Xcoordinate
    -99.7606,                 !- Vertex 1 Ycoordinate
    18.8,                     !- Vertex 1 Zcoordinate
    -69.8347,                 !- Vertex 2 Xcoordinate
    -99.7606,                 !- Vertex 2 Ycoordinate
    0,                        !- Vertex 2 Zcoordinate
    -73.9947,                 !- Vertex 3 Xcoordinate
    -103.3456,                !- Vertex 3 Ycoordinate
    0,                        !- Vertex 3 Zcoordinate
    -73.9947,                 !- Vertex 4 Xcoordinate
    -103.3456,                !- Vertex 4 Ycoordinate
    18.8;                     !- Vertex 4 Zcoordinate

SHADING:SITE:DETAILED,
    Shading_V145_1,           !- Name
    ,                         !- Transmittance Schedule Name
    autocalculate,            !- Number of Vertices
    -61.0167,                 !- Vertex 1 Xcoordinate
    -65.8206,                 !- Vertex 1 Ycoordinate
    15.5,                     !- Vertex 1 Zcoordinate
    -61.0167,                 !- Vertex 2 Xcoordinate
    -65.8206,                 !- Vertex 2 Ycoordinate
    0,                        !- Vertex 2 Zcoordinate
    -55.9187,                 !- Vertex 3 Xcoordinate
    -61.4586,                 !- Vertex 3 Ycoordinate
    0,                        !- Vertex 3 Zcoordinate
    -55.9187,                 !- Vertex 4 Xcoordinate
    -61.4586,                 !- Vertex 4 Ycoordinate
    15.5;                     !- Vertex 4 Zcoordinate

SHADING:SITE:DETAILED,
    Shading_V149_1,           !- Name
    ,                         !- Transmittance Schedule Name
    autocalculate,            !- Number of Vertices
    -43.4747,                 !- Vertex 1 Xcoordinate
    -50.8086,                 !- Vertex 1 Ycoordinate
    15.5,                     !- Vertex 1 Zcoordinate
    -43.4747,                 !- Vertex 2 Xcoordinate
    -50.8086,                 !- Vertex 2 Ycoordinate
    0,                        !- Vertex 2 Zcoordinate
    -38.4037,                 !- Vertex 3 Xcoordinate
    -46.4676,                 !- Vertex 3 Ycoordinate
    0,                        !- Vertex 3 Zcoordinate
    -38.4037,                 !- Vertex 4 Xcoordinate
    -46.4676,                 !- Vertex 4 Ycoordinate
    15.5;                     !- Vertex 4 Zcoordinate

SHADING:SITE:DETAILED,
    Shading_V362_1,           !- Name
    ,                         !- Transmittance Schedule Name
    autocalculate,            !- Number of Vertices
    -21.1007,                 !- Vertex 1 Xcoordinate
    -25.8696,                 !- Vertex 1 Ycoordinate
    14.2,                     !- Vertex 1 Zcoordinate
    -21.1007,                 !- Vertex 2 Xcoordinate
    -25.8696,                 !- Vertex 2 Ycoordinate
    0,                        !- Vertex 2 Zcoordinate
    -16.1507,                 !- Vertex 3 Xcoordinate
    -21.6346,                 !- Vertex 3 Ycoordinate
    0,                        !- Vertex 3 Zcoordinate
    -16.1507,                 !- Vertex 4 Xcoordinate
    -21.6346,                 !- Vertex 4 Ycoordinate
    14.2;                     !- Vertex 4 Zcoordinate

SHADING:SITE:DETAILED,
    Shading_V378_1,           !- Name
    ,                         !- Transmittance Schedule Name
    autocalculate,            !- Number of Vertices
    -25.1337,                 !- Vertex 1 Xcoordinate
    -35.1156,                 !- Vertex 1 Ycoordinate
    14.2,                     !- Vertex 1 Zcoordinate
    -25.1337,                 !- Vertex 2 Xcoordinate
    -35.1156,                 !- Vertex 2 Ycoordinate
    0,                        !- Vertex 2 Zcoordinate
    -18.4867,                 !- Vertex 3 Xcoordinate
    -28.9046,                 !- Vertex 3 Ycoordinate
    0,                        !- Vertex 3 Zcoordinate
    -18.4867,                 !- Vertex 4 Xcoordinate
    -28.9046,                 !- Vertex 4 Ycoordinate
    14.2;                     !- Vertex 4 Zcoordinate

SHADING:SITE:DETAILED,
    Shading_V55_1,            !- Name
    ,                         !- Transmittance Schedule Name
    autocalculate,            !- Number of Vertices
    -11.5487,                 !- Vertex 1 Xcoordinate
    25.2304,                  !- Vertex 1 Ycoordinate
    12.5,                     !- Vertex 1 Zcoordinate
    -11.5487,                 !- Vertex 2 Xcoordinate
    25.2304,                  !- Vertex 2 Ycoordinate
    0,                        !- Vertex 2 Zcoordinate
    -17.4552,                 !- Vertex 3 Xcoordinate
    32.0936,                  !- Vertex 3 Ycoordinate
    0,                        !- Vertex 3 Zcoordinate
    -17.4552,                 !- Vertex 4 Xcoordinate
    32.0936,                  !- Vertex 4 Ycoordinate
    12.5;                     !- Vertex 4 Zcoordinate

SHADING:SITE:DETAILED,
    Shading_V367_1,           !- Name
    ,                         !- Transmittance Schedule Name
    autocalculate,            !- Number of Vertices
    -38.6687,                 !- Vertex 1 Xcoordinate
    14.1224,                  !- Vertex 1 Ycoordinate
    14.2,                     !- Vertex 1 Zcoordinate
    -38.6687,                 !- Vertex 2 Xcoordinate
    14.1224,                  !- Vertex 2 Ycoordinate
    0,                        !- Vertex 2 Zcoordinate
    -30.8707,                 !- Vertex 3 Xcoordinate
    20.8084,                  !- Vertex 3 Ycoordinate
    0,                        !- Vertex 3 Zcoordinate
    -30.8707,                 !- Vertex 4 Xcoordinate
    20.8084,                  !- Vertex 4 Ycoordinate
    14.2;                     !- Vertex 4 Zcoordinate

SHADING:SITE:DETAILED,
    Shading_V368_1,           !- Name
    ,                         !- Transmittance Schedule Name
    autocalculate,            !- Number of Vertices
    -30.8707,                 !- Vertex 1 Xcoordinate
    20.8084,                  !- Vertex 1 Ycoordinate
    14.2,                     !- Vertex 1 Zcoordinate
    -30.8707,                 !- Vertex 2 Xcoordinate
    20.8084,                  !- Vertex 2 Ycoordinate
    0,                        !- Vertex 2 Zcoordinate
    -38.4447,                 !- Vertex 3 Xcoordinate
    29.6594,                  !- Vertex 3 Ycoordinate
    0,                        !- Vertex 3 Zcoordinate
    -38.4447,                 !- Vertex 4 Xcoordinate
    29.6594,                  !- Vertex 4 Ycoordinate
    14.2;                     !- Vertex 4 Zcoordinate

SHADING:SITE:DETAILED,
    Shading_V163_1,           !- Name
    ,                         !- Transmittance Schedule Name
    autocalculate,            !- Number of Vertices
    -82.8097,                 !- Vertex 1 Xcoordinate
    73.4884,                  !- Vertex 1 Ycoordinate
    12.6,                     !- Vertex 1 Zcoordinate
    -82.8097,                 !- Vertex 2 Xcoordinate
    73.4884,                  !- Vertex 2 Ycoordinate
    0,                        !- Vertex 2 Zcoordinate
    -79.7387,                 !- Vertex 3 Xcoordinate
    76.1024,                  !- Vertex 3 Ycoordinate
    0,                        !- Vertex 3 Zcoordinate
    -79.7387,                 !- Vertex 4 Xcoordinate
    76.1024,                  !- Vertex 4 Ycoordinate
    12.6;                     !- Vertex 4 Zcoordinate

SHADING:SITE:DETAILED,
    Shading_V165_1,           !- Name
    ,                         !- Transmittance Schedule Name
    autocalculate,            !- Number of Vertices
    -72.9197,                 !- Vertex 1 Xcoordinate
    68.2274,                  !- Vertex 1 Ycoordinate
    12.6,                     !- Vertex 1 Zcoordinate
    -72.9197,                 !- Vertex 2 Xcoordinate
    68.2274,                  !- Vertex 2 Ycoordinate
    0,                        !- Vertex 2 Zcoordinate
    -65.2917,                 !- Vertex 3 Xcoordinate
    74.8094,                  !- Vertex 3 Ycoordinate
    0,                        !- Vertex 3 Zcoordinate
    -65.2917,                 !- Vertex 4 Xcoordinate
    74.8094,                  !- Vertex 4 Ycoordinate
    12.6;                     !- Vertex 4 Zcoordinate

SHADING:SITE:DETAILED,
    Shading_V250_1,           !- Name
    ,                         !- Transmittance Schedule Name
    autocalculate,            !- Number of Vertices
    -50.8917,                 !- Vertex 1 Xcoordinate
    51.4704,                  !- Vertex 1 Ycoordinate
    16.1,                     !- Vertex 1 Zcoordinate
    -50.8917,                 !- Vertex 2 Xcoordinate
    51.4704,                  !- Vertex 2 Ycoordinate
    0,                        !- Vertex 2 Zcoordinate
    -44.7737,                 !- Vertex 3 Xcoordinate
    44.4014,                  !- Vertex 3 Ycoordinate
    0,                        !- Vertex 3 Zcoordinate
    -44.7737,                 !- Vertex 4 Xcoordinate
    44.4014,                  !- Vertex 4 Ycoordinate
    16.1;                     !- Vertex 4 Zcoordinate

SHADING:SITE:DETAILED,
    Shading_V494_1,           !- Name
    ,                         !- Transmittance Schedule Name
    autocalculate,            !- Number of Vertices
    -33.7907,                 !- Vertex 1 Xcoordinate
    31.5864,                  !- Vertex 1 Ycoordinate
    16.4,                     !- Vertex 1 Zcoordinate
    -33.7907,                 !- Vertex 2 Xcoordinate
    31.5864,                  !- Vertex 2 Ycoordinate
    0,                        !- Vertex 2 Zcoordinate
    -27.6077,                 !- Vertex 3 Xcoordinate
    24.4374,                  !- Vertex 3 Ycoordinate
    0,                        !- Vertex 3 Zcoordinate
    -27.6077,                 !- Vertex 4 Xcoordinate
    24.4374,                  !- Vertex 4 Ycoordinate
    16.4;                     !- Vertex 4 Zcoordinate

SHADING:SITE:DETAILED,
    Shading_V495_1,           !- Name
    ,                         !- Transmittance Schedule Name
    autocalculate,            !- Number of Vertices
    -27.6077,                 !- Vertex 1 Xcoordinate
    24.4374,                  !- Vertex 1 Ycoordinate
    16.4,                     !- Vertex 1 Zcoordinate
    -27.6077,                 !- Vertex 2 Xcoordinate
    24.4374,                  !- Vertex 2 Ycoordinate
    0,                        !- Vertex 2 Zcoordinate
    -24.6117,                 !- Vertex 3 Xcoordinate
    27.0874,                  !- Vertex 3 Ycoordinate
    0,                        !- Vertex 3 Zcoordinate
    -24.6117,                 !- Vertex 4 Xcoordinate
    27.0874,                  !- Vertex 4 Ycoordinate
    16.4;                     !- Vertex 4 Zcoordinate

SHADING:SITE:DETAILED,
    Shading_V364_1,           !- Name
    ,                         !- Transmittance Schedule Name
    autocalculate,            !- Number of Vertices
    -21.8327,                 !- Vertex 1 Xcoordinate
    -14.9946,                 !- Vertex 1 Ycoordinate
    14.2,                     !- Vertex 1 Zcoordinate
    -21.8327,                 !- Vertex 2 Xcoordinate
    -14.9946,                 !- Vertex 2 Ycoordinate
    0,                        !- Vertex 2 Zcoordinate
    -26.7667,                 !- Vertex 3 Xcoordinate
    -19.2916,                 !- Vertex 3 Ycoordinate
    0,                        !- Vertex 3 Zcoordinate
    -26.7667,                 !- Vertex 4 Xcoordinate
    -19.2916,                 !- Vertex 4 Ycoordinate
    14.2;                     !- Vertex 4 Zcoordinate

ELECTRICEQUIPMENT,
    Block Build0_Alt0 Storey 0Load,    !- Name
    Block Build0_Alt0 Storey 0,    !- Zone or ZoneList Name
    LoadSchedule,             !- Schedule Name
    Watts/Area,               !- Design Level Calculation Method
    ,                         !- Design Level
    0.07,                     !- Watts per Zone Floor Area
    ,                         !- Watts per Person
    0,                        !- Fraction Latent
    0,                        !- Fraction Radiant
    0,                        !- Fraction Lost
    General;                  !- EndUse Subcategory

ELECTRICEQUIPMENT,
    Block Build1_Alt0 Storey 0Load,    !- Name
    Block Build1_Alt0 Storey 0,    !- Zone or ZoneList Name
    LoadSchedule,             !- Schedule Name
    Watts/Area,               !- Design Level Calculation Method
    ,                         !- Design Level
    0.04,                     !- Watts per Zone Floor Area
    ,                         !- Watts per Person
    0,                        !- Fraction Latent
    0,                        !- Fraction Radiant
    0,                        !- Fraction Lost
    General;                  !- EndUse Subcategory

ZONEINFILTRATION:DESIGNFLOWRATE,
    Block Build0_Alt0 Storey -1Leak,    !- Name
    Block Build0_Alt0 Storey -1,    !- Zone or ZoneList Name
    AlwaysON,                 !- Schedule Name
    AirChanges/Hour,          !- Design Flow Rate Calculation Method
    ,                         !- Design Flow Rate
    ,                         !- Flow per Zone Floor Area
    ,                         !- Flow per Exterior Surface Area
    1,                        !- Air Changes per Hour
    1,                        !- Constant Term Coefficient
    0,                        !- Temperature Term Coefficient
    0,                        !- Velocity Term Coefficient
    0;                        !- Velocity Squared Term Coefficient

ZONEINFILTRATION:DESIGNFLOWRATE,
    Block Build1_Alt0 Storey -1Leak,    !- Name
    Block Build1_Alt0 Storey -1,    !- Zone or ZoneList Name
    AlwaysON,                 !- Schedule Name
    AirChanges/Hour,          !- Design Flow Rate Calculation Method
    ,                         !- Design Flow Rate
    ,                         !- Flow per Zone Floor Area
    ,                         !- Flow per Exterior Surface Area
    1,                        !- Air Changes per Hour
    1,                        !- Constant Term Coefficient
    0,                        !- Temperature Term Coefficient
    0,                        !- Velocity Term Coefficient
    0;                        !- Velocity Squared Term Coefficient

ZONEINFILTRATION:FLOWCOEFFICIENT,
    Block Build0_Alt0 Storey 0Leak,    !- Name
    Block Build0_Alt0 Storey 0,    !- Zone Name
    AlwaysON,                 !- Schedule Name
    1.963834e-01,             !- Flow Coefficient
    0.107,                    !- Stack Coefficient
    0.667,                    !- Pressure Exponent
    0.167,                    !- Wind Coefficient
    0.61;                     !- Shelter Factor

ZONEINFILTRATION:FLOWCOEFFICIENT,
    Block Build1_Alt0 Storey 0Leak,    !- Name
    Block Build1_Alt0 Storey 0,    !- Zone Name
    AlwaysON,                 !- Schedule Name
    9.893592e-02,             !- Flow Coefficient
    0.107,                    !- Stack Coefficient
    0.667,                    !- Pressure Exponent
    0.167,                    !- Wind Coefficient
    0.61;                     !- Shelter Factor

ZONEVENTILATION:DESIGNFLOWRATE,
    Block Build0_Alt0 Storey 0FreeCool,    !- Name
    Block Build0_Alt0 Storey 0,    !- Zone or ZoneList Name
    AlwaysON,                 !- Schedule Name
    AirChanges/Hour,          !- Design Flow Rate Calculation Method
    ,                         !- Design Flow Rate
    ,                         !- Flow Rate per Zone Floor Area
    ,                         !- Flow Rate per Person
    4,                        !- Air Changes per Hour
    Natural,                  !- Ventilation Type
    0,                        !- Fan Pressure Rise
    1,                        !- Fan Total Efficiency
    1,                        !- Constant Term Coefficient
    0,                        !- Temperature Term Coefficient
    0,                        !- Velocity Term Coefficient
    0,                        !- Velocity Squared Term Coefficient
    26,                       !- Minimum Indoor Temperature
    ,                         !- Minimum Indoor Temperature Schedule Name
    100,                      !- Maximum Indoor Temperature
    ,                         !- Maximum Indoor Temperature Schedule Name
    1,                        !- Delta Temperature
    ,                         !- Delta Temperature Schedule Name
    -100,                     !- Minimum Outdoor Temperature
    ,                         !- Minimum Outdoor Temperature Schedule Name
    100,                      !- Maximum Outdoor Temperature
    ,                         !- Maximum Outdoor Temperature Schedule Name
    40;                       !- Maximum Wind Speed

ZONEVENTILATION:DESIGNFLOWRATE,
    Block Build1_Alt0 Storey 0FreeCool,    !- Name
    Block Build1_Alt0 Storey 0,    !- Zone or ZoneList Name
    AlwaysON,                 !- Schedule Name
    AirChanges/Hour,          !- Design Flow Rate Calculation Method
    ,                         !- Design Flow Rate
    ,                         !- Flow Rate per Zone Floor Area
    ,                         !- Flow Rate per Person
    4,                        !- Air Changes per Hour
    Natural,                  !- Ventilation Type
    0,                        !- Fan Pressure Rise
    1,                        !- Fan Total Efficiency
    1,                        !- Constant Term Coefficient
    0,                        !- Temperature Term Coefficient
    0,                        !- Velocity Term Coefficient
    0,                        !- Velocity Squared Term Coefficient
    26,                       !- Minimum Indoor Temperature
    ,                         !- Minimum Indoor Temperature Schedule Name
    100,                      !- Maximum Indoor Temperature
    ,                         !- Maximum Indoor Temperature Schedule Name
    1,                        !- Delta Temperature
    ,                         !- Delta Temperature Schedule Name
    -100,                     !- Minimum Outdoor Temperature
    ,                         !- Minimum Outdoor Temperature Schedule Name
    100,                      !- Maximum Outdoor Temperature
    ,                         !- Maximum Outdoor Temperature Schedule Name
    40;                       !- Maximum Wind Speed

HVACTEMPLATE:THERMOSTAT,
    ResidZone,                !- Name
    ,                         !- Heating Setpoint Schedule Name
    21,                       !- Constant Heating Setpoint
    ,                         !- Cooling Setpoint Schedule Name
    50;                       !- Constant Cooling Setpoint

HVACTEMPLATE:ZONE:IDEALLOADSAIRSYSTEM,
    Block Build0_Alt0 Storey 0,    !- Zone Name
    ResidZone,                !- Template Thermostat Name
    ,                         !- System Availability Schedule Name
    50,                       !- Maximum Heating Supply Air Temperature
    13,                       !- Minimum Cooling Supply Air Temperature
    0.0156,                   !- Maximum Heating Supply Air Humidity Ratio
    0.0077,                   !- Minimum Cooling Supply Air Humidity Ratio
    NoLimit,                  !- Heating Limit
    ,                         !- Maximum Heating Air Flow Rate
    79726.77519027039,        !- Maximum Sensible Heating Capacity
    NoLimit,                  !- Cooling Limit
    ,                         !- Maximum Cooling Air Flow Rate
    ,                         !- Maximum Total Cooling Capacity
    ,                         !- Heating Availability Schedule Name
    ,                         !- Cooling Availability Schedule Name
    ConstantSensibleHeatRatio,    !- Dehumidification Control Type
    0.7,                      !- Cooling Sensible Heat Ratio
    60,                       !- Dehumidification Setpoint
    None,                     !- Humidification Control Type
    30,                       !- Humidification Setpoint
    Flow/Area,                !- Outdoor Air Method
    0.007,                    !- Outdoor Air Flow Rate per Person
    2.450000e-03,             !- Outdoor Air Flow Rate per Zone Floor Area
    0,                        !- Outdoor Air Flow Rate per Zone
    ,                         !- Design Specification Outdoor Air Object Name
    None,                     !- Demand Controlled Ventilation Type
    NoEconomizer,             !- Outdoor Air Economizer Type
    Sensible,                 !- Heat Recovery Type
    0.65,                     !- Sensible Heat Recovery Effectiveness
    0;                        !- Latent Heat Recovery Effectiveness

HVACTEMPLATE:ZONE:IDEALLOADSAIRSYSTEM,
    Block Build1_Alt0 Storey 0,    !- Zone Name
    ResidZone,                !- Template Thermostat Name
    ,                         !- System Availability Schedule Name
    50,                       !- Maximum Heating Supply Air Temperature
    13,                       !- Minimum Cooling Supply Air Temperature
    0.0156,                   !- Maximum Heating Supply Air Humidity Ratio
    0.0077,                   !- Minimum Cooling Supply Air Humidity Ratio
    NoLimit,                  !- Heating Limit
    ,                         !- Maximum Heating Air Flow Rate
    33058.72986726724,        !- Maximum Sensible Heating Capacity
    NoLimit,                  !- Cooling Limit
    ,                         !- Maximum Cooling Air Flow Rate
    ,                         !- Maximum Total Cooling Capacity
    ,                         !- Heating Availability Schedule Name
    ,                         !- Cooling Availability Schedule Name
    ConstantSensibleHeatRatio,    !- Dehumidification Control Type
    0.7,                      !- Cooling Sensible Heat Ratio
    60,                       !- Dehumidification Setpoint
    None,                     !- Humidification Control Type
    30,                       !- Humidification Setpoint
    Flow/Area,                !- Outdoor Air Method
    0.007,                    !- Outdoor Air Flow Rate per Person
    1.400000e-03,             !- Outdoor Air Flow Rate per Zone Floor Area
    0,                        !- Outdoor Air Flow Rate per Zone
    ,                         !- Design Specification Outdoor Air Object Name
    None,                     !- Demand Controlled Ventilation Type
    NoEconomizer,             !- Outdoor Air Economizer Type
    Sensible,                 !- Heat Recovery Type
    0.65,                     !- Sensible Heat Recovery Effectiveness
    0;                        !- Latent Heat Recovery Effectiveness

OUTDOORAIR:NODE,
    Block Build0_Alt0 Storey 0 IDEAL LOADS OUTDOOR AIR INLET,    !- Name
    -1,                       !- Height Above Ground
    ,                         !- Drybulb Temperature Schedule Name
    ,                         !- Wetbulb Temperature Schedule Name
    ,                         !- Wind Speed Schedule Name
    ,                         !- Wind Direction Schedule Name
    ,                         !- Wind Pressure Coefficient Curve Name
    No,                       !- Symmetric Wind Pressure Coefficient Curve
    Absolute;                 !- Wind Angle Type

OUTDOORAIR:NODE,
    Block Build1_Alt0 Storey 0 IDEAL LOADS OUTDOOR AIR INLET,    !- Name
    -1,                       !- Height Above Ground
    ,                         !- Drybulb Temperature Schedule Name
    ,                         !- Wetbulb Temperature Schedule Name
    ,                         !- Wind Speed Schedule Name
    ,                         !- Wind Direction Schedule Name
    ,                         !- Wind Pressure Coefficient Curve Name
    No,                       !- Symmetric Wind Pressure Coefficient Curve
    Absolute;                 !- Wind Angle Type

ENERGYMANAGEMENTSYSTEM:SENSOR,
    T0,                       !- Name
    Block Build0_Alt0 Storey 0,    !- OutputVariable or OutputMeter Index Key Name
    Zone Mean Air Temperature;    !- OutputVariable or OutputMeter Name

ENERGYMANAGEMENTSYSTEM:SENSOR,
    T1,                       !- Name
    Block Build1_Alt0 Storey 0,    !- OutputVariable or OutputMeter Index Key Name
    Zone Mean Air Temperature;    !- OutputVariable or OutputMeter Name

ENERGYMANAGEMENTSYSTEM:SENSOR,
    Pow0,                     !- Name
    Block Build0_Alt0 Storey 0 IDEAL LOADS AIR SYSTEM,    !- OutputVariable or OutputMeter Index Key Name
    Zone Ideal Loads Supply Air Total Heating Rate;    !- OutputVariable or OutputMeter Name

ENERGYMANAGEMENTSYSTEM:SENSOR,
    Pow1,                     !- Name
    Block Build1_Alt0 Storey 0 IDEAL LOADS AIR SYSTEM,    !- OutputVariable or OutputMeter Index Key Name
    Zone Ideal Loads Supply Air Total Heating Rate;    !- OutputVariable or OutputMeter Name

ENERGYMANAGEMENTSYSTEM:SENSOR,
    DHWPow,                   !- Name
    DHW,                      !- OutputVariable or OutputMeter Index Key Name
    Water Use Equipment Heating Rate;    !- OutputVariable or OutputMeter Name

ENERGYMANAGEMENTSYSTEM:PROGRAMCALLINGMANAGER,
    Average Building Temperature,    !- Name
    EndOfZoneTimestepBeforeZoneReporting,    !- EnergyPlus Model Calling Point
    AverageZoneTemps;         !- Program Name 1

ENERGYMANAGEMENTSYSTEM:PROGRAMCALLINGMANAGER,
    Compute Total Building Heat Pow,    !- Name
    EndOfZoneTimestepBeforeZoneReporting,    !- EnergyPlus Model Calling Point
    TotZonePow;               !- Program Name 1

ENERGYMANAGEMENTSYSTEM:PROGRAMCALLINGMANAGER,
    Compute Total DHW Heat Pow,    !- Name
    EndOfZoneTimestepBeforeZoneReporting,    !- EnergyPlus Model Calling Point
    prgmDHWPow;               !- Program Name 1

ENERGYMANAGEMENTSYSTEM:PROGRAM,
    AverageZoneTemps,         !- Name
    SET SumNumerator = T0*Vol0+T1*Vol1,    !- Program Line 1
    SET SumDenominator  = Vol0+Vol1,    !- Program Line 2
    SET AverageBuildingTemp  = SumNumerator / SumDenominator;    !- Program Line 3

ENERGYMANAGEMENTSYSTEM:PROGRAM,
    TotZonePow,               !- Name
    SET TotBuildPow = Pow0+Pow1;    !- Program Line 1

ENERGYMANAGEMENTSYSTEM:PROGRAM,
    prgmDHWPow,               !- Name
    SET TotDHWPow = DHWPow;    !- Program Line 1

ENERGYMANAGEMENTSYSTEM:GLOBALVARIABLE,
    AverageBuildingTemp;      !- Erl Variable 1 Name

ENERGYMANAGEMENTSYSTEM:GLOBALVARIABLE,
    TotBuildPow;              !- Erl Variable 1 Name

ENERGYMANAGEMENTSYSTEM:GLOBALVARIABLE,
    TotDHWPow;                !- Erl Variable 1 Name

ENERGYMANAGEMENTSYSTEM:OUTPUTVARIABLE,
    Mean Heated Zones Air Temperature,    !- Name
    AverageBuildingTemp,      !- EMS Variable Name
    Averaged,                 !- Type of Data in Variable
    ZoneTimeStep;             !- Update Frequency

ENERGYMANAGEMENTSYSTEM:OUTPUTVARIABLE,
    Total Building Heating Power,    !- Name
    TotBuildPow,              !- EMS Variable Name
    Averaged,                 !- Type of Data in Variable
    ZoneTimeStep;             !- Update Frequency

ENERGYMANAGEMENTSYSTEM:OUTPUTVARIABLE,
    Total DHW Heating Power,    !- Name
    TotDHWPow,                !- EMS Variable Name
    Averaged,                 !- Type of Data in Variable
    ZoneTimeStep;             !- Update Frequency

ENERGYMANAGEMENTSYSTEM:INTERNALVARIABLE,
    Vol0,                     !- Name
    Block Build0_Alt0 Storey 0,    !- Internal Data Index Key Name
    Zone Air Volume;          !- Internal Data Type

ENERGYMANAGEMENTSYSTEM:INTERNALVARIABLE,
    Vol1,                     !- Name
    Block Build1_Alt0 Storey 0,    !- Internal Data Index Key Name
    Zone Air Volume;          !- Internal Data Type

WATERUSE:EQUIPMENT,
    DHW,                      !- Name
    General,                  !- EndUse Subcategory
    1.568274e-08,             !- Peak Flow Rate
    WaterTaps,                !- Flow Rate Fraction Schedule Name
    TargetWaterTemp,          !- Target Temperature Schedule Name
    HotWaterTemp,             !- Hot Water Supply Temperature Schedule Name
    ColdWaterTemp;            !- Cold Water Supply Temperature Schedule Name

Output:VariableDictionary,
    Regular;                  !- Key Field

OUTPUT:ENERGYMANAGEMENTSYSTEM,
    Verbose,                  !- Actuator Availability Dictionary Reporting
    Verbose,                  !- Internal Variable Availability Dictionary Reporting
    Verbose;                  !- EMS Runtime Language Debug Output Level

Output:Table:SummaryReports,
    AllSummary;               !- Report 1 Name

OutputControl:Table:Style,
    HTML;                     !- Column Separator

OUTPUT:VARIABLE,
    *,                        !- Key Value
    Site Outdoor Air Drybulb Temperature,    !- Variable Name
    Hourly;                   !- Reporting Frequency

OUTPUT:VARIABLE,
    *,                        !- Key Value
    Site Outdoor Air Relative Humidity,    !- Variable Name
    Hourly;                   !- Reporting Frequency

OUTPUT:VARIABLE,
    *,                        !- Key Value
    Site Outdoor Air Barometric Pressure,    !- Variable Name
    Hourly;                   !- Reporting Frequency

OUTPUT:VARIABLE,
    *,                        !- Key Value
    Site Wind Speed,          !- Variable Name
    Hourly;                   !- Reporting Frequency

OUTPUT:VARIABLE,
    *,                        !- Key Value
    Site Diffuse Solar Radiation Rate per Area,    !- Variable Name
    Hourly;                   !- Reporting Frequency

OUTPUT:VARIABLE,
    *,                        !- Key Value
    Site Direct Solar Radiation Rate per Area,    !- Variable Name
    Hourly;                   !- Reporting Frequency

OUTPUT:VARIABLE,
    *,                        !- Key Value
    Zone Electric Equipment Electric Power,    !- Variable Name
    Hourly;                   !- Reporting Frequency

OUTPUT:VARIABLE,
    *,                        !- Key Value
    Zone Electric Equipment Total Heating Rate,    !- Variable Name
    Hourly;                   !- Reporting Frequency

OUTPUT:VARIABLE,
    *,                        !- Key Value
    Surface Outside Face Incident Solar Radiation Rate per Area,    !- Variable Name
    Hourly;                   !- Reporting Frequency

OUTPUT:VARIABLE,
    *,                        !- Key Value
    Surface Outside Face Incident Beam Solar Radiation Rate per Area,    !- Variable Name
    Hourly;                   !- Reporting Frequency

OUTPUT:VARIABLE,
    *,                        !- Key Value
    Zone Ideal Loads Supply Air Total Heating Rate,    !- Variable Name
    Hourly;                   !- Reporting Frequency

OUTPUT:VARIABLE,
    *,                        !- Key Value
    Water Use Equipment Hot Water Mass Flow Rate,    !- Variable Name
    Hourly;                   !- Reporting Frequency

OUTPUT:VARIABLE,
    *,                        !- Key Value
    Water Use Equipment Cold Water Mass Flow Rate,    !- Variable Name
    Hourly;                   !- Reporting Frequency

OUTPUT:VARIABLE,
    *,                        !- Key Value
    Water Use Equipment Hot Water Temperature,    !- Variable Name
    Hourly;                   !- Reporting Frequency

OUTPUT:VARIABLE,
    *,                        !- Key Value
    Water Use Equipment Cold Water Temperature,    !- Variable Name
    Hourly;                   !- Reporting Frequency

OUTPUT:VARIABLE,
    *,                        !- Key Value
    Water Use Equipment Heating Rate,    !- Variable Name
    Hourly;                   !- Reporting Frequency

OUTPUT:VARIABLE,
    *,                        !- Key Value
    Mean Heated Zones Air Temperature,    !- Variable Name
    Hourly;                   !- Reporting Frequency

OUTPUT:VARIABLE,
    *,                        !- Key Value
    Total Building Heating Power,    !- Variable Name
    Hourly;                   !- Reporting Frequency

OUTPUT:VARIABLE,
    *,                        !- Key Value
    Total DHW Heating Power,    !- Variable Name
    Hourly;                   !- Reporting Frequency

OUTPUT:DIAGNOSTICS,
    DISPLAYEXTRAWARNINGS,     !- Key 1
    DisplayAdvancedReportVariables;    !- Key 2